   60   60  100    1
  0.7245713E+01  0.1040830E-08  0.1025484E-08  0.5079608E-09  0.5000000E-15
  1.000000000000000E-004
  CAR 
 unknown system                          
    195    166    128
 
  0.0000000E+00  0.0000000E+00  0.0000000E+00  0.3030303E-02
    1      -12.048507   1.000000
    2      -11.285492   1.000000
    3      -11.055748   1.000000
    4      -11.012402   1.000000
    5      -10.724304   1.000000
    6      -10.241196   1.000000
    7       -8.845467   1.000000
    8       -8.772334   1.000000
    9       -8.713107   1.000000
   10       -8.539158   1.000000
   11       -8.214760   1.000000
   12       -8.109930   1.000000
   13       -8.020270   1.000000
   14       -7.010237   1.000000
   15       -6.519405   1.000000
   16       -6.340783   1.000000
   17       -5.657240   1.000000
   18       -5.412121   1.000000
   19       -5.188968   1.000000
   20       -5.083317   1.000000
   21       -5.010429   1.000000
   22       -4.588279   1.000000
   23       -4.553145   1.000000
   24       -3.982490   1.000000
   25       -3.937165   1.000000
   26       -3.747864   1.000000
   27       -3.513931   1.000000
   28       -3.480347   1.000000
   29       -3.159122   1.000000
   30       -3.110617   1.000000
   31       -2.793268   1.000000
   32       -2.696001   1.000000
   33       -2.235835   1.000000
   34       -2.176041   1.000000
   35       -1.890575   1.000000
   36       -1.803755   1.000000
   37       -1.730828   1.000000
   38       -1.606277   1.000000
   39       -1.479003   1.000000
   40       -1.321484   1.000000
   41       -1.285668   1.000000
   42       -1.240293   1.000000
   43       -1.167588   1.000000
   44       -1.070423   1.000000
   45       -1.041846   1.000000
   46       -0.871089   1.000000
   47       -0.769938   1.000000
   48       -0.672472   1.000000
   49       -0.625255   1.000000
   50       -0.438236   1.000000
   51       -0.356536   1.000000
   52       -0.264144   1.000000
   53       -0.138827   1.000000
   54        0.014324   1.000000
   55        0.102521   1.000000
   56        0.253723   1.000000
   57        0.543016   1.000000
   58        0.615269   1.000000
   59        0.644006   1.000000
   60        0.768187   1.000000
   61        1.104003   1.000000
   62        1.162997   1.000000
   63        1.242500   1.000000
   64        1.369346   1.000000
   65        1.589711   1.000000
   66        1.627217   1.000000
   67        1.734929   1.000000
   68        1.787515   1.000000
   69        1.849012   1.000000
   70        2.024128   1.000000
   71        2.057805   1.000000
   72        2.144701   1.000000
   73        2.259951   1.000000
   74        2.350318   1.000000
   75        2.456447   1.000000
   76        2.601982   1.000000
   77        2.730646   1.000000
   78        2.791127   1.000000
   79        2.900153   1.000000
   80        2.947083   1.000000
   81        2.998474   1.000000
   82        3.140602   1.000000
   83        3.164294   1.000000
   84        3.431622   1.000000
   85        3.468187   1.000000
   86        3.664750   1.000000
   87        3.717444   1.000000
   88        3.881655   1.000000
   89        4.079936   1.000000
   90        4.251120   1.000000
   91        4.370585   1.000000
   92        4.503218   1.000000
   93        4.628035   1.000000
   94        4.864673   1.000000
   95        5.202609   1.000000
   96        5.711413   1.000000
   97        6.882741   1.000000
   98        6.993731   1.000000
   99        7.637835   0.000000
  100        7.667558   0.000000
  101        7.833803   0.000000
  102        8.038903   0.000000
  103        8.134976   0.000000
  104        8.328755   0.000000
  105        8.450932   0.000000
  106        8.778743   0.000000
  107        9.050417   0.000000
  108        9.658674   0.000000
  109        9.922259   0.000000
  110       10.186129   0.000000
  111       10.344347   0.000000
  112       10.478452   0.000000
  113       10.644571   0.000000
  114       10.784170   0.000000
  115       10.965450   0.000000
  116       11.123402   0.000000
  117       11.376575   0.000000
  118       11.539271   0.000000
  119       11.729677   0.000000
  120       11.816643   0.000000
  121       11.872248   0.000000
  122       12.017210   0.000000
  123       12.106193   0.000000
  124       12.238372   0.000000
  125       12.457756   0.000000
  126       12.548298   0.000000
  127       12.692190   0.000000
  128       12.779673   0.000000
 
  0.2000000E+00  0.1387779E-16 -0.6938894E-17  0.6060606E-02
    1      -12.039620   1.000000
    2      -11.305899   1.000000
    3      -11.064357   1.000000
    4      -11.023879   1.000000
    5      -10.714032   1.000000
    6      -10.203604   1.000000
    7       -8.869292   1.000000
    8       -8.748103   1.000000
    9       -8.684545   1.000000
   10       -8.535701   1.000000
   11       -8.265326   1.000000
   12       -8.140899   1.000000
   13       -8.009942   1.000000
   14       -6.992042   1.000000
   15       -6.509789   1.000000
   16       -6.320693   1.000000
   17       -5.659613   1.000000
   18       -5.437982   1.000000
   19       -5.242985   1.000000
   20       -5.116609   1.000000
   21       -5.044868   1.000000
   22       -4.624018   1.000000
   23       -4.439208   1.000000
   24       -4.025407   1.000000
   25       -3.975529   1.000000
   26       -3.730966   1.000000
   27       -3.439466   1.000000
   28       -3.315088   1.000000
   29       -3.089657   1.000000
   30       -3.015288   1.000000
   31       -2.730716   1.000000
   32       -2.599571   1.000000
   33       -2.365247   1.000000
   34       -2.197178   1.000000
   35       -2.059792   1.000000
   36       -2.003630   1.000000
   37       -1.871440   1.000000
   38       -1.706243   1.000000
   39       -1.595396   1.000000
   40       -1.445884   1.000000
   41       -1.347946   1.000000
   42       -1.194272   1.000000
   43       -1.150146   1.000000
   44       -1.027558   1.000000
   45       -0.906450   1.000000
   46       -0.742878   1.000000
   47       -0.699651   1.000000
   48       -0.564732   1.000000
   49       -0.504050   1.000000
   50       -0.450070   1.000000
   51       -0.313923   1.000000
   52       -0.200555   1.000000
   53       -0.119928   1.000000
   54        0.103156   1.000000
   55        0.187674   1.000000
   56        0.326118   1.000000
   57        0.381033   1.000000
   58        0.559079   1.000000
   59        0.629254   1.000000
   60        0.834310   1.000000
   61        0.875811   1.000000
   62        0.955115   1.000000
   63        1.143260   1.000000
   64        1.410807   1.000000
   65        1.501682   1.000000
   66        1.596480   1.000000
   67        1.699689   1.000000
   68        1.787039   1.000000
   69        1.933885   1.000000
   70        2.003308   1.000000
   71        2.125936   1.000000
   72        2.228070   1.000000
   73        2.397115   1.000000
   74        2.447428   1.000000
   75        2.548967   1.000000
   76        2.654041   1.000000
   77        2.722561   1.000000
   78        2.820049   1.000000
   79        2.870466   1.000000
   80        2.925010   1.000000
   81        3.054661   1.000000
   82        3.087344   1.000000
   83        3.268483   1.000000
   84        3.333717   1.000000
   85        3.581978   1.000000
   86        3.651997   1.000000
   87        3.693525   1.000000
   88        3.845930   1.000000
   89        4.016340   1.000000
   90        4.161969   1.000000
   91        4.382621   1.000000
   92        4.442385   1.000000
   93        4.591987   1.000000
   94        4.781025   1.000000
   95        5.147682   1.000000
   96        5.721581   1.000000
   97        6.956091   1.000000
   98        7.075872   1.001524
   99        7.626438   0.000000
  100        7.672413   0.000000
  101        7.817540   0.000000
  102        7.969897   0.000000
  103        8.064912   0.000000
  104        8.278185   0.000000
  105        8.452136   0.000000
  106        8.841000   0.000000
  107        9.198825   0.000000
  108        9.752011   0.000000
  109        9.998274   0.000000
  110       10.156491   0.000000
  111       10.418708   0.000000
  112       10.551524   0.000000
  113       10.716531   0.000000
  114       10.834518   0.000000
  115       10.966108   0.000000
  116       11.110262   0.000000
  117       11.344314   0.000000
  118       11.562529   0.000000
  119       11.750430   0.000000
  120       11.797173   0.000000
  121       11.869089   0.000000
  122       12.011185   0.000000
  123       12.147623   0.000000
  124       12.188949   0.000000
  125       12.304706   0.000000
  126       12.397227   0.000000
  127       12.542701   0.000000
  128       12.642389   0.000000
 
  0.4000000E+00  0.2775558E-16 -0.1387779E-16  0.6060606E-02
    1      -12.024284   1.000000
    2      -11.339931   1.000000
    3      -11.095078   1.000000
    4      -11.017930   1.000000
    5      -10.702232   1.000000
    6      -10.144615   1.000000
    7       -8.894264   1.000000
    8       -8.753343   1.000000
    9       -8.561895   1.000000
   10       -8.527644   1.000000
   11       -8.393392   1.000000
   12       -8.188683   1.000000
   13       -7.997454   1.000000
   14       -6.962460   1.000000
   15       -6.494851   1.000000
   16       -6.283575   1.000000
   17       -5.663065   1.000000
   18       -5.493888   1.000000
   19       -5.334644   1.000000
   20       -5.166050   1.000000
   21       -5.057784   1.000000
   22       -4.645979   1.000000
   23       -4.281426   1.000000
   24       -4.098291   1.000000
   25       -4.029686   1.000000
   26       -3.680110   1.000000
   27       -3.328338   1.000000
   28       -3.059467   1.000000
   29       -2.959865   1.000000
   30       -2.745801   1.000000
   31       -2.645934   1.000000
   32       -2.574330   1.000000
   33       -2.447310   1.000000
   34       -2.349409   1.000000
   35       -2.297155   1.000000
   36       -2.160655   1.000000
   37       -2.017934   1.000000
   38       -1.827423   1.000000
   39       -1.761989   1.000000
   40       -1.644379   1.000000
   41       -1.532954   1.000000
   42       -1.284929   1.000000
   43       -1.179025   1.000000
   44       -1.010987   1.000000
   45       -0.690812   1.000000
   46       -0.594317   1.000000
   47       -0.487676   1.000000
   48       -0.432610   1.000000
   49       -0.386842   1.000000
   50       -0.332016   1.000000
   51       -0.204256   1.000000
   52       -0.109529   1.000000
   53       -0.074731   1.000000
   54        0.089773   1.000000
   55        0.235412   1.000000
   56        0.330358   1.000000
   57        0.402544   1.000000
   58        0.476124   1.000000
   59        0.642550   1.000000
   60        0.697354   1.000000
   61        0.842598   1.000000
   62        0.885940   1.000000
   63        0.977726   1.000000
   64        1.221414   1.000000
   65        1.352418   1.000000
   66        1.428886   1.000000
   67        1.700235   1.000000
   68        1.796989   1.000000
   69        1.971401   1.000000
   70        2.016478   1.000000
   71        2.129909   1.000000
   72        2.350105   1.000000
   73        2.432116   1.000000
   74        2.524711   1.000000
   75        2.663887   1.000000
   76        2.775673   1.000000
   77        2.791448   1.000000
   78        2.885640   1.000000
   79        2.959520   1.000000
   80        3.070454   1.000000
   81        3.093156   1.000000
   82        3.198798   1.000000
   83        3.291406   1.000000
   84        3.444244   1.000000
   85        3.553369   1.000000
   86        3.608403   1.000000
   87        3.676253   1.000000
   88        3.743255   1.000000
   89        3.823935   1.000000
   90        4.045518   1.000000
   91        4.315785   1.000000
   92        4.370010   1.000000
   93        4.480213   1.000000
   94        4.683817   1.000000
   95        5.065131   1.000000
   96        5.736090   1.000000
   97        7.143912   1.000000
   98        7.314095   0.452713
   99        7.459734   0.000000
  100        7.627166   0.000000
  101        7.715085   0.000000
  102        7.819974   0.000000
  103        8.080298   0.000000
  104        8.235300   0.000000
  105        8.488729   0.000000
  106        8.968936   0.000000
  107        9.513278   0.000000
  108        9.620165   0.000000
  109       10.207909   0.000000
  110       10.315991   0.000000
  111       10.538837   0.000000
  112       10.672065   0.000000
  113       10.753424   0.000000
  114       10.858118   0.000000
  115       10.960641   0.000000
  116       11.222091   0.000000
  117       11.370047   0.000000
  118       11.463541   0.000000
  119       11.648177   0.000000
  120       11.735581   0.000000
  121       11.863691   0.000000
  122       11.931440   0.000000
  123       12.010479   0.000000
  124       12.087769   0.000000
  125       12.297055   0.000000
  126       12.324989   0.000000
  127       12.410838   0.000000
  128       12.540597   0.000000
 
  0.0000000E+00  0.1666667E+00  0.1040834E-16  0.6060606E-02
    1      -12.036559   1.000000
    2      -11.332660   1.000000
    3      -11.076778   1.000000
    4      -10.981309   1.000000
    5      -10.701955   1.000000
    6      -10.226008   1.000000
    7       -8.872409   1.000000
    8       -8.752490   1.000000
    9       -8.695644   1.000000
   10       -8.530141   1.000000
   11       -8.217097   1.000000
   12       -8.141246   1.000000
   13       -8.029105   1.000000
   14       -7.012873   1.000000
   15       -6.507391   1.000000
   16       -6.339358   1.000000
   17       -5.701303   1.000000
   18       -5.383441   1.000000
   19       -5.190657   1.000000
   20       -5.097444   1.000000
   21       -5.006370   1.000000
   22       -4.666717   1.000000
   23       -4.472092   1.000000
   24       -4.010062   1.000000
   25       -3.996471   1.000000
   26       -3.646585   1.000000
   27       -3.446852   1.000000
   28       -3.412423   1.000000
   29       -3.118512   1.000000
   30       -3.078793   1.000000
   31       -2.746362   1.000000
   32       -2.647781   1.000000
   33       -2.359391   1.000000
   34       -2.230049   1.000000
   35       -2.058403   1.000000
   36       -1.924014   1.000000
   37       -1.830492   1.000000
   38       -1.639727   1.000000
   39       -1.512795   1.000000
   40       -1.413135   1.000000
   41       -1.274533   1.000000
   42       -1.174596   1.000000
   43       -1.091381   1.000000
   44       -1.018732   1.000000
   45       -0.943561   1.000000
   46       -0.900835   1.000000
   47       -0.791694   1.000000
   48       -0.603951   1.000000
   49       -0.539181   1.000000
   50       -0.433743   1.000000
   51       -0.348991   1.000000
   52       -0.272328   1.000000
   53       -0.072470   1.000000
   54        0.111296   1.000000
   55        0.174521   1.000000
   56        0.325934   1.000000
   57        0.516897   1.000000
   58        0.552719   1.000000
   59        0.660804   1.000000
   60        0.831024   1.000000
   61        0.928542   1.000000
   62        1.135779   1.000000
   63        1.257274   1.000000
   64        1.307917   1.000000
   65        1.502580   1.000000
   66        1.577564   1.000000
   67        1.674639   1.000000
   68        1.756010   1.000000
   69        1.852253   1.000000
   70        1.913214   1.000000
   71        2.104073   1.000000
   72        2.194537   1.000000
   73        2.288410   1.000000
   74        2.418275   1.000000
   75        2.462092   1.000000
   76        2.659020   1.000000
   77        2.715249   1.000000
   78        2.801330   1.000000
   79        2.947527   1.000000
   80        3.005114   1.000000
   81        3.087866   1.000000
   82        3.166533   1.000000
   83        3.254613   1.000000
   84        3.335931   1.000000
   85        3.524990   1.000000
   86        3.662138   1.000000
   87        3.731246   1.000000
   88        3.839946   1.000000
   89        4.025961   1.000000
   90        4.202844   1.000000
   91        4.305073   1.000000
   92        4.460242   1.000000
   93        4.597885   1.000000
   94        4.853192   1.000000
   95        5.217251   1.000000
   96        5.638798   1.000000
   97        6.936360   1.000000
   98        7.044891   1.000000
   99        7.617798   0.000000
  100        7.680345   0.000000
  101        7.825181   0.000000
  102        8.039037   0.000000
  103        8.083725   0.000000
  104        8.236371   0.000000
  105        8.475830   0.000000
  106        8.862570   0.000000
  107        9.079712   0.000000
  108        9.732403   0.000000
  109        9.980420   0.000000
  110       10.176136   0.000000
  111       10.344279   0.000000
  112       10.480588   0.000000
  113       10.729142   0.000000
  114       10.807389   0.000000
  115       11.018526   0.000000
  116       11.129515   0.000000
  117       11.389856   0.000000
  118       11.604101   0.000000
  119       11.718449   0.000000
  120       11.826907   0.000000
  121       11.868306   0.000000
  122       12.043602   0.000000
  123       12.105844   0.000000
  124       12.180516   0.000000
  125       12.302719   0.000000
  126       12.520514   0.000000
  127       12.680570   0.000000
  128       12.716355   0.000000
 
  0.2000000E+00  0.1666667E+00 -0.6938894E-17  0.6060606E-02
    1      -12.032186   1.000000
    2      -11.335466   1.000000
    3      -11.064361   1.000000
    4      -11.010941   1.000000
    5      -10.701325   1.000000
    6      -10.212411   1.000000
    7       -8.895867   1.000000
    8       -8.743001   1.000000
    9       -8.612257   1.000000
   10       -8.510124   1.000000
   11       -8.279747   1.000000
   12       -8.186731   1.000000
   13       -8.018152   1.000000
   14       -6.998710   1.000000
   15       -6.500842   1.000000
   16       -6.326699   1.000000
   17       -5.697136   1.000000
   18       -5.424830   1.000000
   19       -5.191871   1.000000
   20       -5.122900   1.000000
   21       -5.032606   1.000000
   22       -4.635392   1.000000
   23       -4.545636   1.000000
   24       -4.029430   1.000000
   25       -4.016048   1.000000
   26       -3.629668   1.000000
   27       -3.459015   1.000000
   28       -3.254787   1.000000
   29       -3.127434   1.000000
   30       -3.042728   1.000000
   31       -2.776427   1.000000
   32       -2.552802   1.000000
   33       -2.353435   1.000000
   34       -2.183575   1.000000
   35       -1.970728   1.000000
   36       -1.888422   1.000000
   37       -1.814262   1.000000
   38       -1.663110   1.000000
   39       -1.580361   1.000000
   40       -1.473634   1.000000
   41       -1.248997   1.000000
   42       -1.169489   1.000000
   43       -1.089807   1.000000
   44       -1.043489   1.000000
   45       -0.939553   1.000000
   46       -0.872124   1.000000
   47       -0.789607   1.000000
   48       -0.699808   1.000000
   49       -0.523783   1.000000
   50       -0.468647   1.000000
   51       -0.385258   1.000000
   52       -0.253314   1.000000
   53       -0.160591   1.000000
   54       -0.024173   1.000000
   55        0.136334   1.000000
   56        0.278393   1.000000
   57        0.380172   1.000000
   58        0.508461   1.000000
   59        0.712870   1.000000
   60        0.940459   1.000000
   61        1.004356   1.000000
   62        1.087812   1.000000
   63        1.250384   1.000000
   64        1.397268   1.000000
   65        1.530369   1.000000
   66        1.600997   1.000000
   67        1.672172   1.000000
   68        1.785363   1.000000
   69        1.884054   1.000000
   70        1.948538   1.000000
   71        2.118272   1.000000
   72        2.218483   1.000000
   73        2.303123   1.000000
   74        2.403378   1.000000
   75        2.472473   1.000000
   76        2.637970   1.000000
   77        2.718573   1.000000
   78        2.856755   1.000000
   79        2.951015   1.000000
   80        3.051807   1.000000
   81        3.127319   1.000000
   82        3.174398   1.000000
   83        3.303978   1.000000
   84        3.346005   1.000000
   85        3.549929   1.000000
   86        3.639868   1.000000
   87        3.724436   1.000000
   88        3.858743   1.000000
   89        3.930211   1.000000
   90        4.133677   1.000000
   91        4.294277   1.000000
   92        4.398044   1.000000
   93        4.591233   1.000000
   94        4.781399   1.000000
   95        5.174595   1.000000
   96        5.648520   1.000000
   97        6.954216   1.000000
   98        7.079024   1.000000
   99        7.581187   0.000000
  100        7.694657   0.000000
  101        7.772878   0.000000
  102        7.988333   0.000000
  103        8.134930   0.000000
  104        8.311156   0.000000
  105        8.599350   0.000000
  106        8.903760   0.000000
  107        9.197369   0.000000
  108        9.806534   0.000000
  109       10.018875   0.000000
  110       10.176827   0.000000
  111       10.326238   0.000000
  112       10.536339   0.000000
  113       10.760783   0.000000
  114       10.842029   0.000000
  115       10.954522   0.000000
  116       11.156534   0.000000
  117       11.344837   0.000000
  118       11.539641   0.000000
  119       11.695688   0.000000
  120       11.770839   0.000000
  121       11.814037   0.000000
  122       11.983525   0.000000
  123       12.048215   0.000000
  124       12.139322   0.000000
  125       12.272611   0.000000
  126       12.389513   0.000000
  127       12.477709   0.000000
  128       12.511205   0.000000
 
  0.4000000E+00  0.1666667E+00 -0.2775558E-16  0.6060606E-02
    1      -12.017644   1.000000
    2      -11.357809   1.000000
    3      -11.112584   1.000000
    4      -10.996495   1.000000
    5      -10.690475   1.000000
    6      -10.158494   1.000000
    7       -8.887778   1.000000
    8       -8.747918   1.000000
    9       -8.545224   1.000000
   10       -8.464235   1.000000
   11       -8.415374   1.000000
   12       -8.230036   1.000000
   13       -8.010592   1.000000
   14       -6.969471   1.000000
   15       -6.486090   1.000000
   16       -6.292100   1.000000
   17       -5.701122   1.000000
   18       -5.472887   1.000000
   19       -5.283402   1.000000
   20       -5.173107   1.000000
   21       -5.057577   1.000000
   22       -4.659169   1.000000
   23       -4.405930   1.000000
   24       -4.085626   1.000000
   25       -4.075234   1.000000
   26       -3.575623   1.000000
   27       -3.381558   1.000000
   28       -3.103498   1.000000
   29       -3.035591   1.000000
   30       -2.817213   1.000000
   31       -2.608074   1.000000
   32       -2.442516   1.000000
   33       -2.349667   1.000000
   34       -2.272980   1.000000
   35       -2.192649   1.000000
   36       -2.059277   1.000000
   37       -1.942808   1.000000
   38       -1.800310   1.000000
   39       -1.752947   1.000000
   40       -1.626078   1.000000
   41       -1.412548   1.000000
   42       -1.362046   1.000000
   43       -1.122253   1.000000
   44       -0.990086   1.000000
   45       -0.825266   1.000000
   46       -0.738044   1.000000
   47       -0.666734   1.000000
   48       -0.543088   1.000000
   49       -0.477271   1.000000
   50       -0.389271   1.000000
   51       -0.256837   1.000000
   52       -0.190173   1.000000
   53       -0.129955   1.000000
   54       -0.058120   1.000000
   55        0.177319   1.000000
   56        0.286699   1.000000
   57        0.472897   1.000000
   58        0.582978   1.000000
   59        0.661151   1.000000
   60        0.796068   1.000000
   61        0.865077   1.000000
   62        1.009063   1.000000
   63        1.188830   1.000000
   64        1.257174   1.000000
   65        1.438271   1.000000
   66        1.552213   1.000000
   67        1.704206   1.000000
   68        1.735033   1.000000
   69        1.915879   1.000000
   70        2.014089   1.000000
   71        2.153284   1.000000
   72        2.226909   1.000000
   73        2.375435   1.000000
   74        2.493916   1.000000
   75        2.605494   1.000000
   76        2.760011   1.000000
   77        2.829167   1.000000
   78        2.862222   1.000000
   79        3.032224   1.000000
   80        3.065966   1.000000
   81        3.166421   1.000000
   82        3.230561   1.000000
   83        3.281370   1.000000
   84        3.482772   1.000000
   85        3.544865   1.000000
   86        3.613129   1.000000
   87        3.670132   1.000000
   88        3.786666   1.000000
   89        3.804779   1.000000
   90        4.053240   1.000000
   91        4.145203   1.000000
   92        4.309439   1.000000
   93        4.554293   1.000000
   94        4.681559   1.000000
   95        5.097281   1.000000
   96        5.662412   1.000000
   97        7.080845   1.000000
   98        7.266046   0.749057
   99        7.496913   0.000000
  100        7.647007   0.000000
  101        7.776592   0.000000
  102        7.859209   0.000000
  103        8.081231   0.000000
  104        8.282218   0.000000
  105        8.650372   0.000000
  106        9.031143   0.000000
  107        9.517176   0.000000
  108        9.744066   0.000000
  109       10.196233   0.000000
  110       10.293456   0.000000
  111       10.501497   0.000000
  112       10.614790   0.000000
  113       10.743845   0.000000
  114       10.830852   0.000000
  115       10.942963   0.000000
  116       11.115174   0.000000
  117       11.349058   0.000000
  118       11.508162   0.000000
  119       11.646084   0.000000
  120       11.677485   0.000000
  121       11.749772   0.000000
  122       11.807584   0.000000
  123       11.982759   0.000000
  124       12.073480   0.000000
  125       12.229163   0.000000
  126       12.275898   0.000000
  127       12.354497   0.000000
  128       12.543159   0.000000
 
 -0.4000000E+00  0.1666667E+00  0.1734723E-16  0.6060606E-02
    1      -12.013042   1.000000
    2      -11.365554   1.000000
    3      -11.147215   1.000000
    4      -10.967140   1.000000
    5      -10.685856   1.000000
    6      -10.138815   1.000000
    7       -8.858421   1.000000
    8       -8.762442   1.000000
    9       -8.611363   1.000000
   10       -8.526727   1.000000
   11       -8.344277   1.000000
   12       -8.209350   1.000000
   13       -8.015008   1.000000
   14       -6.967041   1.000000
   15       -6.483615   1.000000
   16       -6.283378   1.000000
   17       -5.707735   1.000000
   18       -5.452923   1.000000
   19       -5.326089   1.000000
   20       -5.184279   1.000000
   21       -5.055966   1.000000
   22       -4.677528   1.000000
   23       -4.273932   1.000000
   24       -4.122703   1.000000
   25       -4.082389   1.000000
   26       -3.569806   1.000000
   27       -3.304796   1.000000
   28       -2.999924   1.000000
   29       -2.920570   1.000000
   30       -2.781965   1.000000
   31       -2.717850   1.000000
   32       -2.550431   1.000000
   33       -2.393022   1.000000
   34       -2.297640   1.000000
   35       -2.239912   1.000000
   36       -2.178907   1.000000
   37       -2.061883   1.000000
   38       -1.856700   1.000000
   39       -1.766416   1.000000
   40       -1.616501   1.000000
   41       -1.554922   1.000000
   42       -1.381700   1.000000
   43       -1.181719   1.000000
   44       -0.920076   1.000000
   45       -0.863424   1.000000
   46       -0.698400   1.000000
   47       -0.596447   1.000000
   48       -0.516203   1.000000
   49       -0.408343   1.000000
   50       -0.304817   1.000000
   51       -0.081881   1.000000
   52        0.001699   1.000000
   53        0.072891   1.000000
   54        0.149499   1.000000
   55        0.207583   1.000000
   56        0.279426   1.000000
   57        0.329311   1.000000
   58        0.401879   1.000000
   59        0.654842   1.000000
   60        0.720999   1.000000
   61        0.820585   1.000000
   62        1.011329   1.000000
   63        1.106478   1.000000
   64        1.198001   1.000000
   65        1.342568   1.000000
   66        1.460686   1.000000
   67        1.658669   1.000000
   68        1.845097   1.000000
   69        1.959605   1.000000
   70        2.027151   1.000000
   71        2.105116   1.000000
   72        2.332237   1.000000
   73        2.433089   1.000000
   74        2.481771   1.000000
   75        2.583742   1.000000
   76        2.662080   1.000000
   77        2.841269   1.000000
   78        2.942154   1.000000
   79        2.967641   1.000000
   80        3.090623   1.000000
   81        3.194996   1.000000
   82        3.282808   1.000000
   83        3.352124   1.000000
   84        3.436466   1.000000
   85        3.508919   1.000000
   86        3.575073   1.000000
   87        3.646840   1.000000
   88        3.680538   1.000000
   89        3.780702   1.000000
   90        4.038853   1.000000
   91        4.244799   1.000000
   92        4.338225   1.000000
   93        4.534794   1.000000
   94        4.667354   1.000000
   95        5.083122   1.000000
   96        5.661888   1.000000
   97        7.223312   1.000000
   98        7.359065   0.093418
   99        7.434308   0.000000
  100        7.616648   0.000000
  101        7.671657   0.000000
  102        7.867132   0.000000
  103        8.068998   0.000000
  104        8.183267   0.000000
  105        8.558999   0.000000
  106        9.051296   0.000000
  107        9.569630   0.000000
  108        9.741027   0.000000
  109       10.255461   0.000000
  110       10.321958   0.000000
  111       10.524749   0.000000
  112       10.647161   0.000000
  113       10.722081   0.000000
  114       10.811118   0.000000
  115       10.967256   0.000000
  116       11.138739   0.000000
  117       11.331961   0.000000
  118       11.378440   0.000000
  119       11.662762   0.000000
  120       11.713979   0.000000
  121       11.812084   0.000000
  122       11.871036   0.000000
  123       11.981992   0.000000
  124       12.199455   0.000000
  125       12.242803   0.000000
  126       12.346902   0.000000
  127       12.464628   0.000000
  128       12.572333   0.000000
 
 -0.2000000E+00  0.1666667E+00  0.2027458E-16  0.6060606E-02
    1      -12.025216   1.000000
    2      -11.350186   1.000000
    3      -11.121348   1.000000
    4      -10.966241   1.000000
    5      -10.688431   1.000000
    6      -10.180034   1.000000
    7       -8.815566   1.000000
    8       -8.792885   1.000000
    9       -8.712703   1.000000
   10       -8.537341   1.000000
   11       -8.250727   1.000000
   12       -8.150612   1.000000
   13       -8.028819   1.000000
   14       -6.993635   1.000000
   15       -6.496442   1.000000
   16       -6.315000   1.000000
   17       -5.707832   1.000000
   18       -5.389227   1.000000
   19       -5.265838   1.000000
   20       -5.143191   1.000000
   21       -5.042367   1.000000
   22       -4.680915   1.000000
   23       -4.321233   1.000000
   24       -4.072668   1.000000
   25       -4.035509   1.000000
   26       -3.612669   1.000000
   27       -3.360692   1.000000
   28       -3.231451   1.000000
   29       -3.029327   1.000000
   30       -2.922465   1.000000
   31       -2.675294   1.000000
   32       -2.531839   1.000000
   33       -2.481015   1.000000
   34       -2.355822   1.000000
   35       -2.193484   1.000000
   36       -2.103510   1.000000
   37       -1.974245   1.000000
   38       -1.888153   1.000000
   39       -1.684155   1.000000
   40       -1.515134   1.000000
   41       -1.362834   1.000000
   42       -1.269303   1.000000
   43       -1.021930   1.000000
   44       -0.920935   1.000000
   45       -0.801528   1.000000
   46       -0.774137   1.000000
   47       -0.717202   1.000000
   48       -0.567217   1.000000
   49       -0.447649   1.000000
   50       -0.311318   1.000000
   51       -0.216715   1.000000
   52       -0.164435   1.000000
   53        0.006508   1.000000
   54        0.142789   1.000000
   55        0.234232   1.000000
   56        0.379253   1.000000
   57        0.453636   1.000000
   58        0.571893   1.000000
   59        0.635518   1.000000
   60        0.715764   1.000000
   61        0.827933   1.000000
   62        0.954620   1.000000
   63        1.165881   1.000000
   64        1.269289   1.000000
   65        1.411132   1.000000
   66        1.528125   1.000000
   67        1.662308   1.000000
   68        1.726737   1.000000
   69        1.854037   1.000000
   70        1.986185   1.000000
   71        2.170824   1.000000
   72        2.321231   1.000000
   73        2.428287   1.000000
   74        2.510110   1.000000
   75        2.569717   1.000000
   76        2.654537   1.000000
   77        2.748836   1.000000
   78        2.830922   1.000000
   79        2.880135   1.000000
   80        2.921017   1.000000
   81        3.057239   1.000000
   82        3.144476   1.000000
   83        3.335068   1.000000
   84        3.394456   1.000000
   85        3.521651   1.000000
   86        3.637821   1.000000
   87        3.692702   1.000000
   88        3.846130   1.000000
   89        3.879859   1.000000
   90        4.129963   1.000000
   91        4.341269   1.000000
   92        4.481242   1.000000
   93        4.527146   1.000000
   94        4.768228   1.000000
   95        5.154851   1.000000
   96        5.647986   1.000000
   97        7.060392   1.000000
   98        7.147035   1.089649
   99        7.598667   0.000000
  100        7.684672   0.000000
  101        7.844405   0.000000
  102        7.934628   0.000000
  103        8.009825   0.000000
  104        8.118372   0.000000
  105        8.441651   0.000000
  106        8.943109   0.000000
  107        9.249915   0.000000
  108        9.869774   0.000000
  109       10.042188   0.000000
  110       10.156783   0.000000
  111       10.421734   0.000000
  112       10.557134   0.000000
  113       10.754021   0.000000
  114       10.835435   0.000000
  115       11.028736   0.000000
  116       11.097236   0.000000
  117       11.333392   0.000000
  118       11.576700   0.000000
  119       11.740789   0.000000
  120       11.810310   0.000000
  121       11.974491   0.000000
  122       12.047025   0.000000
  123       12.110129   0.000000
  124       12.209699   0.000000
  125       12.288062   0.000000
  126       12.331445   0.000000
  127       12.541443   0.000000
  128       12.633047   0.000000
 
  0.0000000E+00  0.3333333E+00  0.2081668E-16  0.6060606E-02
    1      -12.009752   1.000000
    2      -11.417728   1.000000
    3      -11.085712   1.000000
    4      -10.963420   1.000000
    5      -10.659002   1.000000
    6      -10.194123   1.000000
    7       -8.895412   1.000000
    8       -8.783067   1.000000
    9       -8.614720   1.000000
   10       -8.496732   1.000000
   11       -8.253481   1.000000
   12       -8.200302   1.000000
   13       -8.040210   1.000000
   14       -7.020138   1.000000
   15       -6.485363   1.000000
   16       -6.330384   1.000000
   17       -5.786207   1.000000
   18       -5.324991   1.000000
   19       -5.187609   1.000000
   20       -5.110740   1.000000
   21       -4.989611   1.000000
   22       -4.799146   1.000000
   23       -4.346303   1.000000
   24       -4.090780   1.000000
   25       -4.060000   1.000000
   26       -3.497891   1.000000
   27       -3.308671   1.000000
   28       -3.211401   1.000000
   29       -3.020683   1.000000
   30       -2.934206   1.000000
   31       -2.757690   1.000000
   32       -2.597158   1.000000
   33       -2.492252   1.000000
   34       -2.322311   1.000000
   35       -2.273978   1.000000
   36       -2.170546   1.000000
   37       -1.978860   1.000000
   38       -1.880300   1.000000
   39       -1.690244   1.000000
   40       -1.476939   1.000000
   41       -1.366660   1.000000
   42       -1.156481   1.000000
   43       -0.984079   1.000000
   44       -0.901590   1.000000
   45       -0.837577   1.000000
   46       -0.742124   1.000000
   47       -0.689777   1.000000
   48       -0.551217   1.000000
   49       -0.492086   1.000000
   50       -0.253625   1.000000
   51       -0.198531   1.000000
   52       -0.154564   1.000000
   53       -0.028144   1.000000
   54        0.165056   1.000000
   55        0.184620   1.000000
   56        0.358634   1.000000
   57        0.482398   1.000000
   58        0.577315   1.000000
   59        0.621616   1.000000
   60        0.762620   1.000000
   61        0.839079   1.000000
   62        0.996504   1.000000
   63        1.135918   1.000000
   64        1.206837   1.000000
   65        1.366874   1.000000
   66        1.531100   1.000000
   67        1.650296   1.000000
   68        1.694215   1.000000
   69        1.848953   1.000000
   70        1.970579   1.000000
   71        2.106048   1.000000
   72        2.223344   1.000000
   73        2.285435   1.000000
   74        2.444088   1.000000
   75        2.607131   1.000000
   76        2.730778   1.000000
   77        2.769592   1.000000
   78        2.840775   1.000000
   79        2.867214   1.000000
   80        3.072838   1.000000
   81        3.144424   1.000000
   82        3.280488   1.000000
   83        3.326956   1.000000
   84        3.438609   1.000000
   85        3.526004   1.000000
   86        3.572269   1.000000
   87        3.805825   1.000000
   88        3.902296   1.000000
   89        3.955595   1.000000
   90        4.063473   1.000000
   91        4.172910   1.000000
   92        4.328921   1.000000
   93        4.560748   1.000000
   94        4.799200   1.000000
   95        5.248304   1.000000
   96        5.460092   1.000000
   97        7.063252   1.000000
   98        7.221180   1.082673
   99        7.502590   0.000000
  100        7.615765   0.000000
  101        7.857108   0.000000
  102        7.965698   0.000000
  103        8.009384   0.000000
  104        8.148415   0.000000
  105        8.567072   0.000000
  106        8.960724   0.000000
  107        9.220807   0.000000
  108        9.818048   0.000000
  109        9.962518   0.000000
  110       10.184856   0.000000
  111       10.454228   0.000000
  112       10.493906   0.000000
  113       10.816039   0.000000
  114       10.973148   0.000000
  115       11.128830   0.000000
  116       11.246749   0.000000
  117       11.386382   0.000000
  118       11.640196   0.000000
  119       11.698865   0.000000
  120       11.781272   0.000000
  121       11.924609   0.000000
  122       11.941838   0.000000
  123       12.066160   0.000000
  124       12.165979   0.000000
  125       12.308550   0.000000
  126       12.403407   0.000000
  127       12.501378   0.000000
  128       12.583426   0.000000
 
  0.2000000E+00  0.3333333E+00  0.0000000E+00  0.6060606E-02
    1      -12.008493   1.000000
    2      -11.409165   1.000000
    3      -11.078147   1.000000
    4      -10.991164   1.000000
    5      -10.658374   1.000000
    6      -10.196554   1.000000
    7       -8.889770   1.000000
    8       -8.766162   1.000000
    9       -8.573208   1.000000
   10       -8.433600   1.000000
   11       -8.312468   1.000000
   12       -8.260525   1.000000
   13       -8.036753   1.000000
   14       -7.007487   1.000000
   15       -6.479604   1.000000
   16       -6.323451   1.000000
   17       -5.781709   1.000000
   18       -5.367780   1.000000
   19       -5.174087   1.000000
   20       -5.106868   1.000000
   21       -5.004983   1.000000
   22       -4.804609   1.000000
   23       -4.490720   1.000000
   24       -4.114600   1.000000
   25       -4.051813   1.000000
   26       -3.463335   1.000000
   27       -3.363789   1.000000
   28       -3.146960   1.000000
   29       -3.049526   1.000000
   30       -2.976739   1.000000
   31       -2.764164   1.000000
   32       -2.495597   1.000000
   33       -2.412107   1.000000
   34       -2.236594   1.000000
   35       -2.113537   1.000000
   36       -2.011065   1.000000
   37       -1.923150   1.000000
   38       -1.716191   1.000000
   39       -1.567577   1.000000
   40       -1.403171   1.000000
   41       -1.316880   1.000000
   42       -1.248887   1.000000
   43       -1.142870   1.000000
   44       -1.045767   1.000000
   45       -0.944278   1.000000
   46       -0.869171   1.000000
   47       -0.809430   1.000000
   48       -0.613572   1.000000
   49       -0.481770   1.000000
   50       -0.388076   1.000000
   51       -0.292821   1.000000
   52       -0.236512   1.000000
   53       -0.112507   1.000000
   54        0.003800   1.000000
   55        0.086258   1.000000
   56        0.241062   1.000000
   57        0.452615   1.000000
   58        0.580848   1.000000
   59        0.661774   1.000000
   60        0.908564   1.000000
   61        1.008831   1.000000
   62        1.050516   1.000000
   63        1.259682   1.000000
   64        1.324268   1.000000
   65        1.466576   1.000000
   66        1.595474   1.000000
   67        1.641412   1.000000
   68        1.717048   1.000000
   69        1.889913   1.000000
   70        2.002381   1.000000
   71        2.164350   1.000000
   72        2.226685   1.000000
   73        2.379697   1.000000
   74        2.441441   1.000000
   75        2.491946   1.000000
   76        2.677618   1.000000
   77        2.747244   1.000000
   78        2.779807   1.000000
   79        2.945472   1.000000
   80        3.052468   1.000000
   81        3.147335   1.000000
   82        3.276504   1.000000
   83        3.320076   1.000000
   84        3.403634   1.000000
   85        3.466213   1.000000
   86        3.646027   1.000000
   87        3.764270   1.000000
   88        3.914010   1.000000
   89        3.967239   1.000000
   90        4.069159   1.000000
   91        4.173149   1.000000
   92        4.291186   1.000000
   93        4.532763   1.000000
   94        4.739171   1.000000
   95        5.231420   1.000000
   96        5.459182   1.000000
   97        7.032746   1.000000
   98        7.179999   1.060788
   99        7.505111   0.000000
  100        7.653379   0.000000
  101        7.844292   0.000000
  102        7.950314   0.000000
  103        8.111356   0.000000
  104        8.234015   0.000000
  105        8.779887   0.000000
  106        9.034336   0.000000
  107        9.278414   0.000000
  108        9.895583   0.000000
  109       10.008793   0.000000
  110       10.213527   0.000000
  111       10.372578   0.000000
  112       10.503238   0.000000
  113       10.798670   0.000000
  114       10.930722   0.000000
  115       11.073430   0.000000
  116       11.199373   0.000000
  117       11.369304   0.000000
  118       11.463124   0.000000
  119       11.565047   0.000000
  120       11.593106   0.000000
  121       11.871132   0.000000
  122       11.977135   0.000000
  123       12.077284   0.000000
  124       12.109635   0.000000
  125       12.172583   0.000000
  126       12.233385   0.000000
  127       12.390776   0.000000
  128       12.538788   0.000000
 
  0.4000000E+00  0.3333333E+00 -0.1387779E-16  0.6060606E-02
    1      -11.998283   1.000000
    2      -11.413646   1.000000
    3      -11.096804   1.000000
    4      -11.015219   1.000000
    5      -10.643643   1.000000
    6      -10.168466   1.000000
    7       -8.851104   1.000000
    8       -8.747940   1.000000
    9       -8.548135   1.000000
   10       -8.435961   1.000000
   11       -8.367835   1.000000
   12       -8.302321   1.000000
   13       -8.043173   1.000000
   14       -6.980978   1.000000
   15       -6.466251   1.000000
   16       -6.297500   1.000000
   17       -5.784814   1.000000
   18       -5.408065   1.000000
   19       -5.219867   1.000000
   20       -5.161620   1.000000
   21       -5.043024   1.000000
   22       -4.775962   1.000000
   23       -4.516176   1.000000
   24       -4.136939   1.000000
   25       -4.093740   1.000000
   26       -3.448125   1.000000
   27       -3.326710   1.000000
   28       -3.172465   1.000000
   29       -2.999114   1.000000
   30       -2.812075   1.000000
   31       -2.583502   1.000000
   32       -2.402210   1.000000
   33       -2.277073   1.000000
   34       -2.146056   1.000000
   35       -2.074718   1.000000
   36       -1.949362   1.000000
   37       -1.895890   1.000000
   38       -1.745975   1.000000
   39       -1.704775   1.000000
   40       -1.594708   1.000000
   41       -1.419473   1.000000
   42       -1.284465   1.000000
   43       -1.201787   1.000000
   44       -1.085134   1.000000
   45       -0.956966   1.000000
   46       -0.873238   1.000000
   47       -0.812916   1.000000
   48       -0.727520   1.000000
   49       -0.627994   1.000000
   50       -0.509625   1.000000
   51       -0.435645   1.000000
   52       -0.300541   1.000000
   53       -0.107953   1.000000
   54        0.028628   1.000000
   55        0.173817   1.000000
   56        0.232720   1.000000
   57        0.512165   1.000000
   58        0.719487   1.000000
   59        0.738997   1.000000
   60        0.858271   1.000000
   61        0.984208   1.000000
   62        1.179055   1.000000
   63        1.275310   1.000000
   64        1.308312   1.000000
   65        1.486902   1.000000
   66        1.605053   1.000000
   67        1.692771   1.000000
   68        1.835061   1.000000
   69        1.861721   1.000000
   70        1.981309   1.000000
   71        2.167381   1.000000
   72        2.232365   1.000000
   73        2.315856   1.000000
   74        2.477047   1.000000
   75        2.568938   1.000000
   76        2.749147   1.000000
   77        2.792639   1.000000
   78        2.855599   1.000000
   79        2.943200   1.000000
   80        3.081260   1.000000
   81        3.128940   1.000000
   82        3.238779   1.000000
   83        3.322147   1.000000
   84        3.387740   1.000000
   85        3.478912   1.000000
   86        3.658288   1.000000
   87        3.713186   1.000000
   88        3.816306   1.000000
   89        3.948857   1.000000
   90        4.040806   1.000000
   91        4.113601   1.000000
   92        4.196435   1.000000
   93        4.540284   1.000000
   94        4.647298   1.000000
   95        5.171103   1.000000
   96        5.475367   1.000000
   97        7.075741   1.000000
   98        7.236110   0.973603
   99        7.542311   0.000000
  100        7.720638   0.000000
  101        7.793564   0.000000
  102        7.841994   0.000000
  103        8.144559   0.000000
  104        8.251682   0.000000
  105        8.963786   0.000000
  106        9.187229   0.000000
  107        9.531651   0.000000
  108       10.033534   0.000000
  109       10.131261   0.000000
  110       10.244026   0.000000
  111       10.381662   0.000000
  112       10.604804   0.000000
  113       10.666373   0.000000
  114       10.839597   0.000000
  115       10.910542   0.000000
  116       11.075307   0.000000
  117       11.288133   0.000000
  118       11.371719   0.000000
  119       11.496039   0.000000
  120       11.582749   0.000000
  121       11.744213   0.000000
  122       11.782925   0.000000
  123       11.952577   0.000000
  124       12.016671   0.000000
  125       12.167636   0.000000
  126       12.216239   0.000000
  127       12.333157   0.000000
  128       12.407795   0.000000
 
 -0.4000000E+00  0.3333333E+00  0.2949030E-16  0.6060606E-02
    1      -11.993177   1.000000
    2      -11.420201   1.000000
    3      -11.148377   1.000000
    4      -10.964274   1.000000
    5      -10.647255   1.000000
    6      -10.146984   1.000000
    7       -8.817543   1.000000
    8       -8.761776   1.000000
    9       -8.596868   1.000000
   10       -8.526524   1.000000
   11       -8.328197   1.000000
   12       -8.235698   1.000000
   13       -8.056148   1.000000
   14       -6.979141   1.000000
   15       -6.464221   1.000000
   16       -6.287958   1.000000
   17       -5.789090   1.000000
   18       -5.382925   1.000000
   19       -5.253017   1.000000
   20       -5.204648   1.000000
   21       -5.049153   1.000000
   22       -4.773768   1.000000
   23       -4.390716   1.000000
   24       -4.142633   1.000000
   25       -4.129634   1.000000
   26       -3.425403   1.000000
   27       -3.235532   1.000000
   28       -3.083489   1.000000
   29       -2.987189   1.000000
   30       -2.776973   1.000000
   31       -2.622978   1.000000
   32       -2.419758   1.000000
   33       -2.354084   1.000000
   34       -2.245869   1.000000
   35       -2.142915   1.000000
   36       -2.020845   1.000000
   37       -1.979139   1.000000
   38       -1.859981   1.000000
   39       -1.732754   1.000000
   40       -1.618524   1.000000
   41       -1.501518   1.000000
   42       -1.312779   1.000000
   43       -1.202048   1.000000
   44       -1.150523   1.000000
   45       -0.986447   1.000000
   46       -0.879113   1.000000
   47       -0.767919   1.000000
   48       -0.651433   1.000000
   49       -0.545032   1.000000
   50       -0.297655   1.000000
   51       -0.247634   1.000000
   52       -0.061479   1.000000
   53        0.018595   1.000000
   54        0.079078   1.000000
   55        0.243471   1.000000
   56        0.328062   1.000000
   57        0.435168   1.000000
   58        0.512308   1.000000
   59        0.639858   1.000000
   60        0.805630   1.000000
   61        0.928406   1.000000
   62        1.097912   1.000000
   63        1.173149   1.000000
   64        1.305259   1.000000
   65        1.418521   1.000000
   66        1.503076   1.000000
   67        1.758927   1.000000
   68        1.830459   1.000000
   69        1.944522   1.000000
   70        2.029290   1.000000
   71        2.168457   1.000000
   72        2.303727   1.000000
   73        2.380997   1.000000
   74        2.445572   1.000000
   75        2.562624   1.000000
   76        2.600160   1.000000
   77        2.890103   1.000000
   78        2.932391   1.000000
   79        2.972713   1.000000
   80        3.028742   1.000000
   81        3.094747   1.000000
   82        3.253311   1.000000
   83        3.345724   1.000000
   84        3.424590   1.000000
   85        3.468617   1.000000
   86        3.565107   1.000000
   87        3.715443   1.000000
   88        3.784593   1.000000
   89        3.944697   1.000000
   90        3.982393   1.000000
   91        4.123179   1.000000
   92        4.243244   1.000000
   93        4.538904   1.000000
   94        4.644385   1.000000
   95        5.142452   1.000000
   96        5.482941   1.000000
   97        7.170419   1.000000
   98        7.419427  -0.138610
   99        7.472444   0.000000
  100        7.609620   0.000000
  101        7.705356   0.000000
  102        7.886428   0.000000
  103        8.100340   0.000000
  104        8.178669   0.000000
  105        8.824707   0.000000
  106        9.241506   0.000000
  107        9.601742   0.000000
  108       10.030448   0.000000
  109       10.196959   0.000000
  110       10.274048   0.000000
  111       10.458363   0.000000
  112       10.605960   0.000000
  113       10.707681   0.000000
  114       10.822086   0.000000
  115       10.871338   0.000000
  116       11.004648   0.000000
  117       11.244335   0.000000
  118       11.349984   0.000000
  119       11.503461   0.000000
  120       11.655876   0.000000
  121       11.725062   0.000000
  122       11.817100   0.000000
  123       11.925950   0.000000
  124       12.101705   0.000000
  125       12.251833   0.000000
  126       12.304982   0.000000
  127       12.452094   0.000000
  128       12.515358   0.000000
 
 -0.2000000E+00  0.3333333E+00  0.2775558E-16  0.6060606E-02
    1      -12.000516   1.000000
    2      -11.422990   1.000000
    3      -11.132674   1.000000
    4      -10.943678   1.000000
    5      -10.653408   1.000000
    6      -10.163063   1.000000
    7       -8.852498   1.000000
    8       -8.775558   1.000000
    9       -8.647286   1.000000
   10       -8.532219   1.000000
   11       -8.254206   1.000000
   12       -8.196044   1.000000
   13       -8.057385   1.000000
   14       -7.003634   1.000000
   15       -6.475872   1.000000
   16       -6.309697   1.000000
   17       -5.789820   1.000000
   18       -5.318773   1.000000
   19       -5.236122   1.000000
   20       -5.170566   1.000000
   21       -5.027718   1.000000
   22       -4.786850   1.000000
   23       -4.286374   1.000000
   24       -4.130521   1.000000
   25       -4.099294   1.000000
   26       -3.447762   1.000000
   27       -3.227270   1.000000
   28       -3.076887   1.000000
   29       -2.922001   1.000000
   30       -2.851794   1.000000
   31       -2.795659   1.000000
   32       -2.591754   1.000000
   33       -2.456570   1.000000
   34       -2.402216   1.000000
   35       -2.297582   1.000000
   36       -2.158915   1.000000
   37       -1.981868   1.000000
   38       -1.930514   1.000000
   39       -1.792655   1.000000
   40       -1.571660   1.000000
   41       -1.428460   1.000000
   42       -1.222687   1.000000
   43       -1.047946   1.000000
   44       -0.984298   1.000000
   45       -0.853621   1.000000
   46       -0.758952   1.000000
   47       -0.618031   1.000000
   48       -0.556615   1.000000
   49       -0.447254   1.000000
   50       -0.218729   1.000000
   51       -0.172670   1.000000
   52       -0.042671   1.000000
   53        0.101847   1.000000
   54        0.166360   1.000000
   55        0.260328   1.000000
   56        0.294192   1.000000
   57        0.379491   1.000000
   58        0.529205   1.000000
   59        0.594814   1.000000
   60        0.727876   1.000000
   61        0.837042   1.000000
   62        0.921698   1.000000
   63        1.185389   1.000000
   64        1.237704   1.000000
   65        1.303456   1.000000
   66        1.504952   1.000000
   67        1.751229   1.000000
   68        1.811335   1.000000
   69        1.913892   1.000000
   70        2.031507   1.000000
   71        2.128385   1.000000
   72        2.238227   1.000000
   73        2.349968   1.000000
   74        2.449475   1.000000
   75        2.523436   1.000000
   76        2.654963   1.000000
   77        2.771738   1.000000
   78        2.848851   1.000000
   79        2.950842   1.000000
   80        3.011128   1.000000
   81        3.216729   1.000000
   82        3.293332   1.000000
   83        3.331315   1.000000
   84        3.394026   1.000000
   85        3.525044   1.000000
   86        3.629143   1.000000
   87        3.665619   1.000000
   88        3.763726   1.000000
   89        3.945506   1.000000
   90        4.045678   1.000000
   91        4.219093   1.000000
   92        4.356390   1.000000
   93        4.537687   1.000000
   94        4.724879   1.000000
   95        5.186011   1.000000
   96        5.473215   1.000000
   97        7.206354   1.000000
   98        7.287451   0.562808
   99        7.462996   0.000000
  100        7.650826   0.000000
  101        7.748984   0.000000
  102        7.933559   0.000000
  103        8.027806   0.000000
  104        8.086273   0.000000
  105        8.585627   0.000000
  106        9.133128   0.000000
  107        9.313306   0.000000
  108        9.935597   0.000000
  109       10.070518   0.000000
  110       10.217805   0.000000
  111       10.459000   0.000000
  112       10.514272   0.000000
  113       10.808003   0.000000
  114       10.944494   0.000000
  115       11.045804   0.000000
  116       11.143658   0.000000
  117       11.255537   0.000000
  118       11.549528   0.000000
  119       11.713270   0.000000
  120       11.808696   0.000000
  121       11.848401   0.000000
  122       11.969437   0.000000
  123       12.072770   0.000000
  124       12.159432   0.000000
  125       12.246422   0.000000
  126       12.341827   0.000000
  127       12.496567   0.000000
  128       12.641092   0.000000
 
  0.0000000E+00  0.5000000E+00  0.1387779E-16  0.3030303E-02
    1      -11.994446   1.000000
    2      -11.457894   1.000000
    3      -11.086510   1.000000
    4      -10.961299   1.000000
    5      -10.638978   1.000000
    6      -10.177450   1.000000
    7       -8.898848   1.000000
    8       -8.805924   1.000000
    9       -8.578529   1.000000
   10       -8.433976   1.000000
   11       -8.338477   1.000000
   12       -8.206936   1.000000
   13       -8.043989   1.000000
   14       -7.024782   1.000000
   15       -6.475536   1.000000
   16       -6.321996   1.000000
   17       -5.828421   1.000000
   18       -5.301203   1.000000
   19       -5.176664   1.000000
   20       -5.096009   1.000000
   21       -4.969806   1.000000
   22       -4.895454   1.000000
   23       -4.279274   1.000000
   24       -4.125880   1.000000
   25       -4.090838   1.000000
   26       -3.422774   1.000000
   27       -3.256752   1.000000
   28       -3.020877   1.000000
   29       -2.959468   1.000000
   30       -2.935380   1.000000
   31       -2.719688   1.000000
   32       -2.554915   1.000000
   33       -2.527820   1.000000
   34       -2.459520   1.000000
   35       -2.374130   1.000000
   36       -2.222622   1.000000
   37       -2.095608   1.000000
   38       -1.906039   1.000000
   39       -1.845803   1.000000
   40       -1.686730   1.000000
   41       -1.292148   1.000000
   42       -1.087081   1.000000
   43       -1.074822   1.000000
   44       -0.819644   1.000000
   45       -0.744865   1.000000
   46       -0.702318   1.000000
   47       -0.566600   1.000000
   48       -0.530307   1.000000
   49       -0.333072   1.000000
   50       -0.322621   1.000000
   51       -0.075148   1.000000
   52       -0.007146   1.000000
   53        0.036894   1.000000
   54        0.083798   1.000000
   55        0.200312   1.000000
   56        0.388563   1.000000
   57        0.419095   1.000000
   58        0.491467   1.000000
   59        0.566089   1.000000
   60        0.623345   1.000000
   61        0.895510   1.000000
   62        0.934278   1.000000
   63        1.082729   1.000000
   64        1.151707   1.000000
   65        1.328367   1.000000
   66        1.527256   1.000000
   67        1.603422   1.000000
   68        1.771836   1.000000
   69        1.948207   1.000000
   70        1.982744   1.000000
   71        2.093714   1.000000
   72        2.158033   1.000000
   73        2.318127   1.000000
   74        2.419248   1.000000
   75        2.539107   1.000000
   76        2.736484   1.000000
   77        2.755821   1.000000
   78        2.934820   1.000000
   79        3.000492   1.000000
   80        3.080251   1.000000
   81        3.122973   1.000000
   82        3.363021   1.000000
   83        3.400357   1.000000
   84        3.467295   1.000000
   85        3.519024   1.000000
   86        3.599553   1.000000
   87        3.636790   1.000000
   88        3.873669   1.000000
   89        3.969948   1.000000
   90        3.998562   1.000000
   91        4.264866   1.000000
   92        4.304739   1.000000
   93        4.514536   1.000000
   94        4.707566   1.000000
   95        5.281423   1.000000
   96        5.337819   1.000000
   97        7.208624   1.000000
   98        7.308272   0.355849
   99        7.427910   0.000000
  100        7.618097   0.000000
  101        7.663896   0.000000
  102        7.918155   0.000000
  103        8.060279   0.000000
  104        8.149799   0.000000
  105        8.658394   0.000000
  106        8.925334   0.000000
  107        9.387380   0.000000
  108        9.755258   0.000000
  109        9.929330   0.000000
  110       10.234747   0.000000
  111       10.444033   0.000000
  112       10.645544   0.000000
  113       10.913121   0.000000
  114       10.980356   0.000000
  115       11.121922   0.000000
  116       11.366917   0.000000
  117       11.499252   0.000000
  118       11.535496   0.000000
  119       11.634781   0.000000
  120       11.764369   0.000000
  121       11.889357   0.000000
  122       12.038208   0.000000
  123       12.105822   0.000000
  124       12.141948   0.000000
  125       12.209016   0.000000
  126       12.379248   0.000000
  127       12.427767   0.000000
  128       12.466246   0.000000
 
  0.2000000E+00  0.5000000E+00  0.0000000E+00  0.6060606E-02
    1      -11.990898   1.000000
    2      -11.451858   1.000000
    3      -11.108889   1.000000
    4      -10.961703   1.000000
    5      -10.637425   1.000000
    6      -10.170674   1.000000
    7       -8.871935   1.000000
    8       -8.784510   1.000000
    9       -8.567902   1.000000
   10       -8.473638   1.000000
   11       -8.302021   1.000000
   12       -8.251372   1.000000
   13       -8.055506   1.000000
   14       -7.010837   1.000000
   15       -6.468146   1.000000
   16       -6.311432   1.000000
   17       -5.827129   1.000000
   18       -5.308584   1.000000
   19       -5.226268   1.000000
   20       -5.069398   1.000000
   21       -4.997373   1.000000
   22       -4.916184   1.000000
   23       -4.369069   1.000000
   24       -4.151192   1.000000
   25       -4.096874   1.000000
   26       -3.396521   1.000000
   27       -3.223814   1.000000
   28       -3.080859   1.000000
   29       -2.942685   1.000000
   30       -2.843665   1.000000
   31       -2.724804   1.000000
   32       -2.540781   1.000000
   33       -2.474165   1.000000
   34       -2.325599   1.000000
   35       -2.285221   1.000000
   36       -2.209849   1.000000
   37       -1.967938   1.000000
   38       -1.812971   1.000000
   39       -1.694438   1.000000
   40       -1.625378   1.000000
   41       -1.378859   1.000000
   42       -1.227319   1.000000
   43       -1.194358   1.000000
   44       -0.940980   1.000000
   45       -0.826341   1.000000
   46       -0.811559   1.000000
   47       -0.658548   1.000000
   48       -0.567804   1.000000
   49       -0.490440   1.000000
   50       -0.378378   1.000000
   51       -0.128740   1.000000
   52       -0.017061   1.000000
   53        0.033430   1.000000
   54        0.097671   1.000000
   55        0.187545   1.000000
   56        0.244844   1.000000
   57        0.422723   1.000000
   58        0.478706   1.000000
   59        0.577497   1.000000
   60        0.700709   1.000000
   61        0.957598   1.000000
   62        1.035550   1.000000
   63        1.143718   1.000000
   64        1.299666   1.000000
   65        1.398159   1.000000
   66        1.546451   1.000000
   67        1.680223   1.000000
   68        1.783678   1.000000
   69        1.894739   1.000000
   70        2.039565   1.000000
   71        2.168578   1.000000
   72        2.256682   1.000000
   73        2.383910   1.000000
   74        2.450606   1.000000
   75        2.551169   1.000000
   76        2.659647   1.000000
   77        2.792766   1.000000
   78        2.858323   1.000000
   79        2.932221   1.000000
   80        3.044685   1.000000
   81        3.122911   1.000000
   82        3.264589   1.000000
   83        3.309501   1.000000
   84        3.429483   1.000000
   85        3.484676   1.000000
   86        3.608669   1.000000
   87        3.694266   1.000000
   88        3.852037   1.000000
   89        3.969298   1.000000
   90        4.136759   1.000000
   91        4.186944   1.000000
   92        4.352076   1.000000
   93        4.446165   1.000000
   94        4.659504   1.000000
   95        5.259445   1.000000
   96        5.332343   1.000000
   97        7.160149   1.000000
   98        7.361796   0.050642
   99        7.412009   0.000000
  100        7.625876   0.000000
  101        7.733366   0.000000
  102        7.940599   0.000000
  103        8.055338   0.000000
  104        8.173672   0.000000
  105        8.788297   0.000000
  106        9.107480   0.000000
  107        9.414739   0.000000
  108        9.834962   0.000000
  109       10.012069   0.000000
  110       10.302982   0.000000
  111       10.448442   0.000000
  112       10.599297   0.000000
  113       10.848430   0.000000
  114       10.952687   0.000000
  115       11.043253   0.000000
  116       11.184377   0.000000
  117       11.326792   0.000000
  118       11.462787   0.000000
  119       11.518822   0.000000
  120       11.651847   0.000000
  121       11.905526   0.000000
  122       11.944604   0.000000
  123       12.027141   0.000000
  124       12.077940   0.000000
  125       12.206024   0.000000
  126       12.299957   0.000000
  127       12.464125   0.000000
  128       12.504060   0.000000
 
  0.4000000E+00  0.5000000E+00 -0.1387779E-16  0.6060606E-02
    1      -11.984848   1.000000
    2      -11.446710   1.000000
    3      -11.101873   1.000000
    4      -11.012912   1.000000
    5      -10.620119   1.000000
    6      -10.162807   1.000000
    7       -8.819223   1.000000
    8       -8.751537   1.000000
    9       -8.548407   1.000000
   10       -8.490636   1.000000
   11       -8.374265   1.000000
   12       -8.249685   1.000000
   13       -8.073306   1.000000
   14       -6.986068   1.000000
   15       -6.455785   1.000000
   16       -6.292984   1.000000
   17       -5.828291   1.000000
   18       -5.342937   1.000000
   19       -5.276695   1.000000
   20       -5.078704   1.000000
   21       -4.998385   1.000000
   22       -4.938554   1.000000
   23       -4.496644   1.000000
   24       -4.151509   1.000000
   25       -4.121191   1.000000
   26       -3.409399   1.000000
   27       -3.270073   1.000000
   28       -3.179507   1.000000
   29       -2.868229   1.000000
   30       -2.727415   1.000000
   31       -2.584737   1.000000
   32       -2.506710   1.000000
   33       -2.314897   1.000000
   34       -2.136446   1.000000
   35       -2.019629   1.000000
   36       -1.979414   1.000000
   37       -1.886710   1.000000
   38       -1.787951   1.000000
   39       -1.619060   1.000000
   40       -1.578228   1.000000
   41       -1.465030   1.000000
   42       -1.298712   1.000000
   43       -1.252211   1.000000
   44       -1.141010   1.000000
   45       -1.015327   1.000000
   46       -0.944093   1.000000
   47       -0.877295   1.000000
   48       -0.735742   1.000000
   49       -0.690146   1.000000
   50       -0.601357   1.000000
   51       -0.383388   1.000000
   52       -0.225545   1.000000
   53        0.062961   1.000000
   54        0.096074   1.000000
   55        0.157255   1.000000
   56        0.229793   1.000000
   57        0.578283   1.000000
   58        0.648578   1.000000
   59        0.735318   1.000000
   60        0.862781   1.000000
   61        0.989247   1.000000
   62        1.166183   1.000000
   63        1.284130   1.000000
   64        1.374675   1.000000
   65        1.474283   1.000000
   66        1.508393   1.000000
   67        1.644100   1.000000
   68        1.827237   1.000000
   69        1.962360   1.000000
   70        2.081404   1.000000
   71        2.150169   1.000000
   72        2.296859   1.000000
   73        2.383809   1.000000
   74        2.527887   1.000000
   75        2.597868   1.000000
   76        2.651947   1.000000
   77        2.786944   1.000000
   78        2.881714   1.000000
   79        2.947563   1.000000
   80        2.997853   1.000000
   81        3.033007   1.000000
   82        3.156864   1.000000
   83        3.284173   1.000000
   84        3.356056   1.000000
   85        3.460510   1.000000
   86        3.591625   1.000000
   87        3.767048   1.000000
   88        3.899811   1.000000
   89        3.982730   1.000000
   90        4.051920   1.000000
   91        4.125734   1.000000
   92        4.347189   1.000000
   93        4.402268   1.000000
   94        4.594694   1.000000
   95        5.254820   1.000000
   96        5.315536   1.000000
   97        7.112538   1.000000
   98        7.287377   0.764486
   99        7.555955   0.000000
  100        7.697999   0.000000
  101        7.776586   0.000000
  102        7.844023   0.000000
  103        8.159356   0.000000
  104        8.197901   0.000000
  105        9.101222   0.000000
  106        9.346733   0.000000
  107        9.509190   0.000000
  108        9.997489   0.000000
  109       10.166316   0.000000
  110       10.375355   0.000000
  111       10.454423   0.000000
  112       10.532708   0.000000
  113       10.656676   0.000000
  114       10.754845   0.000000
  115       10.881648   0.000000
  116       11.079046   0.000000
  117       11.198025   0.000000
  118       11.320005   0.000000
  119       11.372292   0.000000
  120       11.553030   0.000000
  121       11.713275   0.000000
  122       11.830401   0.000000
  123       11.917838   0.000000
  124       12.037294   0.000000
  125       12.215877   0.000000
  126       12.236084   0.000000
  127       12.353813   0.000000
  128       12.394338   0.000000
 
  0.0000000E+00  0.0000000E+00  0.9090909E-01  0.6060606E-02
    1      -12.021394   1.000000
    2      -11.277690   1.000000
    3      -11.043543   1.000000
    4      -10.998146   1.000000
    5      -10.721155   1.000000
    6      -10.242553   1.000000
    7       -8.975255   1.000000
    8       -8.758068   1.000000
    9       -8.625881   1.000000
   10       -8.550269   1.000000
   11       -8.247327   1.000000
   12       -8.149063   1.000000
   13       -8.038751   1.000000
   14       -7.007166   1.000000
   15       -6.571624   1.000000
   16       -6.342387   1.000000
   17       -5.628721   1.000000
   18       -5.437557   1.000000
   19       -5.222608   1.000000
   20       -5.101943   1.000000
   21       -5.049383   1.000000
   22       -4.601992   1.000000
   23       -4.422039   1.000000
   24       -4.122408   1.000000
   25       -4.041179   1.000000
   26       -3.711683   1.000000
   27       -3.457353   1.000000
   28       -3.332418   1.000000
   29       -3.116797   1.000000
   30       -2.961599   1.000000
   31       -2.764477   1.000000
   32       -2.609696   1.000000
   33       -2.440202   1.000000
   34       -2.194072   1.000000
   35       -2.056003   1.000000
   36       -1.989779   1.000000
   37       -1.859685   1.000000
   38       -1.732524   1.000000
   39       -1.605830   1.000000
   40       -1.342137   1.000000
   41       -1.252602   1.000000
   42       -1.173983   1.000000
   43       -1.100511   1.000000
   44       -0.986506   1.000000
   45       -0.913036   1.000000
   46       -0.823535   1.000000
   47       -0.701333   1.000000
   48       -0.545344   1.000000
   49       -0.490413   1.000000
   50       -0.414810   1.000000
   51       -0.329857   1.000000
   52       -0.168945   1.000000
   53       -0.041326   1.000000
   54        0.155488   1.000000
   55        0.235912   1.000000
   56        0.433827   1.000000
   57        0.491687   1.000000
   58        0.572172   1.000000
   59        0.652450   1.000000
   60        0.835316   1.000000
   61        0.926361   1.000000
   62        1.129040   1.000000
   63        1.234297   1.000000
   64        1.328851   1.000000
   65        1.538813   1.000000
   66        1.604898   1.000000
   67        1.649437   1.000000
   68        1.798354   1.000000
   69        1.868033   1.000000
   70        1.991498   1.000000
   71        2.036540   1.000000
   72        2.146316   1.000000
   73        2.220245   1.000000
   74        2.355260   1.000000
   75        2.512697   1.000000
   76        2.637367   1.000000
   77        2.729836   1.000000
   78        2.788870   1.000000
   79        2.919276   1.000000
   80        2.985825   1.000000
   81        3.074905   1.000000
   82        3.182059   1.000000
   83        3.214436   1.000000
   84        3.358653   1.000000
   85        3.530952   1.000000
   86        3.631343   1.000000
   87        3.770981   1.000000
   88        3.934646   1.000000
   89        4.025931   1.000000
   90        4.178452   1.000000
   91        4.361836   1.000000
   92        4.411027   1.000000
   93        4.605837   1.000000
   94        4.838477   1.000000
   95        5.111012   1.000000
   96        5.615129   1.000000
   97        6.924668   1.000000
   98        7.029786   1.000000
   99        7.613259   0.000000
  100        7.657456   0.000000
  101        7.784834   0.000000
  102        7.954622   0.000000
  103        8.077117   0.000000
  104        8.334112   0.000000
  105        8.561810   0.000000
  106        8.778408   0.000000
  107        9.060263   0.000000
  108        9.662404   0.000000
  109        9.938495   0.000000
  110       10.111069   0.000000
  111       10.296074   0.000000
  112       10.564662   0.000000
  113       10.669622   0.000000
  114       10.726146   0.000000
  115       10.923114   0.000000
  116       11.129616   0.000000
  117       11.270724   0.000000
  118       11.548293   0.000000
  119       11.679880   0.000000
  120       11.809215   0.000000
  121       11.856396   0.000000
  122       12.010897   0.000000
  123       12.113603   0.000000
  124       12.232008   0.000000
  125       12.347745   0.000000
  126       12.399370   0.000000
  127       12.597365   0.000000
  128       12.688949   0.000000
 
  0.2000000E+00  0.1387779E-16  0.9090909E-01  0.6060606E-02
    1      -12.016702   1.000000
    2      -11.288299   1.000000
    3      -11.065917   1.000000
    4      -10.985598   1.000000
    5      -10.716984   1.000000
    6      -10.220737   1.000000
    7       -8.908185   1.000000
    8       -8.763893   1.000000
    9       -8.714198   1.000000
   10       -8.556354   1.000000
   11       -8.220350   1.000000
   12       -8.208775   1.000000
   13       -8.005848   1.000000
   14       -6.969725   1.000000
   15       -6.571120   1.000000
   16       -6.305653   1.000000
   17       -5.654279   1.000000
   18       -5.436267   1.000000
   19       -5.208856   1.000000
   20       -5.165404   1.000000
   21       -5.113516   1.000000
   22       -4.625589   1.000000
   23       -4.351728   1.000000
   24       -4.156923   1.000000
   25       -4.064994   1.000000
   26       -3.743468   1.000000
   27       -3.382096   1.000000
   28       -3.302056   1.000000
   29       -3.088983   1.000000
   30       -2.851509   1.000000
   31       -2.694955   1.000000
   32       -2.541167   1.000000
   33       -2.379719   1.000000
   34       -2.300392   1.000000
   35       -2.108590   1.000000
   36       -1.958079   1.000000
   37       -1.840610   1.000000
   38       -1.778838   1.000000
   39       -1.639700   1.000000
   40       -1.404046   1.000000
   41       -1.322540   1.000000
   42       -1.159486   1.000000
   43       -1.109908   1.000000
   44       -1.020315   1.000000
   45       -0.869653   1.000000
   46       -0.816858   1.000000
   47       -0.707099   1.000000
   48       -0.605236   1.000000
   49       -0.528451   1.000000
   50       -0.454370   1.000000
   51       -0.318375   1.000000
   52       -0.205841   1.000000
   53       -0.001336   1.000000
   54        0.170508   1.000000
   55        0.234683   1.000000
   56        0.402613   1.000000
   57        0.536494   1.000000
   58        0.576492   1.000000
   59        0.646966   1.000000
   60        0.719504   1.000000
   61        0.856802   1.000000
   62        1.110608   1.000000
   63        1.229591   1.000000
   64        1.395347   1.000000
   65        1.494561   1.000000
   66        1.589510   1.000000
   67        1.683184   1.000000
   68        1.774969   1.000000
   69        1.933472   1.000000
   70        1.971468   1.000000
   71        2.111491   1.000000
   72        2.247501   1.000000
   73        2.374685   1.000000
   74        2.529139   1.000000
   75        2.583165   1.000000
   76        2.666906   1.000000
   77        2.716086   1.000000
   78        2.808605   1.000000
   79        2.865723   1.000000
   80        2.902756   1.000000
   81        3.015960   1.000000
   82        3.099520   1.000000
   83        3.335828   1.000000
   84        3.424492   1.000000
   85        3.519110   1.000000
   86        3.653222   1.000000
   87        3.696743   1.000000
   88        3.934835   1.000000
   89        4.014896   1.000000
   90        4.144405   1.000000
   91        4.302947   1.000000
   92        4.450645   1.000000
   93        4.531118   1.000000
   94        4.726780   1.000000
   95        5.048080   1.000000
   96        5.623212   1.000000
   97        6.962794   1.000000
   98        7.051199   1.000127
   99        7.611688   0.000000
  100        7.664411   0.000000
  101        7.826379   0.000000
  102        7.994059   0.000000
  103        8.043130   0.000000
  104        8.239601   0.000000
  105        8.537642   0.000000
  106        8.799213   0.000000
  107        9.172043   0.000000
  108        9.741253   0.000000
  109        9.886535   0.000000
  110       10.059240   0.000000
  111       10.302145   0.000000
  112       10.551666   0.000000
  113       10.671430   0.000000
  114       10.764503   0.000000
  115       10.952041   0.000000
  116       11.053345   0.000000
  117       11.187978   0.000000
  118       11.545736   0.000000
  119       11.675035   0.000000
  120       11.759879   0.000000
  121       11.812062   0.000000
  122       12.008439   0.000000
  123       12.123903   0.000000
  124       12.181832   0.000000
  125       12.291492   0.000000
  126       12.394244   0.000000
  127       12.519109   0.000000
  128       12.677751   0.000000
 
  0.4000000E+00  0.2775558E-16  0.9090909E-01  0.6060606E-02
    1      -12.001360   1.000000
    2      -11.318753   1.000000
    3      -11.097973   1.000000
    4      -10.982650   1.000000
    5      -10.705350   1.000000
    6      -10.165450   1.000000
    7       -8.866239   1.000000
    8       -8.775112   1.000000
    9       -8.711761   1.000000
   10       -8.550293   1.000000
   11       -8.273662   1.000000
   12       -8.251301   1.000000
   13       -8.002110   1.000000
   14       -6.946972   1.000000
   15       -6.557412   1.000000
   16       -6.270907   1.000000
   17       -5.675844   1.000000
   18       -5.449446   1.000000
   19       -5.293552   1.000000
   20       -5.210672   1.000000
   21       -5.120908   1.000000
   22       -4.635129   1.000000
   23       -4.267048   1.000000
   24       -4.164705   1.000000
   25       -4.121677   1.000000
   26       -3.747053   1.000000
   27       -3.285385   1.000000
   28       -3.157637   1.000000
   29       -2.965392   1.000000
   30       -2.692506   1.000000
   31       -2.600317   1.000000
   32       -2.460257   1.000000
   33       -2.422428   1.000000
   34       -2.333651   1.000000
   35       -2.228548   1.000000
   36       -2.075656   1.000000
   37       -1.936642   1.000000
   38       -1.871450   1.000000
   39       -1.745091   1.000000
   40       -1.481436   1.000000
   41       -1.400709   1.000000
   42       -1.303966   1.000000
   43       -1.178913   1.000000
   44       -1.099775   1.000000
   45       -0.864859   1.000000
   46       -0.731931   1.000000
   47       -0.601727   1.000000
   48       -0.511614   1.000000
   49       -0.427442   1.000000
   50       -0.385540   1.000000
   51       -0.285558   1.000000
   52       -0.124272   1.000000
   53        0.101092   1.000000
   54        0.165897   1.000000
   55        0.242143   1.000000
   56        0.294727   1.000000
   57        0.443950   1.000000
   58        0.552883   1.000000
   59        0.636245   1.000000
   60        0.743074   1.000000
   61        0.892810   1.000000
   62        0.986182   1.000000
   63        1.161672   1.000000
   64        1.293343   1.000000
   65        1.393620   1.000000
   66        1.531651   1.000000
   67        1.700195   1.000000
   68        1.809502   1.000000
   69        1.999221   1.000000
   70        2.022575   1.000000
   71        2.189077   1.000000
   72        2.314056   1.000000
   73        2.492234   1.000000
   74        2.590892   1.000000
   75        2.685445   1.000000
   76        2.742958   1.000000
   77        2.783883   1.000000
   78        2.832537   1.000000
   79        2.920116   1.000000
   80        2.965642   1.000000
   81        3.043026   1.000000
   82        3.141760   1.000000
   83        3.308450   1.000000
   84        3.491648   1.000000
   85        3.569290   1.000000
   86        3.620536   1.000000
   87        3.688742   1.000000
   88        3.784959   1.000000
   89        3.842592   1.000000
   90        4.027325   1.000000
   91        4.239785   1.000000
   92        4.347067   1.000000
   93        4.496343   1.000000
   94        4.619184   1.000000
   95        4.970159   1.000000
   96        5.639530   1.000000
   97        7.154597   1.000000
   98        7.231605   0.985381
   99        7.446282   0.000000
  100        7.638148   0.000000
  101        7.833832   0.000000
  102        7.857280   0.000000
  103        8.070551   0.000000
  104        8.182271   0.000000
  105        8.543104   0.000000
  106        8.885421   0.000000
  107        9.502638   0.000000
  108        9.674988   0.000000
  109       10.030330   0.000000
  110       10.151793   0.000000
  111       10.455571   0.000000
  112       10.598297   0.000000
  113       10.653385   0.000000
  114       10.852302   0.000000
  115       10.982437   0.000000
  116       11.063014   0.000000
  117       11.242692   0.000000
  118       11.454763   0.000000
  119       11.554875   0.000000
  120       11.632754   0.000000
  121       11.838053   0.000000
  122       11.894820   0.000000
  123       11.983337   0.000000
  124       12.113050   0.000000
  125       12.197788   0.000000
  126       12.293720   0.000000
  127       12.452007   0.000000
  128       12.586317   0.000000
 
 -0.4000000E+00 -0.2775558E-16  0.9090909E-01  0.6060606E-02
    1      -11.996572   1.000000
    2      -11.328581   1.000000
    3      -11.093606   1.000000
    4      -10.995351   1.000000
    5      -10.700976   1.000000
    6      -10.152838   1.000000
    7       -8.939355   1.000000
    8       -8.749378   1.000000
    9       -8.606879   1.000000
   10       -8.522572   1.000000
   11       -8.365747   1.000000
   12       -8.224929   1.000000
   13       -8.021780   1.000000
   14       -6.969889   1.000000
   15       -6.550272   1.000000
   16       -6.293898   1.000000
   17       -5.662592   1.000000
   18       -5.443116   1.000000
   19       -5.301963   1.000000
   20       -5.199796   1.000000
   21       -5.113773   1.000000
   22       -4.629051   1.000000
   23       -4.247452   1.000000
   24       -4.189459   1.000000
   25       -4.116560   1.000000
   26       -3.709179   1.000000
   27       -3.293864   1.000000
   28       -3.072380   1.000000
   29       -2.940925   1.000000
   30       -2.738595   1.000000
   31       -2.620751   1.000000
   32       -2.531050   1.000000
   33       -2.338342   1.000000
   34       -2.285848   1.000000
   35       -2.214444   1.000000
   36       -2.148660   1.000000
   37       -2.035373   1.000000
   38       -1.953661   1.000000
   39       -1.788972   1.000000
   40       -1.607765   1.000000
   41       -1.500261   1.000000
   42       -1.280309   1.000000
   43       -1.133604   1.000000
   44       -1.018362   1.000000
   45       -0.816963   1.000000
   46       -0.651185   1.000000
   47       -0.516876   1.000000
   48       -0.442802   1.000000
   49       -0.341399   1.000000
   50       -0.314527   1.000000
   51       -0.191490   1.000000
   52       -0.055563   1.000000
   53       -0.029175   1.000000
   54        0.121375   1.000000
   55        0.204470   1.000000
   56        0.244016   1.000000
   57        0.389115   1.000000
   58        0.520513   1.000000
   59        0.668753   1.000000
   60        0.799738   1.000000
   61        0.849394   1.000000
   62        1.062019   1.000000
   63        1.178154   1.000000
   64        1.238592   1.000000
   65        1.372965   1.000000
   66        1.527733   1.000000
   67        1.675351   1.000000
   68        1.811412   1.000000
   69        1.968976   1.000000
   70        1.973424   1.000000
   71        2.138484   1.000000
   72        2.378947   1.000000
   73        2.444999   1.000000
   74        2.483790   1.000000
   75        2.602059   1.000000
   76        2.739323   1.000000
   77        2.816351   1.000000
   78        2.906564   1.000000
   79        2.972198   1.000000
   80        3.058884   1.000000
   81        3.163450   1.000000
   82        3.221635   1.000000
   83        3.266468   1.000000
   84        3.429005   1.000000
   85        3.478048   1.000000
   86        3.514882   1.000000
   87        3.744920   1.000000
   88        3.774416   1.000000
   89        3.821918   1.000000
   90        4.044590   1.000000
   91        4.155882   1.000000
   92        4.311613   1.000000
   93        4.538591   1.000000
   94        4.663288   1.000000
   95        4.982750   1.000000
   96        5.642328   1.000000
   97        7.162494   1.000000
   98        7.410384  -0.105334
   99        7.477782   0.000000
  100        7.567792   0.000000
  101        7.672968   0.000000
  102        7.812401   0.000000
  103        8.044268   0.000000
  104        8.263500   0.000000
  105        8.549867   0.000000
  106        8.925737   0.000000
  107        9.564406   0.000000
  108        9.646795   0.000000
  109       10.185119   0.000000
  110       10.230823   0.000000
  111       10.430193   0.000000
  112       10.652891   0.000000
  113       10.722401   0.000000
  114       10.874931   0.000000
  115       11.014166   0.000000
  116       11.145156   0.000000
  117       11.260308   0.000000
  118       11.392112   0.000000
  119       11.552248   0.000000
  120       11.573067   0.000000
  121       11.850844   0.000000
  122       11.862247   0.000000
  123       11.959910   0.000000
  124       12.157119   0.000000
  125       12.201115   0.000000
  126       12.268231   0.000000
  127       12.434013   0.000000
  128       12.613720   0.000000
 
 -0.2000000E+00 -0.1387779E-16  0.9090909E-01  0.6060606E-02
    1      -12.009511   1.000000
    2      -11.302017   1.000000
    3      -11.050466   1.000000
    4      -11.018812   1.000000
    5      -10.708390   1.000000
    6      -10.199389   1.000000
    7       -8.982899   1.000000
    8       -8.750261   1.000000
    9       -8.591850   1.000000
   10       -8.492245   1.000000
   11       -8.355222   1.000000
   12       -8.150550   1.000000
   13       -8.054182   1.000000
   14       -7.007507   1.000000
   15       -6.558487   1.000000
   16       -6.335727   1.000000
   17       -5.631663   1.000000
   18       -5.437958   1.000000
   19       -5.264871   1.000000
   20       -5.137477   1.000000
   21       -5.070021   1.000000
   22       -4.610536   1.000000
   23       -4.331564   1.000000
   24       -4.160904   1.000000
   25       -4.085281   1.000000
   26       -3.693885   1.000000
   27       -3.361275   1.000000
   28       -3.183357   1.000000
   29       -3.047729   1.000000
   30       -2.919438   1.000000
   31       -2.765279   1.000000
   32       -2.489548   1.000000
   33       -2.397171   1.000000
   34       -2.298163   1.000000
   35       -2.152475   1.000000
   36       -2.031658   1.000000
   37       -1.970593   1.000000
   38       -1.881669   1.000000
   39       -1.730429   1.000000
   40       -1.610405   1.000000
   41       -1.291774   1.000000
   42       -1.117867   1.000000
   43       -1.084678   1.000000
   44       -0.911847   1.000000
   45       -0.843739   1.000000
   46       -0.726710   1.000000
   47       -0.680297   1.000000
   48       -0.484970   1.000000
   49       -0.388177   1.000000
   50       -0.278320   1.000000
   51       -0.232279   1.000000
   52       -0.125387   1.000000
   53       -0.064027   1.000000
   54        0.083749   1.000000
   55        0.251188   1.000000
   56        0.366811   1.000000
   57        0.485936   1.000000
   58        0.616811   1.000000
   59        0.676303   1.000000
   60        0.769870   1.000000
   61        0.812925   1.000000
   62        0.928106   1.000000
   63        1.201721   1.000000
   64        1.339248   1.000000
   65        1.487204   1.000000
   66        1.621856   1.000000
   67        1.724974   1.000000
   68        1.756979   1.000000
   69        1.892530   1.000000
   70        1.904773   1.000000
   71        2.139574   1.000000
   72        2.227084   1.000000
   73        2.356861   1.000000
   74        2.437491   1.000000
   75        2.543540   1.000000
   76        2.624265   1.000000
   77        2.787762   1.000000
   78        2.839539   1.000000
   79        2.930899   1.000000
   80        2.981071   1.000000
   81        3.080060   1.000000
   82        3.155938   1.000000
   83        3.211497   1.000000
   84        3.380954   1.000000
   85        3.541707   1.000000
   86        3.655933   1.000000
   87        3.734348   1.000000
   88        3.818389   1.000000
   89        3.937742   1.000000
   90        4.105422   1.000000
   91        4.292925   1.000000
   92        4.418615   1.000000
   93        4.582449   1.000000
   94        4.779733   1.000000
   95        5.065867   1.000000
   96        5.628256   1.000000
   97        7.009436   1.000000
   98        7.167788   1.061164
   99        7.592649   0.000000
  100        7.658931   0.000000
  101        7.759440   0.000000
  102        7.835598   0.000000
  103        8.049963   0.000000
  104        8.312067   0.000000
  105        8.547478   0.000000
  106        8.841967   0.000000
  107        9.255051   0.000000
  108        9.782073   0.000000
  109        9.976356   0.000000
  110       10.122420   0.000000
  111       10.421734   0.000000
  112       10.659269   0.000000
  113       10.754349   0.000000
  114       10.843096   0.000000
  115       10.935568   0.000000
  116       11.113671   0.000000
  117       11.256610   0.000000
  118       11.475836   0.000000
  119       11.704076   0.000000
  120       11.806999   0.000000
  121       11.901400   0.000000
  122       11.965250   0.000000
  123       12.042765   0.000000
  124       12.153212   0.000000
  125       12.247057   0.000000
  126       12.335843   0.000000
  127       12.454446   0.000000
  128       12.555006   0.000000
 
  0.0000000E+00  0.1666667E+00  0.9090909E-01  0.6060606E-02
    1      -12.018514   1.000000
    2      -11.285131   1.000000
    3      -11.064507   1.000000
    4      -10.979774   1.000000
    5      -10.719348   1.000000
    6      -10.232945   1.000000
    7       -8.906253   1.000000
    8       -8.787404   1.000000
    9       -8.702552   1.000000
   10       -8.537897   1.000000
   11       -8.266746   1.000000
   12       -8.105278   1.000000
   13       -8.045574   1.000000
   14       -7.018993   1.000000
   15       -6.561838   1.000000
   16       -6.320299   1.000000
   17       -5.673395   1.000000
   18       -5.408697   1.000000
   19       -5.236273   1.000000
   20       -5.068146   1.000000
   21       -5.049861   1.000000
   22       -4.642524   1.000000
   23       -4.399629   1.000000
   24       -4.149428   1.000000
   25       -4.099304   1.000000
   26       -3.622129   1.000000
   27       -3.455906   1.000000
   28       -3.308478   1.000000
   29       -3.117346   1.000000
   30       -3.015264   1.000000
   31       -2.745284   1.000000
   32       -2.625736   1.000000
   33       -2.392703   1.000000
   34       -2.245421   1.000000
   35       -2.000818   1.000000
   36       -1.938972   1.000000
   37       -1.815749   1.000000
   38       -1.721965   1.000000
   39       -1.565635   1.000000
   40       -1.516048   1.000000
   41       -1.244159   1.000000
   42       -1.187228   1.000000
   43       -1.062042   1.000000
   44       -1.020371   1.000000
   45       -0.893643   1.000000
   46       -0.820302   1.000000
   47       -0.725425   1.000000
   48       -0.595108   1.000000
   49       -0.453933   1.000000
   50       -0.322059   1.000000
   51       -0.260202   1.000000
   52       -0.189956   1.000000
   53       -0.070687   1.000000
   54        0.088701   1.000000
   55        0.197425   1.000000
   56        0.312834   1.000000
   57        0.414671   1.000000
   58        0.511318   1.000000
   59        0.753374   1.000000
   60        0.923636   1.000000
   61        0.993062   1.000000
   62        1.148153   1.000000
   63        1.177682   1.000000
   64        1.298942   1.000000
   65        1.491220   1.000000
   66        1.588538   1.000000
   67        1.661140   1.000000
   68        1.791765   1.000000
   69        1.843090   1.000000
   70        1.928657   1.000000
   71        2.047457   1.000000
   72        2.185767   1.000000
   73        2.255644   1.000000
   74        2.429913   1.000000
   75        2.527226   1.000000
   76        2.661370   1.000000
   77        2.768603   1.000000
   78        2.846936   1.000000
   79        2.877232   1.000000
   80        3.009155   1.000000
   81        3.073248   1.000000
   82        3.175034   1.000000
   83        3.264802   1.000000
   84        3.324109   1.000000
   85        3.613741   1.000000
   86        3.668370   1.000000
   87        3.756545   1.000000
   88        3.885820   1.000000
   89        3.988364   1.000000
   90        4.196160   1.000000
   91        4.391761   1.000000
   92        4.438215   1.000000
   93        4.523893   1.000000
   94        4.797537   1.000000
   95        5.129952   1.000000
   96        5.535142   1.000000
   97        6.925644   1.000000
   98        7.031550   1.000000
   99        7.628524   0.000000
  100        7.653841   0.000000
  101        7.818446   0.000000
  102        7.986189   0.000000
  103        8.048558   0.000000
  104        8.279433   0.000000
  105        8.562041   0.000000
  106        8.837320   0.000000
  107        9.063853   0.000000
  108        9.662816   0.000000
  109        9.945314   0.000000
  110       10.114978   0.000000
  111       10.316377   0.000000
  112       10.477537   0.000000
  113       10.682342   0.000000
  114       10.747853   0.000000
  115       10.925856   0.000000
  116       11.081118   0.000000
  117       11.308487   0.000000
  118       11.516567   0.000000
  119       11.688212   0.000000
  120       11.790763   0.000000
  121       11.806648   0.000000
  122       12.039879   0.000000
  123       12.102596   0.000000
  124       12.142724   0.000000
  125       12.289898   0.000000
  126       12.380837   0.000000
  127       12.621504   0.000000
  128       12.664782   0.000000
 
  0.2000000E+00  0.1666667E+00  0.9090909E-01  0.6060606E-02
    1      -12.018277   1.000000
    2      -11.283989   1.000000
    3      -11.043106   1.000000
    4      -11.001129   1.000000
    5      -10.726774   1.000000
    6      -10.231012   1.000000
    7       -8.853037   1.000000
    8       -8.801080   1.000000
    9       -8.740947   1.000000
   10       -8.520617   1.000000
   11       -8.254212   1.000000
   12       -8.192952   1.000000
   13       -7.992262   1.000000
   14       -6.982306   1.000000
   15       -6.565113   1.000000
   16       -6.295622   1.000000
   17       -5.684534   1.000000
   18       -5.449990   1.000000
   19       -5.188880   1.000000
   20       -5.148058   1.000000
   21       -5.077726   1.000000
   22       -4.634925   1.000000
   23       -4.455107   1.000000
   24       -4.162211   1.000000
   25       -4.115010   1.000000
   26       -3.624676   1.000000
   27       -3.377808   1.000000
   28       -3.294399   1.000000
   29       -3.127860   1.000000
   30       -2.956266   1.000000
   31       -2.784891   1.000000
   32       -2.636638   1.000000
   33       -2.335572   1.000000
   34       -2.186396   1.000000
   35       -2.045672   1.000000
   36       -1.836047   1.000000
   37       -1.738254   1.000000
   38       -1.624937   1.000000
   39       -1.549185   1.000000
   40       -1.326471   1.000000
   41       -1.270378   1.000000
   42       -1.201328   1.000000
   43       -1.083148   1.000000
   44       -0.965575   1.000000
   45       -0.883845   1.000000
   46       -0.855638   1.000000
   47       -0.696917   1.000000
   48       -0.644528   1.000000
   49       -0.579971   1.000000
   50       -0.465761   1.000000
   51       -0.403170   1.000000
   52       -0.331378   1.000000
   53       -0.178988   1.000000
   54        0.027410   1.000000
   55        0.145961   1.000000
   56        0.274489   1.000000
   57        0.388899   1.000000
   58        0.526917   1.000000
   59        0.688512   1.000000
   60        0.886099   1.000000
   61        1.027634   1.000000
   62        1.160700   1.000000
   63        1.244350   1.000000
   64        1.331665   1.000000
   65        1.496796   1.000000
   66        1.588361   1.000000
   67        1.649156   1.000000
   68        1.816410   1.000000
   69        1.905400   1.000000
   70        1.960505   1.000000
   71        2.134716   1.000000
   72        2.176038   1.000000
   73        2.372919   1.000000
   74        2.418473   1.000000
   75        2.523291   1.000000
   76        2.684289   1.000000
   77        2.749803   1.000000
   78        2.902509   1.000000
   79        2.983441   1.000000
   80        3.037481   1.000000
   81        3.148921   1.000000
   82        3.186292   1.000000
   83        3.292982   1.000000
   84        3.451859   1.000000
   85        3.544747   1.000000
   86        3.621832   1.000000
   87        3.782658   1.000000
   88        3.856737   1.000000
   89        4.017327   1.000000
   90        4.195894   1.000000
   91        4.304624   1.000000
   92        4.380216   1.000000
   93        4.502751   1.000000
   94        4.682196   1.000000
   95        5.075245   1.000000
   96        5.542603   1.000000
   97        6.907600   1.000000
   98        7.015369   1.000000
   99        7.576852   0.000000
  100        7.702525   0.000000
  101        7.783097   0.000000
  102        8.008720   0.000000
  103        8.084897   0.000000
  104        8.323006   0.000000
  105        8.660281   0.000000
  106        8.849443   0.000000
  107        9.134715   0.000000
  108        9.722700   0.000000
  109        9.883447   0.000000
  110       10.088874   0.000000
  111       10.270435   0.000000
  112       10.468656   0.000000
  113       10.703778   0.000000
  114       10.721962   0.000000
  115       10.906190   0.000000
  116       11.060250   0.000000
  117       11.199093   0.000000
  118       11.514388   0.000000
  119       11.642202   0.000000
  120       11.689729   0.000000
  121       11.712417   0.000000
  122       11.957413   0.000000
  123       12.028344   0.000000
  124       12.147717   0.000000
  125       12.196845   0.000000
  126       12.407204   0.000000
  127       12.468093   0.000000
  128       12.552140   0.000000
 
  0.4000000E+00  0.1666667E+00  0.9090909E-01  0.6060606E-02
    1      -12.004029   1.000000
    2      -11.312779   1.000000
    3      -11.067688   1.000000
    4      -11.004584   1.000000
    5      -10.718361   1.000000
    6      -10.176143   1.000000
    7       -8.843943   1.000000
    8       -8.799358   1.000000
    9       -8.696976   1.000000
   10       -8.503978   1.000000
   11       -8.332382   1.000000
   12       -8.258464   1.000000
   13       -7.969381   1.000000
   14       -6.952356   1.000000
   15       -6.552405   1.000000
   16       -6.264405   1.000000
   17       -5.700774   1.000000
   18       -5.489574   1.000000
   19       -5.267073   1.000000
   20       -5.164212   1.000000
   21       -5.119493   1.000000
   22       -4.647943   1.000000
   23       -4.335338   1.000000
   24       -4.214982   1.000000
   25       -4.163422   1.000000
   26       -3.610644   1.000000
   27       -3.309620   1.000000
   28       -3.161515   1.000000
   29       -3.033727   1.000000
   30       -2.870367   1.000000
   31       -2.617080   1.000000
   32       -2.484108   1.000000
   33       -2.352562   1.000000
   34       -2.222398   1.000000
   35       -2.171136   1.000000
   36       -1.967842   1.000000
   37       -1.810770   1.000000
   38       -1.751056   1.000000
   39       -1.643268   1.000000
   40       -1.474334   1.000000
   41       -1.397936   1.000000
   42       -1.324368   1.000000
   43       -1.143959   1.000000
   44       -1.024090   1.000000
   45       -0.862704   1.000000
   46       -0.820155   1.000000
   47       -0.654400   1.000000
   48       -0.589317   1.000000
   49       -0.444010   1.000000
   50       -0.342461   1.000000
   51       -0.291872   1.000000
   52       -0.183395   1.000000
   53       -0.114582   1.000000
   54        0.009356   1.000000
   55        0.091854   1.000000
   56        0.378418   1.000000
   57        0.458700   1.000000
   58        0.563307   1.000000
   59        0.606076   1.000000
   60        0.770885   1.000000
   61        0.825271   1.000000
   62        1.023530   1.000000
   63        1.120836   1.000000
   64        1.268160   1.000000
   65        1.435330   1.000000
   66        1.618254   1.000000
   67        1.655813   1.000000
   68        1.821748   1.000000
   69        1.949116   1.000000
   70        2.022849   1.000000
   71        2.214716   1.000000
   72        2.261734   1.000000
   73        2.430435   1.000000
   74        2.511028   1.000000
   75        2.629743   1.000000
   76        2.753225   1.000000
   77        2.879119   1.000000
   78        2.940923   1.000000
   79        3.017467   1.000000
   80        3.045953   1.000000
   81        3.136311   1.000000
   82        3.223572   1.000000
   83        3.332321   1.000000
   84        3.527911   1.000000
   85        3.572056   1.000000
   86        3.632325   1.000000
   87        3.684809   1.000000
   88        3.785171   1.000000
   89        3.948757   1.000000
   90        4.027888   1.000000
   91        4.254999   1.000000
   92        4.313946   1.000000
   93        4.400389   1.000000
   94        4.570411   1.000000
   95        4.994927   1.000000
   96        5.555278   1.000000
   97        7.047805   1.000000
   98        7.169480   1.075231
   99        7.433213   0.000000
  100        7.650463   0.000000
  101        7.868957   0.000000
  102        7.917934   0.000000
  103        8.078431   0.000000
  104        8.255874   0.000000
  105        8.675744   0.000000
  106        8.949695   0.000000
  107        9.434309   0.000000
  108        9.740698   0.000000
  109       10.009065   0.000000
  110       10.111548   0.000000
  111       10.422129   0.000000
  112       10.535458   0.000000
  113       10.684841   0.000000
  114       10.808199   0.000000
  115       10.892206   0.000000
  116       11.042322   0.000000
  117       11.243786   0.000000
  118       11.460533   0.000000
  119       11.533588   0.000000
  120       11.606854   0.000000
  121       11.744023   0.000000
  122       11.769226   0.000000
  123       11.825206   0.000000
  124       12.085722   0.000000
  125       12.181073   0.000000
  126       12.282532   0.000000
  127       12.372483   0.000000
  128       12.519494   0.000000
 
 -0.4000000E+00  0.1666667E+00  0.9090909E-01  0.6060606E-02
    1      -11.994938   1.000000
    2      -11.330902   1.000000
    3      -11.105548   1.000000
    4      -10.980761   1.000000
    5      -10.709040   1.000000
    6      -10.145270   1.000000
    7       -8.889336   1.000000
    8       -8.784901   1.000000
    9       -8.618721   1.000000
   10       -8.484519   1.000000
   11       -8.439987   1.000000
   12       -8.233802   1.000000
   13       -7.980485   1.000000
   14       -6.971746   1.000000
   15       -6.542451   1.000000
   16       -6.275994   1.000000
   17       -5.698261   1.000000
   18       -5.452200   1.000000
   19       -5.307432   1.000000
   20       -5.158100   1.000000
   21       -5.119750   1.000000
   22       -4.650192   1.000000
   23       -4.263952   1.000000
   24       -4.225086   1.000000
   25       -4.157479   1.000000
   26       -3.577093   1.000000
   27       -3.316136   1.000000
   28       -3.095023   1.000000
   29       -2.910596   1.000000
   30       -2.778529   1.000000
   31       -2.634070   1.000000
   32       -2.499360   1.000000
   33       -2.350173   1.000000
   34       -2.264213   1.000000
   35       -2.161312   1.000000
   36       -2.106540   1.000000
   37       -2.038296   1.000000
   38       -1.938967   1.000000
   39       -1.779374   1.000000
   40       -1.576741   1.000000
   41       -1.505232   1.000000
   42       -1.341065   1.000000
   43       -1.180338   1.000000
   44       -1.021081   1.000000
   45       -0.783221   1.000000
   46       -0.716043   1.000000
   47       -0.564573   1.000000
   48       -0.386599   1.000000
   49       -0.311971   1.000000
   50       -0.249254   1.000000
   51       -0.234657   1.000000
   52       -0.111069   1.000000
   53       -0.055522   1.000000
   54       -0.010274   1.000000
   55        0.231756   1.000000
   56        0.324205   1.000000
   57        0.416076   1.000000
   58        0.629507   1.000000
   59        0.705626   1.000000
   60        0.760256   1.000000
   61        0.891792   1.000000
   62        0.968648   1.000000
   63        1.064566   1.000000
   64        1.214271   1.000000
   65        1.354237   1.000000
   66        1.451927   1.000000
   67        1.663254   1.000000
   68        1.788718   1.000000
   69        1.963190   1.000000
   70        2.010821   1.000000
   71        2.200146   1.000000
   72        2.369208   1.000000
   73        2.416082   1.000000
   74        2.487524   1.000000
   75        2.653735   1.000000
   76        2.712440   1.000000
   77        2.882150   1.000000
   78        2.906477   1.000000
   79        3.031161   1.000000
   80        3.073109   1.000000
   81        3.110317   1.000000
   82        3.244082   1.000000
   83        3.319477   1.000000
   84        3.430318   1.000000
   85        3.482790   1.000000
   86        3.626513   1.000000
   87        3.698449   1.000000
   88        3.788055   1.000000
   89        3.866873   1.000000
   90        4.018224   1.000000
   91        4.247659   1.000000
   92        4.340530   1.000000
   93        4.441022   1.000000
   94        4.587912   1.000000
   95        4.993814   1.000000
   96        5.556793   1.000000
   97        7.164369   1.000000
   98        7.384773   0.003657
   99        7.451963   0.000000
  100        7.573237   0.000000
  101        7.652387   0.000000
  102        7.902503   0.000000
  103        8.085712   0.000000
  104        8.194496   0.000000
  105        8.593610   0.000000
  106        8.996163   0.000000
  107        9.556707   0.000000
  108        9.719009   0.000000
  109       10.165464   0.000000
  110       10.233511   0.000000
  111       10.407998   0.000000
  112       10.580061   0.000000
  113       10.665791   0.000000
  114       10.861416   0.000000
  115       10.960149   0.000000
  116       11.131296   0.000000
  117       11.235648   0.000000
  118       11.372810   0.000000
  119       11.565225   0.000000
  120       11.613012   0.000000
  121       11.759161   0.000000
  122       11.807038   0.000000
  123       11.958127   0.000000
  124       12.026185   0.000000
  125       12.217454   0.000000
  126       12.308349   0.000000
  127       12.390810   0.000000
  128       12.529280   0.000000
 
 -0.2000000E+00  0.1666667E+00  0.9090909E-01  0.6060606E-02
    1      -12.004444   1.000000
    2      -11.312787   1.000000
    3      -11.097784   1.000000
    4      -10.975761   1.000000
    5      -10.707028   1.000000
    6      -10.179306   1.000000
    7       -8.917805   1.000000
    8       -8.776140   1.000000
    9       -8.644709   1.000000
   10       -8.535437   1.000000
   11       -8.358725   1.000000
   12       -8.141538   1.000000
   13       -8.024653   1.000000
   14       -7.012303   1.000000
   15       -6.547711   1.000000
   16       -6.310733   1.000000
   17       -5.680720   1.000000
   18       -5.390988   1.000000
   19       -5.294193   1.000000
   20       -5.116802   1.000000
   21       -5.077598   1.000000
   22       -4.651290   1.000000
   23       -4.263610   1.000000
   24       -4.200207   1.000000
   25       -4.138762   1.000000
   26       -3.581228   1.000000
   27       -3.381089   1.000000
   28       -3.145653   1.000000
   29       -3.057694   1.000000
   30       -2.933899   1.000000
   31       -2.626122   1.000000
   32       -2.502790   1.000000
   33       -2.449418   1.000000
   34       -2.305857   1.000000
   35       -2.196733   1.000000
   36       -2.057340   1.000000
   37       -1.967760   1.000000
   38       -1.793801   1.000000
   39       -1.755172   1.000000
   40       -1.604238   1.000000
   41       -1.513296   1.000000
   42       -1.250180   1.000000
   43       -1.101128   1.000000
   44       -0.978919   1.000000
   45       -0.767722   1.000000
   46       -0.685040   1.000000
   47       -0.583608   1.000000
   48       -0.505173   1.000000
   49       -0.381519   1.000000
   50       -0.235958   1.000000
   51       -0.166728   1.000000
   52       -0.106177   1.000000
   53       -0.044446   1.000000
   54        0.054489   1.000000
   55        0.254826   1.000000
   56        0.367967   1.000000
   57        0.501135   1.000000
   58        0.675484   1.000000
   59        0.699291   1.000000
   60        0.800338   1.000000
   61        0.914087   1.000000
   62        0.999169   1.000000
   63        1.048052   1.000000
   64        1.276576   1.000000
   65        1.352009   1.000000
   66        1.539456   1.000000
   67        1.639940   1.000000
   68        1.800108   1.000000
   69        1.835887   1.000000
   70        1.992649   1.000000
   71        2.112056   1.000000
   72        2.303245   1.000000
   73        2.408125   1.000000
   74        2.502810   1.000000
   75        2.615654   1.000000
   76        2.653290   1.000000
   77        2.731707   1.000000
   78        2.823446   1.000000
   79        2.923757   1.000000
   80        3.015193   1.000000
   81        3.049568   1.000000
   82        3.133116   1.000000
   83        3.333599   1.000000
   84        3.363455   1.000000
   85        3.482640   1.000000
   86        3.614295   1.000000
   87        3.698236   1.000000
   88        3.874424   1.000000
   89        3.950449   1.000000
   90        4.132124   1.000000
   91        4.360268   1.000000
   92        4.425267   1.000000
   93        4.498308   1.000000
   94        4.728438   1.000000
   95        5.074336   1.000000
   96        5.545281   1.000000
   97        7.039828   1.000000
   98        7.216819   0.933440
   99        7.610340   0.000000
  100        7.653224   0.000000
  101        7.781463   0.000000
  102        7.872039   0.000000
  103        7.996720   0.000000
  104        8.204564   0.000000
  105        8.507155   0.000000
  106        8.920409   0.000000
  107        9.268286   0.000000
  108        9.824403   0.000000
  109        9.998396   0.000000
  110       10.103179   0.000000
  111       10.443295   0.000000
  112       10.592619   0.000000
  113       10.731517   0.000000
  114       10.849469   0.000000
  115       10.968957   0.000000
  116       11.067358   0.000000
  117       11.311701   0.000000
  118       11.362582   0.000000
  119       11.666968   0.000000
  120       11.835554   0.000000
  121       11.905860   0.000000
  122       11.989842   0.000000
  123       12.055823   0.000000
  124       12.087424   0.000000
  125       12.209333   0.000000
  126       12.318004   0.000000
  127       12.519325   0.000000
  128       12.556119   0.000000
 
  0.0000000E+00  0.3333333E+00  0.9090909E-01  0.6060606E-02
    1      -11.995751   1.000000
    2      -11.363653   1.000000
    3      -11.083294   1.000000
    4      -10.947889   1.000000
    5      -10.684369   1.000000
    6      -10.206192   1.000000
    7       -8.861483   1.000000
    8       -8.780098   1.000000
    9       -8.730839   1.000000
   10       -8.552498   1.000000
   11       -8.274620   1.000000
   12       -8.123306   1.000000
   13       -8.063643   1.000000
   14       -7.037387   1.000000
   15       -6.537573   1.000000
   16       -6.297229   1.000000
   17       -5.762536   1.000000
   18       -5.385491   1.000000
   19       -5.177356   1.000000
   20       -5.068178   1.000000
   21       -5.021963   1.000000
   22       -4.778408   1.000000
   23       -4.299865   1.000000
   24       -4.218776   1.000000
   25       -4.160852   1.000000
   26       -3.557099   1.000000
   27       -3.255608   1.000000
   28       -3.239161   1.000000
   29       -3.086098   1.000000
   30       -2.949610   1.000000
   31       -2.680841   1.000000
   32       -2.585505   1.000000
   33       -2.523811   1.000000
   34       -2.284313   1.000000
   35       -2.119854   1.000000
   36       -2.038746   1.000000
   37       -1.931887   1.000000
   38       -1.769642   1.000000
   39       -1.625928   1.000000
   40       -1.500920   1.000000
   41       -1.377235   1.000000
   42       -1.220081   1.000000
   43       -1.164364   1.000000
   44       -0.918307   1.000000
   45       -0.828950   1.000000
   46       -0.729823   1.000000
   47       -0.645626   1.000000
   48       -0.533574   1.000000
   49       -0.454962   1.000000
   50       -0.338482   1.000000
   51       -0.165363   1.000000
   52       -0.083592   1.000000
   53       -0.016147   1.000000
   54        0.083013   1.000000
   55        0.205741   1.000000
   56        0.295881   1.000000
   57        0.530992   1.000000
   58        0.566094   1.000000
   59        0.675105   1.000000
   60        0.763821   1.000000
   61        0.965567   1.000000
   62        1.033691   1.000000
   63        1.194777   1.000000
   64        1.282066   1.000000
   65        1.368961   1.000000
   66        1.571141   1.000000
   67        1.629843   1.000000
   68        1.767856   1.000000
   69        1.854772   1.000000
   70        1.927401   1.000000
   71        2.133445   1.000000
   72        2.166334   1.000000
   73        2.354825   1.000000
   74        2.499561   1.000000
   75        2.564305   1.000000
   76        2.693276   1.000000
   77        2.769475   1.000000
   78        2.850975   1.000000
   79        2.906318   1.000000
   80        2.953791   1.000000
   81        3.093421   1.000000
   82        3.197379   1.000000
   83        3.369624   1.000000
   84        3.446159   1.000000
   85        3.528891   1.000000
   86        3.676799   1.000000
   87        3.786889   1.000000
   88        3.839607   1.000000
   89        3.995961   1.000000
   90        4.180228   1.000000
   91        4.263773   1.000000
   92        4.399056   1.000000
   93        4.476708   1.000000
   94        4.731213   1.000000
   95        5.159357   1.000000
   96        5.342969   1.000000
   97        7.049981   1.000000
   98        7.152479   1.076957
   99        7.501240   0.000000
  100        7.616929   0.000000
  101        7.907844   0.000000
  102        8.007010   0.000000
  103        8.057311   0.000000
  104        8.087189   0.000000
  105        8.614217   0.000000
  106        8.946623   0.000000
  107        9.176897   0.000000
  108        9.689447   0.000000
  109        9.938349   0.000000
  110       10.154694   0.000000
  111       10.340913   0.000000
  112       10.456268   0.000000
  113       10.789691   0.000000
  114       10.887402   0.000000
  115       10.970317   0.000000
  116       11.130218   0.000000
  117       11.351548   0.000000
  118       11.493396   0.000000
  119       11.665827   0.000000
  120       11.746135   0.000000
  121       11.819182   0.000000
  122       11.905854   0.000000
  123       12.025127   0.000000
  124       12.172883   0.000000
  125       12.262589   0.000000
  126       12.345380   0.000000
  127       12.458958   0.000000
  128       12.627554   0.000000
 
  0.2000000E+00  0.3333333E+00  0.9090909E-01  0.6060606E-02
    1      -11.998658   1.000000
    2      -11.353688   1.000000
    3      -11.061079   1.000000
    4      -10.970621   1.000000
    5      -10.691370   1.000000
    6      -10.218880   1.000000
    7       -8.864849   1.000000
    8       -8.779037   1.000000
    9       -8.712187   1.000000
   10       -8.505231   1.000000
   11       -8.288738   1.000000
   12       -8.218274   1.000000
   13       -8.001097   1.000000
   14       -7.007753   1.000000
   15       -6.542539   1.000000
   16       -6.279452   1.000000
   17       -5.764576   1.000000
   18       -5.441548   1.000000
   19       -5.154682   1.000000
   20       -5.075063   1.000000
   21       -5.051278   1.000000
   22       -4.777066   1.000000
   23       -4.427846   1.000000
   24       -4.231067   1.000000
   25       -4.170476   1.000000
   26       -3.479140   1.000000
   27       -3.297528   1.000000
   28       -3.173089   1.000000
   29       -3.094987   1.000000
   30       -2.967093   1.000000
   31       -2.842994   1.000000
   32       -2.610912   1.000000
   33       -2.459366   1.000000
   34       -2.149489   1.000000
   35       -2.017475   1.000000
   36       -1.898995   1.000000
   37       -1.785352   1.000000
   38       -1.616923   1.000000
   39       -1.457082   1.000000
   40       -1.407365   1.000000
   41       -1.375863   1.000000
   42       -1.219301   1.000000
   43       -1.105378   1.000000
   44       -0.942082   1.000000
   45       -0.908572   1.000000
   46       -0.754522   1.000000
   47       -0.706414   1.000000
   48       -0.619381   1.000000
   49       -0.543478   1.000000
   50       -0.459233   1.000000
   51       -0.369432   1.000000
   52       -0.212604   1.000000
   53       -0.097222   1.000000
   54        0.027799   1.000000
   55        0.109058   1.000000
   56        0.190465   1.000000
   57        0.351295   1.000000
   58        0.414004   1.000000
   59        0.635813   1.000000
   60        0.750641   1.000000
   61        1.019145   1.000000
   62        1.154270   1.000000
   63        1.220802   1.000000
   64        1.399670   1.000000
   65        1.482565   1.000000
   66        1.569023   1.000000
   67        1.641282   1.000000
   68        1.808583   1.000000
   69        1.894729   1.000000
   70        1.912958   1.000000
   71        2.198838   1.000000
   72        2.270596   1.000000
   73        2.354322   1.000000
   74        2.421005   1.000000
   75        2.533575   1.000000
   76        2.763203   1.000000
   77        2.787816   1.000000
   78        2.914931   1.000000
   79        3.035438   1.000000
   80        3.102326   1.000000
   81        3.192494   1.000000
   82        3.212990   1.000000
   83        3.326667   1.000000
   84        3.440994   1.000000
   85        3.611497   1.000000
   86        3.705388   1.000000
   87        3.761948   1.000000
   88        3.906220   1.000000
   89        3.973566   1.000000
   90        4.109611   1.000000
   91        4.178296   1.000000
   92        4.302413   1.000000
   93        4.447761   1.000000
   94        4.632182   1.000000
   95        5.126683   1.000000
   96        5.342820   1.000000
   97        6.963429   1.000000
   98        7.097282   1.000000
   99        7.463889  -0.012616
  100        7.652582   0.000000
  101        7.872068   0.000000
  102        8.027779   0.000000
  103        8.099161   0.000000
  104        8.240826   0.000000
  105        8.796086   0.000000
  106        8.967818   0.000000
  107        9.209564   0.000000
  108        9.769955   0.000000
  109        9.912729   0.000000
  110       10.106387   0.000000
  111       10.276135   0.000000
  112       10.401772   0.000000
  113       10.735995   0.000000
  114       10.828592   0.000000
  115       10.976597   0.000000
  116       11.103064   0.000000
  117       11.264497   0.000000
  118       11.484444   0.000000
  119       11.576902   0.000000
  120       11.659329   0.000000
  121       11.696733   0.000000
  122       11.781158   0.000000
  123       11.974066   0.000000
  124       12.085818   0.000000
  125       12.131565   0.000000
  126       12.234757   0.000000
  127       12.444288   0.000000
  128       12.509032   0.000000
 
  0.4000000E+00  0.3333333E+00  0.9090909E-01  0.6060606E-02
    1      -11.988462   1.000000
    2      -11.360556   1.000000
    3      -11.073284   1.000000
    4      -10.997790   1.000000
    5      -10.682554   1.000000
    6      -10.184583   1.000000
    7       -8.849047   1.000000
    8       -8.786175   1.000000
    9       -8.647301   1.000000
   10       -8.467046   1.000000
   11       -8.355435   1.000000
   12       -8.314829   1.000000
   13       -7.970874   1.000000
   14       -6.974461   1.000000
   15       -6.532019   1.000000
   16       -6.259544   1.000000
   17       -5.775221   1.000000
   18       -5.489876   1.000000
   19       -5.231590   1.000000
   20       -5.099485   1.000000
   21       -5.067826   1.000000
   22       -4.763468   1.000000
   23       -4.441362   1.000000
   24       -4.256873   1.000000
   25       -4.198264   1.000000
   26       -3.427618   1.000000
   27       -3.281011   1.000000
   28       -3.129109   1.000000
   29       -3.057898   1.000000
   30       -2.919715   1.000000
   31       -2.711461   1.000000
   32       -2.529947   1.000000
   33       -2.268856   1.000000
   34       -2.142605   1.000000
   35       -1.969886   1.000000
   36       -1.883840   1.000000
   37       -1.800787   1.000000
   38       -1.667516   1.000000
   39       -1.600292   1.000000
   40       -1.483291   1.000000
   41       -1.348457   1.000000
   42       -1.299012   1.000000
   43       -1.150895   1.000000
   44       -0.991626   1.000000
   45       -0.873117   1.000000
   46       -0.784291   1.000000
   47       -0.692829   1.000000
   48       -0.663717   1.000000
   49       -0.609346   1.000000
   50       -0.541141   1.000000
   51       -0.431667   1.000000
   52       -0.298001   1.000000
   53       -0.107575   1.000000
   54       -0.030742   1.000000
   55        0.055680   1.000000
   56        0.254214   1.000000
   57        0.361409   1.000000
   58        0.518735   1.000000
   59        0.742482   1.000000
   60        0.862602   1.000000
   61        1.016391   1.000000
   62        1.067975   1.000000
   63        1.224295   1.000000
   64        1.277833   1.000000
   65        1.404627   1.000000
   66        1.543245   1.000000
   67        1.661335   1.000000
   68        1.782413   1.000000
   69        1.846427   1.000000
   70        2.044614   1.000000
   71        2.211509   1.000000
   72        2.269771   1.000000
   73        2.393165   1.000000
   74        2.528000   1.000000
   75        2.676771   1.000000
   76        2.816124   1.000000
   77        2.879462   1.000000
   78        2.969314   1.000000
   79        3.031206   1.000000
   80        3.108936   1.000000
   81        3.205960   1.000000
   82        3.281667   1.000000
   83        3.385563   1.000000
   84        3.460415   1.000000
   85        3.618833   1.000000
   86        3.705672   1.000000
   87        3.743188   1.000000
   88        3.797377   1.000000
   89        3.940341   1.000000
   90        4.037702   1.000000
   91        4.080925   1.000000
   92        4.201108   1.000000
   93        4.420283   1.000000
   94        4.526871   1.000000
   95        5.062770   1.000000
   96        5.354660   1.000000
   97        7.018276   1.000000
   98        7.159283   1.065938
   99        7.425493  -0.004492
  100        7.744251   0.000000
  101        7.814760   0.000000
  102        7.954663   0.000000
  103        8.101319   0.000000
  104        8.269852   0.000000
  105        8.957783   0.000000
  106        9.095548   0.000000
  107        9.436355   0.000000
  108        9.939222   0.000000
  109       10.019199   0.000000
  110       10.115056   0.000000
  111       10.290218   0.000000
  112       10.481375   0.000000
  113       10.581219   0.000000
  114       10.827511   0.000000
  115       10.884202   0.000000
  116       11.037328   0.000000
  117       11.277273   0.000000
  118       11.380062   0.000000
  119       11.479789   0.000000
  120       11.562578   0.000000
  121       11.589347   0.000000
  122       11.690152   0.000000
  123       11.809086   0.000000
  124       11.868213   0.000000
  125       12.078511   0.000000
  126       12.216409   0.000000
  127       12.324003   0.000000
  128       12.381974   0.000000
 
 -0.4000000E+00  0.3333333E+00  0.9090909E-01  0.6060606E-02
    1      -11.978761   1.000000
    2      -11.372190   1.000000
    3      -11.129546   1.000000
    4      -10.957181   1.000000
    5      -10.681193   1.000000
    6      -10.150755   1.000000
    7       -8.830348   1.000000
    8       -8.796893   1.000000
    9       -8.606660   1.000000
   10       -8.534198   1.000000
   11       -8.396687   1.000000
   12       -8.273492   1.000000
   13       -7.982391   1.000000
   14       -6.986255   1.000000
   15       -6.521738   1.000000
   16       -6.267714   1.000000
   17       -5.779645   1.000000
   18       -5.445694   1.000000
   19       -5.267126   1.000000
   20       -5.127005   1.000000
   21       -5.070248   1.000000
   22       -4.763425   1.000000
   23       -4.353207   1.000000
   24       -4.274679   1.000000
   25       -4.187477   1.000000
   26       -3.418846   1.000000
   27       -3.256258   1.000000
   28       -3.112061   1.000000
   29       -2.996017   1.000000
   30       -2.840372   1.000000
   31       -2.548130   1.000000
   32       -2.417869   1.000000
   33       -2.328709   1.000000
   34       -2.214897   1.000000
   35       -2.132732   1.000000
   36       -2.043605   1.000000
   37       -1.937292   1.000000
   38       -1.835374   1.000000
   39       -1.674279   1.000000
   40       -1.581261   1.000000
   41       -1.426273   1.000000
   42       -1.340164   1.000000
   43       -1.234730   1.000000
   44       -1.070943   1.000000
   45       -0.871569   1.000000
   46       -0.832124   1.000000
   47       -0.737439   1.000000
   48       -0.618988   1.000000
   49       -0.454971   1.000000
   50       -0.314824   1.000000
   51       -0.220881   1.000000
   52       -0.125923   1.000000
   53        0.007369   1.000000
   54        0.055794   1.000000
   55        0.246976   1.000000
   56        0.371981   1.000000
   57        0.438718   1.000000
   58        0.487561   1.000000
   59        0.584330   1.000000
   60        0.824005   1.000000
   61        0.925986   1.000000
   62        1.071315   1.000000
   63        1.156249   1.000000
   64        1.195048   1.000000
   65        1.447437   1.000000
   66        1.566083   1.000000
   67        1.690323   1.000000
   68        1.802475   1.000000
   69        1.898688   1.000000
   70        2.075211   1.000000
   71        2.168557   1.000000
   72        2.281133   1.000000
   73        2.350847   1.000000
   74        2.468699   1.000000
   75        2.593604   1.000000
   76        2.751992   1.000000
   77        2.859134   1.000000
   78        2.925423   1.000000
   79        3.034878   1.000000
   80        3.061941   1.000000
   81        3.168420   1.000000
   82        3.294006   1.000000
   83        3.373117   1.000000
   84        3.394125   1.000000
   85        3.547717   1.000000
   86        3.681442   1.000000
   87        3.747255   1.000000
   88        3.842848   1.000000
   89        3.874535   1.000000
   90        3.979925   1.000000
   91        4.206712   1.000000
   92        4.272683   1.000000
   93        4.419479   1.000000
   94        4.541015   1.000000
   95        5.049592   1.000000
   96        5.360553   1.000000
   97        7.147826   1.000000
   98        7.364158   0.118332
   99        7.406791   0.000000
  100        7.661133   0.000000
  101        7.730669   0.000000
  102        7.906561   0.000000
  103        8.100974   0.000000
  104        8.174201   0.000000
  105        8.852449   0.000000
  106        9.171386   0.000000
  107        9.577711   0.000000
  108        9.989264   0.000000
  109       10.107725   0.000000
  110       10.180184   0.000000
  111       10.394046   0.000000
  112       10.551650   0.000000
  113       10.601694   0.000000
  114       10.713840   0.000000
  115       10.870716   0.000000
  116       11.052223   0.000000
  117       11.233758   0.000000
  118       11.350767   0.000000
  119       11.509672   0.000000
  120       11.558017   0.000000
  121       11.627521   0.000000
  122       11.671073   0.000000
  123       11.838665   0.000000
  124       11.966280   0.000000
  125       12.086835   0.000000
  126       12.238570   0.000000
  127       12.391423   0.000000
  128       12.478384   0.000000
 
 -0.2000000E+00  0.3333333E+00  0.9090909E-01  0.6060606E-02
    1      -11.983544   1.000000
    2      -11.372474   1.000000
    3      -11.131142   1.000000
    4      -10.933375   1.000000
    5      -10.681570   1.000000
    6      -10.163837   1.000000
    7       -8.845249   1.000000
    8       -8.784255   1.000000
    9       -8.676292   1.000000
   10       -8.577329   1.000000
   11       -8.336869   1.000000
   12       -8.160340   1.000000
   13       -8.037833   1.000000
   14       -7.024779   1.000000
   15       -6.524914   1.000000
   16       -6.292821   1.000000
   17       -5.770820   1.000000
   18       -5.360341   1.000000
   19       -5.237405   1.000000
   20       -5.138102   1.000000
   21       -5.033904   1.000000
   22       -4.768272   1.000000
   23       -4.287062   1.000000
   24       -4.251062   1.000000
   25       -4.148273   1.000000
   26       -3.472356   1.000000
   27       -3.263654   1.000000
   28       -3.082694   1.000000
   29       -3.042462   1.000000
   30       -2.851335   1.000000
   31       -2.673856   1.000000
   32       -2.476762   1.000000
   33       -2.436848   1.000000
   34       -2.347132   1.000000
   35       -2.238458   1.000000
   36       -2.092221   1.000000
   37       -1.973701   1.000000
   38       -1.782079   1.000000
   39       -1.711342   1.000000
   40       -1.601866   1.000000
   41       -1.474920   1.000000
   42       -1.386894   1.000000
   43       -1.142577   1.000000
   44       -0.990189   1.000000
   45       -0.914183   1.000000
   46       -0.732427   1.000000
   47       -0.598631   1.000000
   48       -0.480431   1.000000
   49       -0.438708   1.000000
   50       -0.272605   1.000000
   51       -0.068159   1.000000
   52        0.008176   1.000000
   53        0.029966   1.000000
   54        0.119926   1.000000
   55        0.242136   1.000000
   56        0.413604   1.000000
   57        0.462155   1.000000
   58        0.507126   1.000000
   59        0.661953   1.000000
   60        0.807772   1.000000
   61        0.919610   1.000000
   62        0.942443   1.000000
   63        1.206472   1.000000
   64        1.272620   1.000000
   65        1.372169   1.000000
   66        1.494850   1.000000
   67        1.728459   1.000000
   68        1.809368   1.000000
   69        1.949494   1.000000
   70        1.996524   1.000000
   71        2.063620   1.000000
   72        2.281937   1.000000
   73        2.396140   1.000000
   74        2.427779   1.000000
   75        2.538972   1.000000
   76        2.619957   1.000000
   77        2.659578   1.000000
   78        2.775126   1.000000
   79        2.969293   1.000000
   80        3.097622   1.000000
   81        3.178931   1.000000
   82        3.269515   1.000000
   83        3.306748   1.000000
   84        3.347005   1.000000
   85        3.483307   1.000000
   86        3.586650   1.000000
   87        3.793180   1.000000
   88        3.857807   1.000000
   89        3.915106   1.000000
   90        4.127045   1.000000
   91        4.328430   1.000000
   92        4.400912   1.000000
   93        4.448922   1.000000
   94        4.661783   1.000000
   95        5.103520   1.000000
   96        5.353455   1.000000
   97        7.166657   1.000000
   98        7.331270   0.250456
   99        7.479555   0.000000
  100        7.667751   0.000000
  101        7.751850   0.000000
  102        7.893180   0.000000
  103        8.038983   0.000000
  104        8.095267   0.000000
  105        8.641510   0.000000
  106        9.102268   0.000000
  107        9.323052   0.000000
  108        9.821759   0.000000
  109       10.056368   0.000000
  110       10.190616   0.000000
  111       10.418329   0.000000
  112       10.541734   0.000000
  113       10.797433   0.000000
  114       10.866264   0.000000
  115       10.941945   0.000000
  116       11.057677   0.000000
  117       11.246270   0.000000
  118       11.325853   0.000000
  119       11.661432   0.000000
  120       11.708391   0.000000
  121       11.829957   0.000000
  122       11.917321   0.000000
  123       11.958968   0.000000
  124       12.038140   0.000000
  125       12.156072   0.000000
  126       12.264828   0.000000
  127       12.516560   0.000000
  128       12.633733   0.000000
 
  0.0000000E+00  0.5000000E+00  0.9090909E-01  0.6060606E-02
    1      -11.973102   1.000000
    2      -11.428644   1.000000
    3      -11.079142   1.000000
    4      -10.945433   1.000000
    5      -10.651891   1.000000
    6      -10.187692   1.000000
    7       -8.914818   1.000000
    8       -8.771929   1.000000
    9       -8.631052   1.000000
   10       -8.551062   1.000000
   11       -8.299430   1.000000
   12       -8.171939   1.000000
   13       -8.073669   1.000000
   14       -7.046637   1.000000
   15       -6.526396   1.000000
   16       -6.289744   1.000000
   17       -5.806322   1.000000
   18       -5.375215   1.000000
   19       -5.170704   1.000000
   20       -5.026204   1.000000
   21       -4.955176   1.000000
   22       -4.926545   1.000000
   23       -4.279189   1.000000
   24       -4.234212   1.000000
   25       -4.152442   1.000000
   26       -3.524618   1.000000
   27       -3.182250   1.000000
   28       -3.112091   1.000000
   29       -2.939387   1.000000
   30       -2.856462   1.000000
   31       -2.755244   1.000000
   32       -2.642429   1.000000
   33       -2.532678   1.000000
   34       -2.289888   1.000000
   35       -2.158926   1.000000
   36       -2.130089   1.000000
   37       -2.043263   1.000000
   38       -1.903331   1.000000
   39       -1.824873   1.000000
   40       -1.596000   1.000000
   41       -1.399426   1.000000
   42       -1.295204   1.000000
   43       -1.128645   1.000000
   44       -0.779047   1.000000
   45       -0.717862   1.000000
   46       -0.684399   1.000000
   47       -0.561927   1.000000
   48       -0.488577   1.000000
   49       -0.428227   1.000000
   50       -0.293631   1.000000
   51       -0.138023   1.000000
   52       -0.065334   1.000000
   53        0.071751   1.000000
   54        0.160475   1.000000
   55        0.218897   1.000000
   56        0.297031   1.000000
   57        0.470971   1.000000
   58        0.607986   1.000000
   59        0.693250   1.000000
   60        0.774991   1.000000
   61        0.868341   1.000000
   62        0.952589   1.000000
   63        1.147948   1.000000
   64        1.193858   1.000000
   65        1.377410   1.000000
   66        1.546400   1.000000
   67        1.617185   1.000000
   68        1.778991   1.000000
   69        1.931427   1.000000
   70        1.993501   1.000000
   71        2.094028   1.000000
   72        2.200349   1.000000
   73        2.331037   1.000000
   74        2.397161   1.000000
   75        2.535279   1.000000
   76        2.640230   1.000000
   77        2.786385   1.000000
   78        2.911960   1.000000
   79        2.981883   1.000000
   80        3.103050   1.000000
   81        3.142314   1.000000
   82        3.273189   1.000000
   83        3.290373   1.000000
   84        3.363879   1.000000
   85        3.574423   1.000000
   86        3.632638   1.000000
   87        3.690418   1.000000
   88        3.851917   1.000000
   89        4.020632   1.000000
   90        4.165281   1.000000
   91        4.181234   1.000000
   92        4.357865   1.000000
   93        4.528704   1.000000
   94        4.641182   1.000000
   95        5.171268   1.000000
   96        5.230892   1.000000
   97        7.209560   1.000000
   98        7.312444   0.318710
   99        7.409581   0.000000
  100        7.595353   0.000000
  101        7.758708   0.000000
  102        7.932539   0.000000
  103        8.025088   0.000000
  104        8.141674   0.000000
  105        8.702704   0.000000
  106        8.958602   0.000000
  107        9.356878   0.000000
  108        9.619521   0.000000
  109        9.895209   0.000000
  110       10.237856   0.000000
  111       10.313892   0.000000
  112       10.619100   0.000000
  113       10.864384   0.000000
  114       10.936810   0.000000
  115       11.131980   0.000000
  116       11.292088   0.000000
  117       11.356109   0.000000
  118       11.464762   0.000000
  119       11.550758   0.000000
  120       11.700790   0.000000
  121       11.847731   0.000000
  122       11.898218   0.000000
  123       12.007783   0.000000
  124       12.099769   0.000000
  125       12.170258   0.000000
  126       12.326268   0.000000
  127       12.477457   0.000000
  128       12.647452   0.000000
 
  0.2000000E+00  0.5000000E+00  0.9090909E-01  0.6060606E-02
    1      -11.974329   1.000000
    2      -11.421764   1.000000
    3      -11.078197   1.000000
    4      -10.951957   1.000000
    5      -10.652618   1.000000
    6      -10.194985   1.000000
    7       -8.903506   1.000000
    8       -8.767827   1.000000
    9       -8.635277   1.000000
   10       -8.500088   1.000000
   11       -8.359377   1.000000
   12       -8.215734   1.000000
   13       -8.023764   1.000000
   14       -7.023164   1.000000
   15       -6.529725   1.000000
   16       -6.266409   1.000000
   17       -5.808237   1.000000
   18       -5.415299   1.000000
   19       -5.160356   1.000000
   20       -5.070467   1.000000
   21       -4.972077   1.000000
   22       -4.903684   1.000000
   23       -4.337349   1.000000
   24       -4.272782   1.000000
   25       -4.197458   1.000000
   26       -3.457842   1.000000
   27       -3.227125   1.000000
   28       -3.042508   1.000000
   29       -2.995518   1.000000
   30       -2.902835   1.000000
   31       -2.769041   1.000000
   32       -2.574702   1.000000
   33       -2.476406   1.000000
   34       -2.214647   1.000000
   35       -2.168699   1.000000
   36       -2.097466   1.000000
   37       -1.931016   1.000000
   38       -1.708506   1.000000
   39       -1.643310   1.000000
   40       -1.580699   1.000000
   41       -1.386308   1.000000
   42       -1.210664   1.000000
   43       -1.144690   1.000000
   44       -0.919932   1.000000
   45       -0.808130   1.000000
   46       -0.726385   1.000000
   47       -0.634543   1.000000
   48       -0.535452   1.000000
   49       -0.406331   1.000000
   50       -0.321831   1.000000
   51       -0.241512   1.000000
   52       -0.151078   1.000000
   53       -0.026204   1.000000
   54        0.068645   1.000000
   55        0.147330   1.000000
   56        0.219173   1.000000
   57        0.366480   1.000000
   58        0.394076   1.000000
   59        0.663566   1.000000
   60        0.772948   1.000000
   61        0.831231   1.000000
   62        0.969965   1.000000
   63        1.160276   1.000000
   64        1.385156   1.000000
   65        1.450944   1.000000
   66        1.574106   1.000000
   67        1.681635   1.000000
   68        1.799237   1.000000
   69        1.858294   1.000000
   70        2.063116   1.000000
   71        2.232203   1.000000
   72        2.275074   1.000000
   73        2.340294   1.000000
   74        2.524752   1.000000
   75        2.661210   1.000000
   76        2.698918   1.000000
   77        2.809994   1.000000
   78        2.902463   1.000000
   79        2.969340   1.000000
   80        3.044334   1.000000
   81        3.156967   1.000000
   82        3.222856   1.000000
   83        3.418081   1.000000
   84        3.449623   1.000000
   85        3.583181   1.000000
   86        3.605547   1.000000
   87        3.801249   1.000000
   88        3.896298   1.000000
   89        3.931729   1.000000
   90        3.992223   1.000000
   91        4.214260   1.000000
   92        4.286446   1.000000
   93        4.434393   1.000000
   94        4.574043   1.000000
   95        5.133628   1.000000
   96        5.223437   1.000000
   97        7.115471   1.000000
   98        7.268087   0.907184
   99        7.349841   0.001143
  100        7.596486   0.000000
  101        7.881409   0.000000
  102        7.983956   0.000000
  103        8.076833   0.000000
  104        8.150508   0.000000
  105        8.786981   0.000000
  106        9.093124   0.000000
  107        9.359201   0.000000
  108        9.718276   0.000000
  109        9.909748   0.000000
  110       10.197583   0.000000
  111       10.263193   0.000000
  112       10.528626   0.000000
  113       10.799734   0.000000
  114       10.848378   0.000000
  115       11.082059   0.000000
  116       11.179814   0.000000
  117       11.325861   0.000000
  118       11.428972   0.000000
  119       11.552151   0.000000
  120       11.624409   0.000000
  121       11.750528   0.000000
  122       11.820281   0.000000
  123       11.945978   0.000000
  124       11.990306   0.000000
  125       12.176280   0.000000
  126       12.250922   0.000000
  127       12.397259   0.000000
  128       12.560990   0.000000
 
  0.4000000E+00  0.5000000E+00  0.9090909E-01  0.6060606E-02
    1      -11.967923   1.000000
    2      -11.415906   1.000000
    3      -11.079383   1.000000
    4      -10.996424   1.000000
    5      -10.637326   1.000000
    6      -10.181884   1.000000
    7       -8.875108   1.000000
    8       -8.743543   1.000000
    9       -8.601316   1.000000
   10       -8.494821   1.000000
   11       -8.400467   1.000000
   12       -8.283431   1.000000
   13       -8.003744   1.000000
   14       -6.992518   1.000000
   15       -6.519613   1.000000
   16       -6.256541   1.000000
   17       -5.816390   1.000000
   18       -5.454161   1.000000
   19       -5.215445   1.000000
   20       -5.102744   1.000000
   21       -4.994224   1.000000
   22       -4.887159   1.000000
   23       -4.419166   1.000000
   24       -4.286857   1.000000
   25       -4.225894   1.000000
   26       -3.425722   1.000000
   27       -3.208979   1.000000
   28       -3.121849   1.000000
   29       -3.031912   1.000000
   30       -2.788305   1.000000
   31       -2.674403   1.000000
   32       -2.495899   1.000000
   33       -2.284300   1.000000
   34       -2.133251   1.000000
   35       -2.079405   1.000000
   36       -1.941928   1.000000
   37       -1.813157   1.000000
   38       -1.707974   1.000000
   39       -1.549846   1.000000
   40       -1.430975   1.000000
   41       -1.287982   1.000000
   42       -1.246334   1.000000
   43       -1.217865   1.000000
   44       -1.069242   1.000000
   45       -1.009493   1.000000
   46       -0.926903   1.000000
   47       -0.812361   1.000000
   48       -0.705585   1.000000
   49       -0.586311   1.000000
   50       -0.491771   1.000000
   51       -0.407630   1.000000
   52       -0.216968   1.000000
   53       -0.102471   1.000000
   54        0.053123   1.000000
   55        0.148087   1.000000
   56        0.343816   1.000000
   57        0.353915   1.000000
   58        0.462486   1.000000
   59        0.706105   1.000000
   60        0.878230   1.000000
   61        0.983156   1.000000
   62        1.070507   1.000000
   63        1.222005   1.000000
   64        1.308793   1.000000
   65        1.417529   1.000000
   66        1.571723   1.000000
   67        1.654147   1.000000
   68        1.804330   1.000000
   69        1.890595   1.000000
   70        2.116838   1.000000
   71        2.206707   1.000000
   72        2.332418   1.000000
   73        2.354816   1.000000
   74        2.599669   1.000000
   75        2.723107   1.000000
   76        2.777947   1.000000
   77        2.879698   1.000000
   78        2.956206   1.000000
   79        2.999187   1.000000
   80        3.037222   1.000000
   81        3.157174   1.000000
   82        3.281654   1.000000
   83        3.330242   1.000000
   84        3.415871   1.000000
   85        3.528254   1.000000
   86        3.683117   1.000000
   87        3.735458   1.000000
   88        3.857041   1.000000
   89        3.963867   1.000000
   90        4.012890   1.000000
   91        4.044323   1.000000
   92        4.315016   1.000000
   93        4.361793   1.000000
   94        4.479533   1.000000
   95        5.128471   1.000000
   96        5.202546   1.000000
   97        7.072921   1.000000
   98        7.245537   1.134080
   99        7.404103  -0.001748
  100        7.714661   0.000000
  101        7.849364   0.000000
  102        7.907596   0.000000
  103        8.136892   0.000000
  104        8.209019   0.000000
  105        9.072981   0.000000
  106        9.304275   0.000000
  107        9.472784   0.000000
  108        9.895405   0.000000
  109       10.036152   0.000000
  110       10.228392   0.000000
  111       10.319352   0.000000
  112       10.475302   0.000000
  113       10.631906   0.000000
  114       10.782075   0.000000
  115       10.918667   0.000000
  116       11.022868   0.000000
  117       11.142567   0.000000
  118       11.285954   0.000000
  119       11.434087   0.000000
  120       11.487521   0.000000
  121       11.615894   0.000000
  122       11.669039   0.000000
  123       11.805719   0.000000
  124       11.923833   0.000000
  125       12.076382   0.000000
  126       12.237501   0.000000
  127       12.337449   0.000000
  128       12.424870   0.000000
 
 -0.4000000E+00  0.5000000E+00  0.9090909E-01  0.6060606E-02
    1      -11.962581   1.000000
    2      -11.418927   1.000000
    3      -11.093572   1.000000
    4      -11.000277   1.000000
    5      -10.632878   1.000000
    6      -10.165827   1.000000
    7       -8.870238   1.000000
    8       -8.720716   1.000000
    9       -8.598183   1.000000
   10       -8.519393   1.000000
   11       -8.421299   1.000000
   12       -8.252096   1.000000
   13       -8.026230   1.000000
   14       -6.999582   1.000000
   15       -6.510568   1.000000
   16       -6.274467   1.000000
   17       -5.818989   1.000000
   18       -5.414112   1.000000
   19       -5.280477   1.000000
   20       -5.063789   1.000000
   21       -4.979732   1.000000
   22       -4.935374   1.000000
   23       -4.393109   1.000000
   24       -4.277193   1.000000
   25       -4.221054   1.000000
   26       -3.426458   1.000000
   27       -3.198980   1.000000
   28       -3.124176   1.000000
   29       -2.998212   1.000000
   30       -2.766219   1.000000
   31       -2.569806   1.000000
   32       -2.417387   1.000000
   33       -2.362480   1.000000
   34       -2.158219   1.000000
   35       -2.084986   1.000000
   36       -1.918847   1.000000
   37       -1.843218   1.000000
   38       -1.745826   1.000000
   39       -1.644709   1.000000
   40       -1.536642   1.000000
   41       -1.421184   1.000000
   42       -1.289219   1.000000
   43       -1.176176   1.000000
   44       -1.063965   1.000000
   45       -1.024885   1.000000
   46       -0.959350   1.000000
   47       -0.844161   1.000000
   48       -0.695862   1.000000
   49       -0.606643   1.000000
   50       -0.464404   1.000000
   51       -0.332081   1.000000
   52       -0.235119   1.000000
   53        0.008148   1.000000
   54        0.061842   1.000000
   55        0.261483   1.000000
   56        0.363821   1.000000
   57        0.489934   1.000000
   58        0.599623   1.000000
   59        0.695168   1.000000
   60        0.819318   1.000000
   61        1.001150   1.000000
   62        1.155461   1.000000
   63        1.225903   1.000000
   64        1.270682   1.000000
   65        1.429969   1.000000
   66        1.561584   1.000000
   67        1.673555   1.000000
   68        1.830865   1.000000
   69        1.938744   1.000000
   70        1.988845   1.000000
   71        2.186026   1.000000
   72        2.265485   1.000000
   73        2.368190   1.000000
   74        2.524432   1.000000
   75        2.602304   1.000000
   76        2.720379   1.000000
   77        2.821022   1.000000
   78        2.930204   1.000000
   79        2.994225   1.000000
   80        3.070526   1.000000
   81        3.137702   1.000000
   82        3.235072   1.000000
   83        3.267911   1.000000
   84        3.372312   1.000000
   85        3.531437   1.000000
   86        3.621240   1.000000
   87        3.756949   1.000000
   88        3.906089   1.000000
   89        3.962527   1.000000
   90        4.081827   1.000000
   91        4.138449   1.000000
   92        4.331978   1.000000
   93        4.386100   1.000000
   94        4.483895   1.000000
   95        5.150265   1.000000
   96        5.197929   1.000000
   97        7.124774   1.000000
   98        7.302890   0.479643
   99        7.495840   0.000000
  100        7.702926   0.000000
  101        7.770122   0.000000
  102        7.839020   0.000000
  103        8.147883   0.000000
  104        8.193515   0.000000
  105        9.144541   0.000000
  106        9.327043   0.000000
  107        9.535472   0.000000
  108        9.921780   0.000000
  109       10.127933   0.000000
  110       10.270435   0.000000
  111       10.457800   0.000000
  112       10.495053   0.000000
  113       10.574540   0.000000
  114       10.675552   0.000000
  115       10.835893   0.000000
  116       11.072590   0.000000
  117       11.174442   0.000000
  118       11.260014   0.000000
  119       11.347149   0.000000
  120       11.457824   0.000000
  121       11.567179   0.000000
  122       11.683236   0.000000
  123       11.837584   0.000000
  124       11.981301   0.000000
  125       12.014460   0.000000
  126       12.215785   0.000000
  127       12.437573   0.000000
  128       12.468577   0.000000
 
 -0.2000000E+00  0.5000000E+00  0.9090909E-01  0.6060606E-02
    1      -11.965975   1.000000
    2      -11.423953   1.000000
    3      -11.112450   1.000000
    4      -10.947288   1.000000
    5      -10.648116   1.000000
    6      -10.168290   1.000000
    7       -8.896223   1.000000
    8       -8.734542   1.000000
    9       -8.623525   1.000000
   10       -8.565845   1.000000
   11       -8.340213   1.000000
   12       -8.165469   1.000000
   13       -8.089592   1.000000
   14       -7.033390   1.000000
   15       -6.514889   1.000000
   16       -6.296347   1.000000
   17       -5.811193   1.000000
   18       -5.347625   1.000000
   19       -5.254013   1.000000
   20       -5.014945   1.000000
   21       -4.990400   1.000000
   22       -4.944679   1.000000
   23       -4.303092   1.000000
   24       -4.265321   1.000000
   25       -4.173020   1.000000
   26       -3.461013   1.000000
   27       -3.150032   1.000000
   28       -3.100978   1.000000
   29       -2.972168   1.000000
   30       -2.771434   1.000000
   31       -2.686850   1.000000
   32       -2.555497   1.000000
   33       -2.509769   1.000000
   34       -2.259715   1.000000
   35       -2.170012   1.000000
   36       -2.058168   1.000000
   37       -1.978826   1.000000
   38       -1.869278   1.000000
   39       -1.726719   1.000000
   40       -1.591277   1.000000
   41       -1.429773   1.000000
   42       -1.322062   1.000000
   43       -1.241600   1.000000
   44       -0.960514   1.000000
   45       -0.872889   1.000000
   46       -0.776399   1.000000
   47       -0.719220   1.000000
   48       -0.539940   1.000000
   49       -0.399918   1.000000
   50       -0.287161   1.000000
   51       -0.131198   1.000000
   52       -0.034972   1.000000
   53        0.098639   1.000000
   54        0.153045   1.000000
   55        0.268918   1.000000
   56        0.332313   1.000000
   57        0.441883   1.000000
   58        0.523131   1.000000
   59        0.592092   1.000000
   60        0.733524   1.000000
   61        0.981717   1.000000
   62        1.075166   1.000000
   63        1.243083   1.000000
   64        1.293080   1.000000
   65        1.411591   1.000000
   66        1.549317   1.000000
   67        1.722944   1.000000
   68        1.821852   1.000000
   69        1.930094   1.000000
   70        2.015033   1.000000
   71        2.177730   1.000000
   72        2.211280   1.000000
   73        2.302841   1.000000
   74        2.385535   1.000000
   75        2.462638   1.000000
   76        2.610673   1.000000
   77        2.694288   1.000000
   78        2.842870   1.000000
   79        2.985425   1.000000
   80        3.060051   1.000000
   81        3.138072   1.000000
   82        3.220247   1.000000
   83        3.312838   1.000000
   84        3.336800   1.000000
   85        3.567779   1.000000
   86        3.640331   1.000000
   87        3.763833   1.000000
   88        3.835674   1.000000
   89        3.964291   1.000000
   90        4.138069   1.000000
   91        4.276331   1.000000
   92        4.388885   1.000000
   93        4.477103   1.000000
   94        4.582220   1.000000
   95        5.169830   1.000000
   96        5.211363   1.000000
   97        7.200733   1.000000
   98        7.430739  -0.067572
   99        7.460827   0.000000
  100        7.626389   0.000000
  101        7.678457   0.000000
  102        7.882761   0.000000
  103        8.035727   0.000000
  104        8.165833   0.000000
  105        8.862198   0.000000
  106        9.165572   0.000000
  107        9.406132   0.000000
  108        9.716988   0.000000
  109       10.008178   0.000000
  110       10.297267   0.000000
  111       10.411318   0.000000
  112       10.663395   0.000000
  113       10.803445   0.000000
  114       10.924175   0.000000
  115       10.973868   0.000000
  116       11.120168   0.000000
  117       11.224300   0.000000
  118       11.299999   0.000000
  119       11.427125   0.000000
  120       11.647519   0.000000
  121       11.727847   0.000000
  122       11.818908   0.000000
  123       11.923460   0.000000
  124       11.989395   0.000000
  125       12.105768   0.000000
  126       12.296198   0.000000
  127       12.547881   0.000000
  128       12.660484   0.000000
 
  0.0000000E+00 -0.3333333E+00  0.9090909E-01  0.6060606E-02
    1      -11.976848   1.000000
    2      -11.421449   1.000000
    3      -11.068065   1.000000
    4      -10.954317   1.000000
    5      -10.652308   1.000000
    6      -10.197296   1.000000
    7       -8.967512   1.000000
    8       -8.763245   1.000000
    9       -8.608094   1.000000
   10       -8.429181   1.000000
   11       -8.373169   1.000000
   12       -8.197147   1.000000
   13       -8.068757   1.000000
   14       -7.035691   1.000000
   15       -6.536051   1.000000
   16       -6.313558   1.000000
   17       -5.763845   1.000000
   18       -5.380209   1.000000
   19       -5.217546   1.000000
   20       -5.052516   1.000000
   21       -5.016955   1.000000
   22       -4.795249   1.000000
   23       -4.254408   1.000000
   24       -4.212192   1.000000
   25       -4.164996   1.000000
   26       -3.531348   1.000000
   27       -3.249919   1.000000
   28       -3.120918   1.000000
   29       -2.979089   1.000000
   30       -2.819842   1.000000
   31       -2.745212   1.000000
   32       -2.657447   1.000000
   33       -2.514700   1.000000
   34       -2.324940   1.000000
   35       -2.205347   1.000000
   36       -2.122645   1.000000
   37       -2.013333   1.000000
   38       -1.874515   1.000000
   39       -1.716380   1.000000
   40       -1.579814   1.000000
   41       -1.512024   1.000000
   42       -1.325837   1.000000
   43       -1.058075   1.000000
   44       -0.932052   1.000000
   45       -0.750507   1.000000
   46       -0.607114   1.000000
   47       -0.544580   1.000000
   48       -0.433056   1.000000
   49       -0.399809   1.000000
   50       -0.302150   1.000000
   51       -0.258364   1.000000
   52       -0.063631   1.000000
   53        0.013558   1.000000
   54        0.213669   1.000000
   55        0.315516   1.000000
   56        0.386102   1.000000
   57        0.517861   1.000000
   58        0.609996   1.000000
   59        0.716300   1.000000
   60        0.775687   1.000000
   61        0.938073   1.000000
   62        1.009691   1.000000
   63        1.093791   1.000000
   64        1.250067   1.000000
   65        1.357763   1.000000
   66        1.466566   1.000000
   67        1.635683   1.000000
   68        1.731340   1.000000
   69        1.869128   1.000000
   70        1.955861   1.000000
   71        2.103607   1.000000
   72        2.185694   1.000000
   73        2.284563   1.000000
   74        2.418885   1.000000
   75        2.488554   1.000000
   76        2.656381   1.000000
   77        2.796538   1.000000
   78        2.855160   1.000000
   79        2.960718   1.000000
   80        3.126483   1.000000
   81        3.192584   1.000000
   82        3.232345   1.000000
   83        3.323019   1.000000
   84        3.475391   1.000000
   85        3.537232   1.000000
   86        3.570593   1.000000
   87        3.658710   1.000000
   88        3.861853   1.000000
   89        4.011350   1.000000
   90        4.073814   1.000000
   91        4.171983   1.000000
   92        4.263521   1.000000
   93        4.554033   1.000000
   94        4.792754   1.000000
   95        5.134153   1.000000
   96        5.369324   1.000000
   97        7.100235   1.000000
   98        7.335673   0.249631
   99        7.498796   0.000000
  100        7.641476   0.000000
  101        7.729441   0.000000
  102        7.903921   0.000000
  103        7.988517   0.000000
  104        8.180614   0.000000
  105        8.635338   0.000000
  106        9.024341   0.000000
  107        9.238473   0.000000
  108        9.681614   0.000000
  109        9.889524   0.000000
  110       10.198605   0.000000
  111       10.423198   0.000000
  112       10.553841   0.000000
  113       10.832176   0.000000
  114       10.954710   0.000000
  115       11.152854   0.000000
  116       11.246293   0.000000
  117       11.319953   0.000000
  118       11.504220   0.000000
  119       11.621874   0.000000
  120       11.706042   0.000000
  121       11.889800   0.000000
  122       11.983022   0.000000
  123       12.082340   0.000000
  124       12.157472   0.000000
  125       12.223862   0.000000
  126       12.323096   0.000000
  127       12.455431   0.000000
  128       12.540089   0.000000
 
  0.2000000E+00 -0.3333333E+00  0.9090909E-01  0.6060606E-02
    1      -11.972316   1.000000
    2      -11.424879   1.000000
    3      -11.097662   1.000000
    4      -10.936104   1.000000
    5      -10.648044   1.000000
    6      -10.184527   1.000000
    7       -8.933421   1.000000
    8       -8.750205   1.000000
    9       -8.633638   1.000000
   10       -8.498750   1.000000
   11       -8.379839   1.000000
   12       -8.186603   1.000000
   13       -8.045543   1.000000
   14       -7.013019   1.000000
   15       -6.536720   1.000000
   16       -6.275296   1.000000
   17       -5.773958   1.000000
   18       -5.381742   1.000000
   19       -5.228467   1.000000
   20       -5.121166   1.000000
   21       -5.045603   1.000000
   22       -4.767393   1.000000
   23       -4.300841   1.000000
   24       -4.227026   1.000000
   25       -4.169322   1.000000
   26       -3.528491   1.000000
   27       -3.248304   1.000000
   28       -2.981179   1.000000
   29       -2.925424   1.000000
   30       -2.815343   1.000000
   31       -2.789482   1.000000
   32       -2.588427   1.000000
   33       -2.497264   1.000000
   34       -2.327115   1.000000
   35       -2.193605   1.000000
   36       -2.128154   1.000000
   37       -1.991552   1.000000
   38       -1.856119   1.000000
   39       -1.722861   1.000000
   40       -1.594804   1.000000
   41       -1.370681   1.000000
   42       -1.296788   1.000000
   43       -1.121894   1.000000
   44       -0.984499   1.000000
   45       -0.779459   1.000000
   46       -0.689325   1.000000
   47       -0.599348   1.000000
   48       -0.502558   1.000000
   49       -0.433374   1.000000
   50       -0.324293   1.000000
   51       -0.296615   1.000000
   52       -0.074496   1.000000
   53        0.074651   1.000000
   54        0.133498   1.000000
   55        0.282128   1.000000
   56        0.336176   1.000000
   57        0.462973   1.000000
   58        0.560381   1.000000
   59        0.656447   1.000000
   60        0.720185   1.000000
   61        0.871772   1.000000
   62        1.066527   1.000000
   63        1.134280   1.000000
   64        1.311963   1.000000
   65        1.345423   1.000000
   66        1.496756   1.000000
   67        1.664698   1.000000
   68        1.783970   1.000000
   69        1.932834   1.000000
   70        2.081457   1.000000
   71        2.172669   1.000000
   72        2.263680   1.000000
   73        2.346270   1.000000
   74        2.444053   1.000000
   75        2.546744   1.000000
   76        2.707467   1.000000
   77        2.803381   1.000000
   78        2.914073   1.000000
   79        2.993584   1.000000
   80        3.092676   1.000000
   81        3.138508   1.000000
   82        3.296730   1.000000
   83        3.348833   1.000000
   84        3.410238   1.000000
   85        3.561981   1.000000
   86        3.593196   1.000000
   87        3.667168   1.000000
   88        3.848457   1.000000
   89        3.917210   1.000000
   90        4.002701   1.000000
   91        4.086662   1.000000
   92        4.285663   1.000000
   93        4.493004   1.000000
   94        4.709472   1.000000
   95        5.066012   1.000000
   96        5.378367   1.000000
   97        7.123450   1.000000
   98        7.356059  -0.020116
   99        7.509045   0.000000
  100        7.605731   0.000000
  101        7.710124   0.000000
  102        7.969708   0.000000
  103        8.041181   0.000000
  104        8.087186   0.000000
  105        8.619966   0.000000
  106        9.158945   0.000000
  107        9.287462   0.000000
  108        9.783769   0.000000
  109        9.943576   0.000000
  110       10.178393   0.000000
  111       10.368245   0.000000
  112       10.447880   0.000000
  113       10.774875   0.000000
  114       10.945198   0.000000
  115       11.008097   0.000000
  116       11.191175   0.000000
  117       11.261631   0.000000
  118       11.551394   0.000000
  119       11.683929   0.000000
  120       11.756074   0.000000
  121       11.872086   0.000000
  122       11.941534   0.000000
  123       11.979826   0.000000
  124       12.034328   0.000000
  125       12.176773   0.000000
  126       12.221098   0.000000
  127       12.439539   0.000000
  128       12.592986   0.000000
 
  0.4000000E+00 -0.3333333E+00  0.9090909E-01  0.6060606E-02
    1      -11.964706   1.000000
    2      -11.419172   1.000000
    3      -11.124951   1.000000
    4      -10.951909   1.000000
    5      -10.636391   1.000000
    6      -10.169802   1.000000
    7       -8.890731   1.000000
    8       -8.718285   1.000000
    9       -8.625011   1.000000
   10       -8.552784   1.000000
   11       -8.374031   1.000000
   12       -8.216345   1.000000
   13       -8.050820   1.000000
   14       -6.988873   1.000000
   15       -6.526232   1.000000
   16       -6.262762   1.000000
   17       -5.781160   1.000000
   18       -5.394518   1.000000
   19       -5.261435   1.000000
   20       -5.181863   1.000000
   21       -5.088617   1.000000
   22       -4.734923   1.000000
   23       -4.328103   1.000000
   24       -4.279059   1.000000
   25       -4.218453   1.000000
   26       -3.518831   1.000000
   27       -3.219215   1.000000
   28       -3.038624   1.000000
   29       -2.969469   1.000000
   30       -2.835821   1.000000
   31       -2.602208   1.000000
   32       -2.470968   1.000000
   33       -2.344277   1.000000
   34       -2.196121   1.000000
   35       -2.108679   1.000000
   36       -2.016755   1.000000
   37       -1.844157   1.000000
   38       -1.777420   1.000000
   39       -1.646825   1.000000
   40       -1.466939   1.000000
   41       -1.391801   1.000000
   42       -1.347957   1.000000
   43       -1.191609   1.000000
   44       -1.174100   1.000000
   45       -1.032220   1.000000
   46       -0.998585   1.000000
   47       -0.767405   1.000000
   48       -0.677778   1.000000
   49       -0.409576   1.000000
   50       -0.315486   1.000000
   51       -0.255184   1.000000
   52       -0.193784   1.000000
   53        0.098237   1.000000
   54        0.103668   1.000000
   55        0.237780   1.000000
   56        0.309041   1.000000
   57        0.421013   1.000000
   58        0.482614   1.000000
   59        0.610028   1.000000
   60        0.773508   1.000000
   61        0.907917   1.000000
   62        1.105621   1.000000
   63        1.191582   1.000000
   64        1.378042   1.000000
   65        1.509704   1.000000
   66        1.575166   1.000000
   67        1.676429   1.000000
   68        1.770757   1.000000
   69        1.902517   1.000000
   70        2.120133   1.000000
   71        2.247708   1.000000
   72        2.331006   1.000000
   73        2.445731   1.000000
   74        2.568530   1.000000
   75        2.604811   1.000000
   76        2.676038   1.000000
   77        2.826634   1.000000
   78        2.911535   1.000000
   79        2.984140   1.000000
   80        3.079221   1.000000
   81        3.131045   1.000000
   82        3.294010   1.000000
   83        3.335226   1.000000
   84        3.385760   1.000000
   85        3.588920   1.000000
   86        3.600885   1.000000
   87        3.685974   1.000000
   88        3.753565   1.000000
   89        3.864027   1.000000
   90        3.997231   1.000000
   91        4.054580   1.000000
   92        4.187897   1.000000
   93        4.454829   1.000000
   94        4.630423   1.000000
   95        5.020630   1.000000
   96        5.386850   1.000000
   97        7.175073   1.000000
   98        7.316791   0.144497
   99        7.467134   0.000000
  100        7.677875   0.000000
  101        7.752275   0.000000
  102        7.871383   0.000000
  103        8.088756   0.000000
  104        8.179583   0.000000
  105        8.854697   0.000000
  106        9.219628   0.000000
  107        9.601305   0.000000
  108        9.952854   0.000000
  109       10.083634   0.000000
  110       10.265068   0.000000
  111       10.321845   0.000000
  112       10.463464   0.000000
  113       10.714906   0.000000
  114       10.748445   0.000000
  115       10.923614   0.000000
  116       10.988026   0.000000
  117       11.171526   0.000000
  118       11.319849   0.000000
  119       11.451974   0.000000
  120       11.545789   0.000000
  121       11.697818   0.000000
  122       11.757657   0.000000
  123       11.930862   0.000000
  124       11.949956   0.000000
  125       12.189087   0.000000
  126       12.242573   0.000000
  127       12.397786   0.000000
  128       12.595274   0.000000
 
 -0.4000000E+00 -0.3333333E+00  0.9090909E-01  0.6060606E-02
    1      -11.964580   1.000000
    2      -11.415286   1.000000
    3      -11.087611   1.000000
    4      -11.007931   1.000000
    5      -10.625648   1.000000
    6      -10.174677   1.000000
    7       -8.912116   1.000000
    8       -8.703240   1.000000
    9       -8.587650   1.000000
   10       -8.518716   1.000000
   11       -8.386377   1.000000
   12       -8.212019   1.000000
   13       -8.086647   1.000000
   14       -6.998344   1.000000
   15       -6.519103   1.000000
   16       -6.294519   1.000000
   17       -5.775275   1.000000
   18       -5.371843   1.000000
   19       -5.308179   1.000000
   20       -5.160957   1.000000
   21       -5.065732   1.000000
   22       -4.741596   1.000000
   23       -4.377795   1.000000
   24       -4.251617   1.000000
   25       -4.228065   1.000000
   26       -3.510763   1.000000
   27       -3.210389   1.000000
   28       -3.127486   1.000000
   29       -2.950760   1.000000
   30       -2.829819   1.000000
   31       -2.551961   1.000000
   32       -2.469977   1.000000
   33       -2.371173   1.000000
   34       -2.177913   1.000000
   35       -2.055288   1.000000
   36       -1.860600   1.000000
   37       -1.804987   1.000000
   38       -1.760454   1.000000
   39       -1.644848   1.000000
   40       -1.559233   1.000000
   41       -1.398272   1.000000
   42       -1.348039   1.000000
   43       -1.251818   1.000000
   44       -1.132353   1.000000
   45       -0.988673   1.000000
   46       -0.948423   1.000000
   47       -0.786403   1.000000
   48       -0.720699   1.000000
   49       -0.525715   1.000000
   50       -0.469886   1.000000
   51       -0.243998   1.000000
   52       -0.176372   1.000000
   53       -0.110407   1.000000
   54        0.081554   1.000000
   55        0.151797   1.000000
   56        0.428123   1.000000
   57        0.513490   1.000000
   58        0.654027   1.000000
   59        0.781426   1.000000
   60        0.818793   1.000000
   61        0.980392   1.000000
   62        1.116253   1.000000
   63        1.217330   1.000000
   64        1.349267   1.000000
   65        1.452908   1.000000
   66        1.472457   1.000000
   67        1.654548   1.000000
   68        1.846018   1.000000
   69        1.956379   1.000000
   70        2.042032   1.000000
   71        2.184915   1.000000
   72        2.320307   1.000000
   73        2.390083   1.000000
   74        2.474617   1.000000
   75        2.629217   1.000000
   76        2.673405   1.000000
   77        2.835695   1.000000
   78        2.889703   1.000000
   79        2.943821   1.000000
   80        2.997974   1.000000
   81        3.147744   1.000000
   82        3.217199   1.000000
   83        3.294870   1.000000
   84        3.337723   1.000000
   85        3.530742   1.000000
   86        3.639891   1.000000
   87        3.710662   1.000000
   88        3.857029   1.000000
   89        3.938069   1.000000
   90        4.045796   1.000000
   91        4.099482   1.000000
   92        4.212935   1.000000
   93        4.468545   1.000000
   94        4.630123   1.000000
   95        5.057429   1.000000
   96        5.384448   1.000000
   97        7.125661   1.000000
   98        7.305512   0.457032
   99        7.544898   0.000000
  100        7.657471   0.000000
  101        7.764709   0.000000
  102        7.792669   0.000000
  103        8.165720   0.000000
  104        8.225888   0.000000
  105        9.034113   0.000000
  106        9.209731   0.000000
  107        9.605282   0.000000
  108        9.968232   0.000000
  109       10.152714   0.000000
  110       10.208993   0.000000
  111       10.362765   0.000000
  112       10.566748   0.000000
  113       10.686618   0.000000
  114       10.788755   0.000000
  115       10.828578   0.000000
  116       10.945439   0.000000
  117       11.182270   0.000000
  118       11.316692   0.000000
  119       11.375316   0.000000
  120       11.486207   0.000000
  121       11.665181   0.000000
  122       11.735044   0.000000
  123       11.872115   0.000000
  124       11.939545   0.000000
  125       12.116742   0.000000
  126       12.243706   0.000000
  127       12.467160   0.000000
  128       12.582800   0.000000
 
 -0.2000000E+00 -0.3333333E+00  0.9090909E-01  0.6060606E-02
    1      -11.972254   1.000000
    2      -11.413674   1.000000
    3      -11.073476   1.000000
    4      -10.986547   1.000000
    5      -10.641452   1.000000
    6      -10.190351   1.000000
    7       -8.954822   1.000000
    8       -8.735186   1.000000
    9       -8.598455   1.000000
   10       -8.415768   1.000000
   11       -8.377167   1.000000
   12       -8.205853   1.000000
   13       -8.106595   1.000000
   14       -7.028164   1.000000
   15       -6.525115   1.000000
   16       -6.325029   1.000000
   17       -5.762564   1.000000
   18       -5.371419   1.000000
   19       -5.258084   1.000000
   20       -5.111968   1.000000
   21       -5.003737   1.000000
   22       -4.786927   1.000000
   23       -4.343000   1.000000
   24       -4.222203   1.000000
   25       -4.183224   1.000000
   26       -3.498448   1.000000
   27       -3.227351   1.000000
   28       -3.147667   1.000000
   29       -2.935716   1.000000
   30       -2.794914   1.000000
   31       -2.723553   1.000000
   32       -2.577953   1.000000
   33       -2.492723   1.000000
   34       -2.310854   1.000000
   35       -2.087079   1.000000
   36       -2.022292   1.000000
   37       -1.956145   1.000000
   38       -1.827698   1.000000
   39       -1.632541   1.000000
   40       -1.567182   1.000000
   41       -1.443336   1.000000
   42       -1.275259   1.000000
   43       -1.112714   1.000000
   44       -1.040990   1.000000
   45       -0.883753   1.000000
   46       -0.735452   1.000000
   47       -0.692468   1.000000
   48       -0.510115   1.000000
   49       -0.451156   1.000000
   50       -0.347717   1.000000
   51       -0.267627   1.000000
   52       -0.122755   1.000000
   53       -0.038502   1.000000
   54        0.055405   1.000000
   55        0.170172   1.000000
   56        0.443793   1.000000
   57        0.524721   1.000000
   58        0.631333   1.000000
   59        0.692403   1.000000
   60        0.876490   1.000000
   61        0.988073   1.000000
   62        1.063778   1.000000
   63        1.227385   1.000000
   64        1.382860   1.000000
   65        1.422431   1.000000
   66        1.524554   1.000000
   67        1.632126   1.000000
   68        1.720931   1.000000
   69        1.868409   1.000000
   70        1.985163   1.000000
   71        2.145107   1.000000
   72        2.233973   1.000000
   73        2.298157   1.000000
   74        2.453670   1.000000
   75        2.508252   1.000000
   76        2.564954   1.000000
   77        2.756729   1.000000
   78        2.869161   1.000000
   79        2.896897   1.000000
   80        3.070007   1.000000
   81        3.142478   1.000000
   82        3.217412   1.000000
   83        3.290148   1.000000
   84        3.396238   1.000000
   85        3.568328   1.000000
   86        3.581706   1.000000
   87        3.701325   1.000000
   88        3.877086   1.000000
   89        4.051418   1.000000
   90        4.071977   1.000000
   91        4.181872   1.000000
   92        4.298628   1.000000
   93        4.512513   1.000000
   94        4.729211   1.000000
   95        5.120880   1.000000
   96        5.371135   1.000000
   97        7.118203   1.000000
   98        7.283235   0.670959
   99        7.534104   0.000000
  100        7.655406   0.000000
  101        7.741808   0.000000
  102        7.825051   0.000000
  103        8.109329   0.000000
  104        8.226578   0.000000
  105        8.866981   0.000000
  106        9.138266   0.000000
  107        9.318085   0.000000
  108        9.768046   0.000000
  109        9.996535   0.000000
  110       10.246183   0.000000
  111       10.427657   0.000000
  112       10.585876   0.000000
  113       10.762037   0.000000
  114       10.903126   0.000000
  115       11.085564   0.000000
  116       11.147545   0.000000
  117       11.228114   0.000000
  118       11.343153   0.000000
  119       11.487838   0.000000
  120       11.620693   0.000000
  121       11.771432   0.000000
  122       11.864966   0.000000
  123       11.966350   0.000000
  124       12.033744   0.000000
  125       12.148506   0.000000
  126       12.287458   0.000000
  127       12.498223   0.000000
  128       12.605622   0.000000
 
  0.0000000E+00 -0.1666667E+00  0.9090909E-01  0.6060606E-02
    1      -12.002228   1.000000
    2      -11.349346   1.000000
    3      -11.059143   1.000000
    4      -10.967311   1.000000
    5      -10.686291   1.000000
    6      -10.225464   1.000000
    7       -8.993572   1.000000
    8       -8.753534   1.000000
    9       -8.586423   1.000000
   10       -8.510841   1.000000
   11       -8.263954   1.000000
   12       -8.213157   1.000000
   13       -8.051086   1.000000
   14       -7.014602   1.000000
   15       -6.557085   1.000000
   16       -6.342359   1.000000
   17       -5.676998   1.000000
   18       -5.421694   1.000000
   19       -5.205681   1.000000
   20       -5.121626   1.000000
   21       -5.031670   1.000000
   22       -4.669471   1.000000
   23       -4.336174   1.000000
   24       -4.153002   1.000000
   25       -4.091984   1.000000
   26       -3.640055   1.000000
   27       -3.349706   1.000000
   28       -3.273064   1.000000
   29       -3.107500   1.000000
   30       -2.845187   1.000000
   31       -2.699253   1.000000
   32       -2.592594   1.000000
   33       -2.529108   1.000000
   34       -2.299768   1.000000
   35       -2.160045   1.000000
   36       -2.049535   1.000000
   37       -1.935152   1.000000
   38       -1.758331   1.000000
   39       -1.632016   1.000000
   40       -1.500826   1.000000
   41       -1.412059   1.000000
   42       -1.253608   1.000000
   43       -1.017230   1.000000
   44       -0.927036   1.000000
   45       -0.835142   1.000000
   46       -0.772750   1.000000
   47       -0.623573   1.000000
   48       -0.561565   1.000000
   49       -0.419978   1.000000
   50       -0.364858   1.000000
   51       -0.262983   1.000000
   52       -0.219290   1.000000
   53        0.064048   1.000000
   54        0.199313   1.000000
   55        0.326994   1.000000
   56        0.477320   1.000000
   57        0.542651   1.000000
   58        0.588211   1.000000
   59        0.705578   1.000000
   60        0.809328   1.000000
   61        0.925211   1.000000
   62        1.045453   1.000000
   63        1.225432   1.000000
   64        1.302756   1.000000
   65        1.458240   1.000000
   66        1.526472   1.000000
   67        1.605845   1.000000
   68        1.696266   1.000000
   69        1.799140   1.000000
   70        1.925739   1.000000
   71        2.067716   1.000000
   72        2.136674   1.000000
   73        2.303520   1.000000
   74        2.405199   1.000000
   75        2.533636   1.000000
   76        2.675758   1.000000
   77        2.731994   1.000000
   78        2.833459   1.000000
   79        2.926299   1.000000
   80        3.072517   1.000000
   81        3.110035   1.000000
   82        3.225285   1.000000
   83        3.302816   1.000000
   84        3.359805   1.000000
   85        3.472288   1.000000
   86        3.641170   1.000000
   87        3.696370   1.000000
   88        3.840428   1.000000
   89        4.062392   1.000000
   90        4.106328   1.000000
   91        4.266966   1.000000
   92        4.341533   1.000000
   93        4.598882   1.000000
   94        4.846283   1.000000
   95        5.114745   1.000000
   96        5.548506   1.000000
   97        7.004930   1.000000
   98        7.128278   1.056643
   99        7.576680   0.000000
  100        7.674360   0.000000
  101        7.773785   0.000000
  102        7.921519   0.000000
  103        8.048568   0.000000
  104        8.250577   0.000000
  105        8.568697   0.000000
  106        8.894883   0.000000
  107        9.104193   0.000000
  108        9.771048   0.000000
  109        9.920793   0.000000
  110       10.090695   0.000000
  111       10.347177   0.000000
  112       10.563366   0.000000
  113       10.765270   0.000000
  114       10.870646   0.000000
  115       10.959414   0.000000
  116       11.155336   0.000000
  117       11.303455   0.000000
  118       11.555556   0.000000
  119       11.655154   0.000000
  120       11.800718   0.000000
  121       11.943801   0.000000
  122       12.003501   0.000000
  123       12.117461   0.000000
  124       12.174527   0.000000
  125       12.373522   0.000000
  126       12.398172   0.000000
  127       12.529593   0.000000
  128       12.585928   0.000000
 
  0.2000000E+00 -0.1666667E+00  0.9090909E-01  0.6060606E-02
    1      -11.995136   1.000000
    2      -11.360254   1.000000
    3      -11.099325   1.000000
    4      -10.942853   1.000000
    5      -10.678290   1.000000
    6      -10.198112   1.000000
    7       -8.937481   1.000000
    8       -8.745299   1.000000
    9       -8.661309   1.000000
   10       -8.564123   1.000000
   11       -8.286004   1.000000
   12       -8.183797   1.000000
   13       -8.036314   1.000000
   14       -6.985119   1.000000
   15       -6.555709   1.000000
   16       -6.297664   1.000000
   17       -5.699765   1.000000
   18       -5.397671   1.000000
   19       -5.235747   1.000000
   20       -5.171724   1.000000
   21       -5.086910   1.000000
   22       -4.673102   1.000000
   23       -4.270663   1.000000
   24       -4.178261   1.000000
   25       -4.125237   1.000000
   26       -3.666325   1.000000
   27       -3.324209   1.000000
   28       -3.200811   1.000000
   29       -2.981105   1.000000
   30       -2.725801   1.000000
   31       -2.653750   1.000000
   32       -2.614587   1.000000
   33       -2.471301   1.000000
   34       -2.298492   1.000000
   35       -2.226525   1.000000
   36       -2.063720   1.000000
   37       -1.958907   1.000000
   38       -1.888202   1.000000
   39       -1.789457   1.000000
   40       -1.403848   1.000000
   41       -1.362341   1.000000
   42       -1.261494   1.000000
   43       -1.126074   1.000000
   44       -0.959264   1.000000
   45       -0.845404   1.000000
   46       -0.807247   1.000000
   47       -0.631262   1.000000
   48       -0.572103   1.000000
   49       -0.467854   1.000000
   50       -0.385463   1.000000
   51       -0.229069   1.000000
   52       -0.125298   1.000000
   53       -0.041511   1.000000
   54        0.227916   1.000000
   55        0.309866   1.000000
   56        0.437310   1.000000
   57        0.506434   1.000000
   58        0.708598   1.000000
   59        0.765993   1.000000
   60        0.804656   1.000000
   61        0.897446   1.000000
   62        0.992413   1.000000
   63        1.153405   1.000000
   64        1.256678   1.000000
   65        1.409987   1.000000
   66        1.473760   1.000000
   67        1.661643   1.000000
   68        1.786566   1.000000
   69        1.826980   1.000000
   70        2.004178   1.000000
   71        2.190076   1.000000
   72        2.296096   1.000000
   73        2.392589   1.000000
   74        2.479722   1.000000
   75        2.555957   1.000000
   76        2.682144   1.000000
   77        2.762658   1.000000
   78        2.849621   1.000000
   79        2.888019   1.000000
   80        3.009537   1.000000
   81        3.110518   1.000000
   82        3.178593   1.000000
   83        3.313792   1.000000
   84        3.370695   1.000000
   85        3.520406   1.000000
   86        3.590041   1.000000
   87        3.717394   1.000000
   88        3.786815   1.000000
   89        3.948451   1.000000
   90        4.077476   1.000000
   91        4.231231   1.000000
   92        4.400329   1.000000
   93        4.508797   1.000000
   94        4.756017   1.000000
   95        5.048114   1.000000
   96        5.557455   1.000000
   97        7.047298   1.000000
   98        7.209318   1.045725
   99        7.586605   0.000000
  100        7.673437   0.000000
  101        7.821533   0.000000
  102        7.962522   0.000000
  103        8.009266   0.000000
  104        8.080075   0.000000
  105        8.504569   0.000000
  106        8.925760   0.000000
  107        9.252796   0.000000
  108        9.870739   0.000000
  109        9.949417   0.000000
  110       10.039724   0.000000
  111       10.279310   0.000000
  112       10.542823   0.000000
  113       10.752770   0.000000
  114       10.882241   0.000000
  115       10.972469   0.000000
  116       11.089197   0.000000
  117       11.210324   0.000000
  118       11.595960   0.000000
  119       11.719953   0.000000
  120       11.848247   0.000000
  121       11.912190   0.000000
  122       11.979673   0.000000
  123       12.064501   0.000000
  124       12.166914   0.000000
  125       12.203740   0.000000
  126       12.351242   0.000000
  127       12.488570   0.000000
  128       12.609781   0.000000
 
  0.4000000E+00 -0.1666667E+00  0.9090909E-01  0.6060606E-02
    1      -11.982656   1.000000
    2      -11.368134   1.000000
    3      -11.141691   1.000000
    4      -10.938065   1.000000
    5      -10.670863   1.000000
    6      -10.161916   1.000000
    7       -8.885761   1.000000
    8       -8.738884   1.000000
    9       -8.685377   1.000000
   10       -8.567294   1.000000
   11       -8.303618   1.000000
   12       -8.209689   1.000000
   13       -8.051753   1.000000
   14       -6.965460   1.000000
   15       -6.543762   1.000000
   16       -6.271690   1.000000
   17       -5.712510   1.000000
   18       -5.391377   1.000000
   19       -5.293023   1.000000
   20       -5.251208   1.000000
   21       -5.097859   1.000000
   22       -4.658898   1.000000
   23       -4.283012   1.000000
   24       -4.188030   1.000000
   25       -4.155637   1.000000
   26       -3.674703   1.000000
   27       -3.214111   1.000000
   28       -3.161687   1.000000
   29       -2.850459   1.000000
   30       -2.725917   1.000000
   31       -2.657586   1.000000
   32       -2.526054   1.000000
   33       -2.439290   1.000000
   34       -2.215328   1.000000
   35       -2.141771   1.000000
   36       -2.022312   1.000000
   37       -1.985821   1.000000
   38       -1.892090   1.000000
   39       -1.773637   1.000000
   40       -1.457295   1.000000
   41       -1.417435   1.000000
   42       -1.351118   1.000000
   43       -1.224710   1.000000
   44       -1.160490   1.000000
   45       -0.916215   1.000000
   46       -0.832859   1.000000
   47       -0.674583   1.000000
   48       -0.532927   1.000000
   49       -0.476001   1.000000
   50       -0.338777   1.000000
   51       -0.138821   1.000000
   52       -0.026055   1.000000
   53        0.046841   1.000000
   54        0.082944   1.000000
   55        0.191004   1.000000
   56        0.332170   1.000000
   57        0.459583   1.000000
   58        0.509612   1.000000
   59        0.720464   1.000000
   60        0.825321   1.000000
   61        0.942980   1.000000
   62        1.048695   1.000000
   63        1.163943   1.000000
   64        1.304865   1.000000
   65        1.368477   1.000000
   66        1.582354   1.000000
   67        1.769920   1.000000
   68        1.833212   1.000000
   69        1.914309   1.000000
   70        2.062328   1.000000
   71        2.153570   1.000000
   72        2.300356   1.000000
   73        2.386647   1.000000
   74        2.526493   1.000000
   75        2.659202   1.000000
   76        2.699569   1.000000
   77        2.853797   1.000000
   78        2.904075   1.000000
   79        2.943984   1.000000
   80        2.995489   1.000000
   81        3.190374   1.000000
   82        3.269924   1.000000
   83        3.338194   1.000000
   84        3.384414   1.000000
   85        3.505003   1.000000
   86        3.539065   1.000000
   87        3.637712   1.000000
   88        3.705313   1.000000
   89        3.832610   1.000000
   90        4.000775   1.000000
   91        4.139030   1.000000
   92        4.307305   1.000000
   93        4.471583   1.000000
   94        4.686673   1.000000
   95        4.980264   1.000000
   96        5.571915   1.000000
   97        7.229621   1.000000
   98        7.302617   0.381012
   99        7.482734   0.000000
  100        7.689740   0.000000
  101        7.738963   0.000000
  102        7.833912   0.000000
  103        8.007872   0.000000
  104        8.181476   0.000000
  105        8.618175   0.000000
  106        8.988827   0.000000
  107        9.596221   0.000000
  108        9.827365   0.000000
  109       10.093575   0.000000
  110       10.196041   0.000000
  111       10.398595   0.000000
  112       10.555610   0.000000
  113       10.674034   0.000000
  114       10.804440   0.000000
  115       10.967445   0.000000
  116       11.047016   0.000000
  117       11.202053   0.000000
  118       11.450957   0.000000
  119       11.520800   0.000000
  120       11.617253   0.000000
  121       11.835835   0.000000
  122       11.881217   0.000000
  123       11.969933   0.000000
  124       12.058745   0.000000
  125       12.222455   0.000000
  126       12.275450   0.000000
  127       12.375658   0.000000
  128       12.662538   0.000000
 
 -0.4000000E+00 -0.1666667E+00  0.9090909E-01  0.6060606E-02
    1      -11.982348   1.000000
    2      -11.365705   1.000000
    3      -11.119691   1.000000
    4      -10.972028   1.000000
    5      -10.665993   1.000000
    6      -10.166999   1.000000
    7       -8.942184   1.000000
    8       -8.720691   1.000000
    9       -8.582870   1.000000
   10       -8.550716   1.000000
   11       -8.282578   1.000000
   12       -8.260109   1.000000
   13       -8.078930   1.000000
   14       -6.983178   1.000000
   15       -6.538141   1.000000
   16       -6.304992   1.000000
   17       -5.698125   1.000000
   18       -5.410630   1.000000
   19       -5.274449   1.000000
   20       -5.238280   1.000000
   21       -5.093398   1.000000
   22       -4.642668   1.000000
   23       -4.275592   1.000000
   24       -4.230608   1.000000
   25       -4.180314   1.000000
   26       -3.643513   1.000000
   27       -3.266689   1.000000
   28       -3.091122   1.000000
   29       -2.971543   1.000000
   30       -2.747841   1.000000
   31       -2.624401   1.000000
   32       -2.548668   1.000000
   33       -2.258416   1.000000
   34       -2.210299   1.000000
   35       -2.153731   1.000000
   36       -2.035431   1.000000
   37       -1.974172   1.000000
   38       -1.873933   1.000000
   39       -1.729171   1.000000
   40       -1.646570   1.000000
   41       -1.368404   1.000000
   42       -1.292520   1.000000
   43       -1.178027   1.000000
   44       -1.070927   1.000000
   45       -0.981091   1.000000
   46       -0.790847   1.000000
   47       -0.657116   1.000000
   48       -0.564788   1.000000
   49       -0.396330   1.000000
   50       -0.302478   1.000000
   51       -0.189202   1.000000
   52       -0.083227   1.000000
   53       -0.066656   1.000000
   54        0.042822   1.000000
   55        0.171931   1.000000
   56        0.276467   1.000000
   57        0.490299   1.000000
   58        0.538238   1.000000
   59        0.670600   1.000000
   60        0.811609   1.000000
   61        0.959366   1.000000
   62        1.086472   1.000000
   63        1.239416   1.000000
   64        1.333313   1.000000
   65        1.436024   1.000000
   66        1.559793   1.000000
   67        1.697299   1.000000
   68        1.837199   1.000000
   69        1.924591   1.000000
   70        2.019740   1.000000
   71        2.094763   1.000000
   72        2.305185   1.000000
   73        2.381701   1.000000
   74        2.476288   1.000000
   75        2.615553   1.000000
   76        2.684294   1.000000
   77        2.880986   1.000000
   78        2.920473   1.000000
   79        2.978768   1.000000
   80        3.066775   1.000000
   81        3.152960   1.000000
   82        3.233253   1.000000
   83        3.250004   1.000000
   84        3.337994   1.000000
   85        3.480369   1.000000
   86        3.643255   1.000000
   87        3.680168   1.000000
   88        3.738025   1.000000
   89        3.882045   1.000000
   90        4.014823   1.000000
   91        4.078372   1.000000
   92        4.266351   1.000000
   93        4.526536   1.000000
   94        4.707686   1.000000
   95        5.001800   1.000000
   96        5.573217   1.000000
   97        7.146001   1.000000
   98        7.374375   0.053358
   99        7.514019   0.000000
  100        7.591828   0.000000
  101        7.719532   0.000000
  102        7.807422   0.000000
  103        8.069539   0.000000
  104        8.278313   0.000000
  105        8.737798   0.000000
  106        9.001981   0.000000
  107        9.612801   0.000000
  108        9.816916   0.000000
  109       10.161462   0.000000
  110       10.238651   0.000000
  111       10.431005   0.000000
  112       10.623618   0.000000
  113       10.740796   0.000000
  114       10.800120   0.000000
  115       10.927476   0.000000
  116       11.033772   0.000000
  117       11.198083   0.000000
  118       11.385525   0.000000
  119       11.502035   0.000000
  120       11.591891   0.000000
  121       11.746832   0.000000
  122       11.846281   0.000000
  123       11.910017   0.000000
  124       11.987879   0.000000
  125       12.179788   0.000000
  126       12.349041   0.000000
  127       12.435985   0.000000
  128       12.586504   0.000000
 
 -0.2000000E+00 -0.1666667E+00  0.9090909E-01  0.6060606E-02
    1      -11.994709   1.000000
    2      -11.352020   1.000000
    3      -11.062858   1.000000
    4      -10.998652   1.000000
    5      -10.674881   1.000000
    6      -10.205962   1.000000
    7       -8.991246   1.000000
    8       -8.739293   1.000000
    9       -8.578941   1.000000
   10       -8.437646   1.000000
   11       -8.310895   1.000000
   12       -8.233665   1.000000
   13       -8.083013   1.000000
   14       -7.014775   1.000000
   15       -6.545987   1.000000
   16       -6.345760   1.000000
   17       -5.673352   1.000000
   18       -5.428704   1.000000
   19       -5.217548   1.000000
   20       -5.188477   1.000000
   21       -5.030804   1.000000
   22       -4.645369   1.000000
   23       -4.373050   1.000000
   24       -4.157968   1.000000
   25       -4.137817   1.000000
   26       -3.625596   1.000000
   27       -3.318309   1.000000
   28       -3.125133   1.000000
   29       -3.095306   1.000000
   30       -2.837920   1.000000
   31       -2.737562   1.000000
   32       -2.545251   1.000000
   33       -2.412748   1.000000
   34       -2.260086   1.000000
   35       -2.168707   1.000000
   36       -2.068412   1.000000
   37       -1.953021   1.000000
   38       -1.889132   1.000000
   39       -1.683940   1.000000
   40       -1.429099   1.000000
   41       -1.246189   1.000000
   42       -1.220426   1.000000
   43       -1.098201   1.000000
   44       -0.952756   1.000000
   45       -0.856420   1.000000
   46       -0.755855   1.000000
   47       -0.661071   1.000000
   48       -0.559337   1.000000
   49       -0.437305   1.000000
   50       -0.313618   1.000000
   51       -0.251457   1.000000
   52       -0.198374   1.000000
   53       -0.119281   1.000000
   54       -0.018742   1.000000
   55        0.143900   1.000000
   56        0.446113   1.000000
   57        0.537650   1.000000
   58        0.713302   1.000000
   59        0.747494   1.000000
   60        0.863282   1.000000
   61        0.890141   1.000000
   62        1.076377   1.000000
   63        1.160711   1.000000
   64        1.323514   1.000000
   65        1.456376   1.000000
   66        1.576233   1.000000
   67        1.669680   1.000000
   68        1.780029   1.000000
   69        1.856642   1.000000
   70        1.960872   1.000000
   71        2.109697   1.000000
   72        2.189534   1.000000
   73        2.293255   1.000000
   74        2.416305   1.000000
   75        2.471640   1.000000
   76        2.623036   1.000000
   77        2.764133   1.000000
   78        2.898213   1.000000
   79        2.958846   1.000000
   80        3.045001   1.000000
   81        3.139225   1.000000
   82        3.240851   1.000000
   83        3.258506   1.000000
   84        3.377777   1.000000
   85        3.470962   1.000000
   86        3.642107   1.000000
   87        3.701471   1.000000
   88        3.762731   1.000000
   89        4.041346   1.000000
   90        4.069545   1.000000
   91        4.203802   1.000000
   92        4.366880   1.000000
   93        4.574823   1.000000
   94        4.790462   1.000000
   95        5.079358   1.000000
   96        5.559276   1.000000
   97        7.049507   1.000000
   98        7.188002   1.079761
   99        7.553227   0.000000
  100        7.663034   0.000000
  101        7.737988   0.000000
  102        7.826436   0.000000
  103        8.130817   0.000000
  104        8.298730   0.000000
  105        8.711130   0.000000
  106        8.930163   0.000000
  107        9.276601   0.000000
  108        9.875721   0.000000
  109       10.003436   0.000000
  110       10.082833   0.000000
  111       10.400846   0.000000
  112       10.624730   0.000000
  113       10.728922   0.000000
  114       10.894342   0.000000
  115       11.018971   0.000000
  116       11.065747   0.000000
  117       11.245454   0.000000
  118       11.484517   0.000000
  119       11.682793   0.000000
  120       11.719835   0.000000
  121       11.859210   0.000000
  122       11.921006   0.000000
  123       12.025637   0.000000
  124       12.130778   0.000000
  125       12.192414   0.000000
  126       12.294714   0.000000
  127       12.495763   0.000000
  128       12.534286   0.000000
 
  0.0000000E+00  0.0000000E+00  0.1818182E+00  0.6060606E-02
    1      -11.942945   1.000000
    2      -11.250772   1.000000
    3      -11.012362   1.000000
    4      -10.960059   1.000000
    5      -10.718167   1.000000
    6      -10.256237   1.000000
    7       -9.103931   1.000000
    8       -8.834136   1.000000
    9       -8.659058   1.000000
   10       -8.478998   1.000000
   11       -8.276299   1.000000
   12       -8.236012   1.000000
   13       -8.074331   1.000000
   14       -7.012109   1.000000
   15       -6.686591   1.000000
   16       -6.319248   1.000000
   17       -5.586529   1.000000
   18       -5.529083   1.000000
   19       -5.359241   1.000000
   20       -5.175865   1.000000
   21       -4.954968   1.000000
   22       -4.669343   1.000000
   23       -4.435551   1.000000
   24       -4.210327   1.000000
   25       -4.010185   1.000000
   26       -3.697111   1.000000
   27       -3.331064   1.000000
   28       -3.121874   1.000000
   29       -3.065784   1.000000
   30       -2.879513   1.000000
   31       -2.739022   1.000000
   32       -2.635235   1.000000
   33       -2.418614   1.000000
   34       -2.383103   1.000000
   35       -2.298937   1.000000
   36       -2.248646   1.000000
   37       -2.005213   1.000000
   38       -1.947408   1.000000
   39       -1.549494   1.000000
   40       -1.341295   1.000000
   41       -1.134584   1.000000
   42       -1.025529   1.000000
   43       -0.968656   1.000000
   44       -0.893053   1.000000
   45       -0.856848   1.000000
   46       -0.707760   1.000000
   47       -0.512853   1.000000
   48       -0.408273   1.000000
   49       -0.323228   1.000000
   50       -0.222148   1.000000
   51       -0.143697   1.000000
   52        0.053177   1.000000
   53        0.117932   1.000000
   54        0.291965   1.000000
   55        0.414290   1.000000
   56        0.445379   1.000000
   57        0.590676   1.000000
   58        0.660079   1.000000
   59        0.714404   1.000000
   60        0.835538   1.000000
   61        0.859515   1.000000
   62        1.022555   1.000000
   63        1.078557   1.000000
   64        1.313717   1.000000
   65        1.407168   1.000000
   66        1.485727   1.000000
   67        1.585016   1.000000
   68        1.746353   1.000000
   69        1.888781   1.000000
   70        1.956800   1.000000
   71        2.010785   1.000000
   72        2.128059   1.000000
   73        2.240214   1.000000
   74        2.360508   1.000000
   75        2.572525   1.000000
   76        2.671783   1.000000
   77        2.717084   1.000000
   78        2.852483   1.000000
   79        2.996591   1.000000
   80        3.066648   1.000000
   81        3.191144   1.000000
   82        3.250879   1.000000
   83        3.289602   1.000000
   84        3.408873   1.000000
   85        3.463096   1.000000
   86        3.641823   1.000000
   87        3.774813   1.000000
   88        3.897215   1.000000
   89        4.090990   1.000000
   90        4.150221   1.000000
   91        4.227396   1.000000
   92        4.309069   1.000000
   93        4.560710   1.000000
   94        4.740686   1.000000
   95        4.854242   1.000000
   96        5.382595   1.000000
   97        7.049813   1.000000
   98        7.140250   1.105779
   99        7.527635   0.000000
  100        7.631669   0.000000
  101        7.691555   0.000000
  102        7.793036   0.000000
  103        8.006751   0.000000
  104        8.321835   0.000000
  105        8.675966   0.000000
  106        8.804265   0.000000
  107        9.018390   0.000000
  108        9.622346   0.000000
  109        9.766923   0.000000
  110        9.989890   0.000000
  111       10.256363   0.000000
  112       10.503065   0.000000
  113       10.682802   0.000000
  114       10.708926   0.000000
  115       10.863668   0.000000
  116       10.958059   0.000000
  117       11.340143   0.000000
  118       11.435351   0.000000
  119       11.559980   0.000000
  120       11.694339   0.000000
  121       11.821561   0.000000
  122       11.931618   0.000000
  123       12.047089   0.000000
  124       12.134390   0.000000
  125       12.246418   0.000000
  126       12.361309   0.000000
  127       12.550171   0.000000
  128       12.600298   0.000000
 
  0.2000000E+00  0.1387779E-16  0.1818182E+00  0.6060606E-02
    1      -11.942726   1.000000
    2      -11.253648   1.000000
    3      -11.031846   1.000000
    4      -10.933624   1.000000
    5      -10.724639   1.000000
    6      -10.251431   1.000000
    7       -9.070475   1.000000
    8       -8.815830   1.000000
    9       -8.635155   1.000000
   10       -8.576357   1.000000
   11       -8.359823   1.000000
   12       -8.206704   1.000000
   13       -8.034022   1.000000
   14       -6.962732   1.000000
   15       -6.691572   1.000000
   16       -6.253812   1.000000
   17       -5.610879   1.000000
   18       -5.547097   1.000000
   19       -5.295014   1.000000
   20       -5.214336   1.000000
   21       -5.080773   1.000000
   22       -4.681096   1.000000
   23       -4.477216   1.000000
   24       -4.229024   1.000000
   25       -3.995541   1.000000
   26       -3.707927   1.000000
   27       -3.310509   1.000000
   28       -3.150999   1.000000
   29       -2.962663   1.000000
   30       -2.821697   1.000000
   31       -2.717555   1.000000
   32       -2.527294   1.000000
   33       -2.396636   1.000000
   34       -2.331450   1.000000
   35       -2.224230   1.000000
   36       -2.101521   1.000000
   37       -1.986015   1.000000
   38       -1.729464   1.000000
   39       -1.615958   1.000000
   40       -1.556331   1.000000
   41       -1.395679   1.000000
   42       -1.269598   1.000000
   43       -1.077562   1.000000
   44       -0.887022   1.000000
   45       -0.833449   1.000000
   46       -0.658698   1.000000
   47       -0.550172   1.000000
   48       -0.495967   1.000000
   49       -0.378562   1.000000
   50       -0.228987   1.000000
   51       -0.152006   1.000000
   52       -0.052448   1.000000
   53        0.140785   1.000000
   54        0.228992   1.000000
   55        0.317200   1.000000
   56        0.440624   1.000000
   57        0.521430   1.000000
   58        0.678330   1.000000
   59        0.766665   1.000000
   60        0.860247   1.000000
   61        0.972581   1.000000
   62        1.153715   1.000000
   63        1.260818   1.000000
   64        1.308382   1.000000
   65        1.468951   1.000000
   66        1.529658   1.000000
   67        1.672191   1.000000
   68        1.750026   1.000000
   69        1.841504   1.000000
   70        1.940943   1.000000
   71        2.056710   1.000000
   72        2.266630   1.000000
   73        2.359616   1.000000
   74        2.494866   1.000000
   75        2.623747   1.000000
   76        2.714905   1.000000
   77        2.766238   1.000000
   78        2.831675   1.000000
   79        2.928691   1.000000
   80        2.979076   1.000000
   81        3.090762   1.000000
   82        3.108221   1.000000
   83        3.332568   1.000000
   84        3.396889   1.000000
   85        3.583409   1.000000
   86        3.612771   1.000000
   87        3.770670   1.000000
   88        3.825035   1.000000
   89        4.066546   1.000000
   90        4.175337   1.000000
   91        4.220262   1.000000
   92        4.265933   1.000000
   93        4.481304   1.000000
   94        4.651700   1.000000
   95        4.782983   1.000000
   96        5.374984   1.000000
   97        7.002250   1.000000
   98        7.155806   1.079905
   99        7.560062   0.000000
  100        7.644923   0.000000
  101        7.771814   0.000000
  102        7.873162   0.000000
  103        8.016580   0.000000
  104        8.244904   0.000000
  105        8.688563   0.000000
  106        8.747824   0.000000
  107        9.106033   0.000000
  108        9.669637   0.000000
  109        9.771085   0.000000
  110        9.942842   0.000000
  111       10.148677   0.000000
  112       10.464849   0.000000
  113       10.652827   0.000000
  114       10.722949   0.000000
  115       10.784095   0.000000
  116       10.959843   0.000000
  117       11.236026   0.000000
  118       11.378028   0.000000
  119       11.465669   0.000000
  120       11.621112   0.000000
  121       11.731514   0.000000
  122       11.879477   0.000000
  123       12.006469   0.000000
  124       12.119541   0.000000
  125       12.173891   0.000000
  126       12.303342   0.000000
  127       12.505587   0.000000
  128       12.650904   0.000000
 
  0.4000000E+00  0.2775558E-16  0.1818182E+00  0.6060606E-02
    1      -11.929750   1.000000
    2      -11.271842   1.000000
    3      -11.073748   1.000000
    4      -10.921949   1.000000
    5      -10.717079   1.000000
    6      -10.213636   1.000000
    7       -8.991675   1.000000
    8       -8.788668   1.000000
    9       -8.723861   1.000000
   10       -8.600098   1.000000
   11       -8.397257   1.000000
   12       -8.184454   1.000000
   13       -8.043110   1.000000
   14       -6.941812   1.000000
   15       -6.684689   1.000000
   16       -6.215412   1.000000
   17       -5.658134   1.000000
   18       -5.495155   1.000000
   19       -5.315976   1.000000
   20       -5.255595   1.000000
   21       -5.113383   1.000000
   22       -4.710996   1.000000
   23       -4.554516   1.000000
   24       -4.253189   1.000000
   25       -3.953193   1.000000
   26       -3.766847   1.000000
   27       -3.240888   1.000000
   28       -3.196364   1.000000
   29       -2.874667   1.000000
   30       -2.715262   1.000000
   31       -2.595717   1.000000
   32       -2.479632   1.000000
   33       -2.291256   1.000000
   34       -2.206729   1.000000
   35       -2.173012   1.000000
   36       -1.984468   1.000000
   37       -1.925829   1.000000
   38       -1.819751   1.000000
   39       -1.665294   1.000000
   40       -1.534753   1.000000
   41       -1.455247   1.000000
   42       -1.213690   1.000000
   43       -1.079318   1.000000
   44       -1.008388   1.000000
   45       -0.890233   1.000000
   46       -0.804138   1.000000
   47       -0.766478   1.000000
   48       -0.664509   1.000000
   49       -0.622095   1.000000
   50       -0.455102   1.000000
   51       -0.178180   1.000000
   52       -0.030012   1.000000
   53        0.178192   1.000000
   54        0.271105   1.000000
   55        0.304616   1.000000
   56        0.425929   1.000000
   57        0.541688   1.000000
   58        0.667656   1.000000
   59        0.816429   1.000000
   60        0.926617   1.000000
   61        1.021548   1.000000
   62        1.150599   1.000000
   63        1.298189   1.000000
   64        1.410298   1.000000
   65        1.486116   1.000000
   66        1.549566   1.000000
   67        1.727947   1.000000
   68        1.818424   1.000000
   69        1.967825   1.000000
   70        2.032439   1.000000
   71        2.189076   1.000000
   72        2.272953   1.000000
   73        2.514047   1.000000
   74        2.582141   1.000000
   75        2.676417   1.000000
   76        2.772743   1.000000
   77        2.802016   1.000000
   78        2.840268   1.000000
   79        2.937725   1.000000
   80        2.989831   1.000000
   81        3.044684   1.000000
   82        3.058597   1.000000
   83        3.316914   1.000000
   84        3.443055   1.000000
   85        3.493306   1.000000
   86        3.557321   1.000000
   87        3.696250   1.000000
   88        3.783840   1.000000
   89        3.966533   1.000000
   90        4.114414   1.000000
   91        4.147357   1.000000
   92        4.228915   1.000000
   93        4.359663   1.000000
   94        4.569469   1.000000
   95        4.696831   1.000000
   96        5.395351   1.000000
   97        7.082928   1.000000
   98        7.307683   0.652059
   99        7.484265   0.000000
  100        7.629953   0.000000
  101        7.838760   0.000000
  102        7.912490   0.000000
  103        8.010964   0.000000
  104        8.170484   0.000000
  105        8.683774   0.000000
  106        8.746857   0.000000
  107        9.442246   0.000000
  108        9.737485   0.000000
  109        9.847961   0.000000
  110        9.931437   0.000000
  111       10.223861   0.000000
  112       10.365288   0.000000
  113       10.571789   0.000000
  114       10.689221   0.000000
  115       10.901882   0.000000
  116       10.980134   0.000000
  117       11.071906   0.000000
  118       11.312747   0.000000
  119       11.357716   0.000000
  120       11.550717   0.000000
  121       11.639675   0.000000
  122       11.817346   0.000000
  123       11.863231   0.000000
  124       12.032030   0.000000
  125       12.122861   0.000000
  126       12.176874   0.000000
  127       12.357486   0.000000
  128       12.676510   0.000000
 
 -0.4000000E+00 -0.2775558E-16  0.1818182E+00  0.6060606E-02
    1      -11.921478   1.000000
    2      -11.284063   1.000000
    3      -11.078978   1.000000
    4      -10.938633   1.000000
    5      -10.705466   1.000000
    6      -10.195900   1.000000
    7       -8.990404   1.000000
    8       -8.786271   1.000000
    9       -8.753969   1.000000
   10       -8.583458   1.000000
   11       -8.319062   1.000000
   12       -8.192887   1.000000
   13       -8.087431   1.000000
   14       -6.976102   1.000000
   15       -6.677950   1.000000
   16       -6.270298   1.000000
   17       -5.661299   1.000000
   18       -5.449435   1.000000
   19       -5.319733   1.000000
   20       -5.245350   1.000000
   21       -5.071297   1.000000
   22       -4.720885   1.000000
   23       -4.563298   1.000000
   24       -4.245315   1.000000
   25       -3.948612   1.000000
   26       -3.768896   1.000000
   27       -3.253236   1.000000
   28       -3.201238   1.000000
   29       -2.882212   1.000000
   30       -2.792228   1.000000
   31       -2.598310   1.000000
   32       -2.427335   1.000000
   33       -2.337071   1.000000
   34       -2.274618   1.000000
   35       -2.081348   1.000000
   36       -2.033856   1.000000
   37       -1.874182   1.000000
   38       -1.814198   1.000000
   39       -1.624822   1.000000
   40       -1.481284   1.000000
   41       -1.423544   1.000000
   42       -1.260213   1.000000
   43       -1.155725   1.000000
   44       -1.062192   1.000000
   45       -0.961047   1.000000
   46       -0.822264   1.000000
   47       -0.687407   1.000000
   48       -0.497186   1.000000
   49       -0.449160   1.000000
   50       -0.326077   1.000000
   51       -0.158533   1.000000
   52        0.009628   1.000000
   53        0.127199   1.000000
   54        0.159726   1.000000
   55        0.275941   1.000000
   56        0.379446   1.000000
   57        0.455998   1.000000
   58        0.517104   1.000000
   59        0.729958   1.000000
   60        0.912356   1.000000
   61        1.056457   1.000000
   62        1.140220   1.000000
   63        1.245612   1.000000
   64        1.426359   1.000000
   65        1.526323   1.000000
   66        1.616189   1.000000
   67        1.761917   1.000000
   68        1.897834   1.000000
   69        1.963030   1.000000
   70        2.036460   1.000000
   71        2.110411   1.000000
   72        2.359386   1.000000
   73        2.432832   1.000000
   74        2.567743   1.000000
   75        2.600147   1.000000
   76        2.753670   1.000000
   77        2.798994   1.000000
   78        2.888365   1.000000
   79        2.956782   1.000000
   80        2.996095   1.000000
   81        3.119059   1.000000
   82        3.178175   1.000000
   83        3.230189   1.000000
   84        3.312255   1.000000
   85        3.438639   1.000000
   86        3.484345   1.000000
   87        3.798158   1.000000
   88        3.882351   1.000000
   89        3.976074   1.000000
   90        4.038686   1.000000
   91        4.091803   1.000000
   92        4.214647   1.000000
   93        4.387085   1.000000
   94        4.613112   1.000000
   95        4.707051   1.000000
   96        5.412659   1.000000
   97        7.227312   1.000000
   98        7.295563   0.459694
   99        7.500852   0.000000
  100        7.637125   0.000000
  101        7.697797   0.000000
  102        7.834663   0.000000
  103        7.992959   0.000000
  104        8.260978   0.000000
  105        8.679800   0.000000
  106        8.769083   0.000000
  107        9.547517   0.000000
  108        9.762606   0.000000
  109        9.886272   0.000000
  110       10.101184   0.000000
  111       10.204242   0.000000
  112       10.423294   0.000000
  113       10.588724   0.000000
  114       10.705257   0.000000
  115       10.857588   0.000000
  116       11.027650   0.000000
  117       11.101899   0.000000
  118       11.281102   0.000000
  119       11.374166   0.000000
  120       11.462441   0.000000
  121       11.737514   0.000000
  122       11.785262   0.000000
  123       11.894540   0.000000
  124       12.003666   0.000000
  125       12.109760   0.000000
  126       12.252475   0.000000
  127       12.342303   0.000000
  128       12.628046   0.000000
 
 -0.2000000E+00 -0.1387779E-16  0.1818182E+00  0.6060606E-02
    1      -11.930106   1.000000
    2      -11.270367   1.000000
    3      -11.039211   1.000000
    4      -10.966957   1.000000
    5      -10.704528   1.000000
    6      -10.221053   1.000000
    7       -9.069741   1.000000
    8       -8.817653   1.000000
    9       -8.693051   1.000000
   10       -8.518203   1.000000
   11       -8.235499   1.000000
   12       -8.195966   1.000000
   13       -8.141461   1.000000
   14       -7.021602   1.000000
   15       -6.678268   1.000000
   16       -6.327595   1.000000
   17       -5.621339   1.000000
   18       -5.474949   1.000000
   19       -5.354270   1.000000
   20       -5.192771   1.000000
   21       -4.970641   1.000000
   22       -4.697813   1.000000
   23       -4.479903   1.000000
   24       -4.227470   1.000000
   25       -3.984332   1.000000
   26       -3.749136   1.000000
   27       -3.234303   1.000000
   28       -3.158471   1.000000
   29       -3.043551   1.000000
   30       -2.856262   1.000000
   31       -2.731555   1.000000
   32       -2.550926   1.000000
   33       -2.415921   1.000000
   34       -2.361733   1.000000
   35       -2.180697   1.000000
   36       -2.062877   1.000000
   37       -1.974168   1.000000
   38       -1.914868   1.000000
   39       -1.728524   1.000000
   40       -1.380994   1.000000
   41       -1.282550   1.000000
   42       -1.106018   1.000000
   43       -0.960927   1.000000
   44       -0.913677   1.000000
   45       -0.823796   1.000000
   46       -0.682217   1.000000
   47       -0.580532   1.000000
   48       -0.391445   1.000000
   49       -0.260814   1.000000
   50       -0.182757   1.000000
   51       -0.139960   1.000000
   52       -0.062920   1.000000
   53        0.071942   1.000000
   54        0.205058   1.000000
   55        0.244570   1.000000
   56        0.341133   1.000000
   57        0.550405   1.000000
   58        0.625190   1.000000
   59        0.715495   1.000000
   60        0.817559   1.000000
   61        0.866584   1.000000
   62        1.026680   1.000000
   63        1.210849   1.000000
   64        1.355660   1.000000
   65        1.445241   1.000000
   66        1.564587   1.000000
   67        1.704433   1.000000
   68        1.763784   1.000000
   69        1.903649   1.000000
   70        1.998616   1.000000
   71        2.110139   1.000000
   72        2.251580   1.000000
   73        2.273440   1.000000
   74        2.412871   1.000000
   75        2.599728   1.000000
   76        2.685454   1.000000
   77        2.783021   1.000000
   78        2.866214   1.000000
   79        2.948422   1.000000
   80        3.075137   1.000000
   81        3.157314   1.000000
   82        3.231619   1.000000
   83        3.257066   1.000000
   84        3.348775   1.000000
   85        3.433304   1.000000
   86        3.602146   1.000000
   87        3.683812   1.000000
   88        3.928744   1.000000
   89        4.023873   1.000000
   90        4.103251   1.000000
   91        4.166000   1.000000
   92        4.350552   1.000000
   93        4.503386   1.000000
   94        4.693601   1.000000
   95        4.799326   1.000000
   96        5.405598   1.000000
   97        7.118148   1.000000
   98        7.316912   0.340097
   99        7.499208   0.000000
  100        7.540786   0.000000
  101        7.688489   0.000000
  102        7.786035   0.000000
  103        8.024149   0.000000
  104        8.304868   0.000000
  105        8.671307   0.000000
  106        8.798623   0.000000
  107        9.253040   0.000000
  108        9.779114   0.000000
  109        9.846209   0.000000
  110        9.944012   0.000000
  111       10.261126   0.000000
  112       10.468237   0.000000
  113       10.654098   0.000000
  114       10.792066   0.000000
  115       10.901195   0.000000
  116       11.021098   0.000000
  117       11.210801   0.000000
  118       11.378054   0.000000
  119       11.521425   0.000000
  120       11.675175   0.000000
  121       11.814732   0.000000
  122       11.877486   0.000000
  123       11.916166   0.000000
  124       12.092360   0.000000
  125       12.201582   0.000000
  126       12.352692   0.000000
  127       12.474990   0.000000
  128       12.621782   0.000000
 
  0.0000000E+00  0.1666667E+00  0.1818182E+00  0.6060606E-02
    1      -11.948861   1.000000
    2      -11.220610   1.000000
    3      -11.019085   1.000000
    4      -10.964937   1.000000
    5      -10.739341   1.000000
    6      -10.249435   1.000000
    7       -9.052918   1.000000
    8       -8.857884   1.000000
    9       -8.702317   1.000000
   10       -8.479201   1.000000
   11       -8.340263   1.000000
   12       -8.164786   1.000000
   13       -8.069182   1.000000
   14       -7.022970   1.000000
   15       -6.672353   1.000000
   16       -6.298655   1.000000
   17       -5.624992   1.000000
   18       -5.549264   1.000000
   19       -5.301199   1.000000
   20       -5.085623   1.000000
   21       -5.019816   1.000000
   22       -4.663543   1.000000
   23       -4.470479   1.000000
   24       -4.334403   1.000000
   25       -3.995359   1.000000
   26       -3.590647   1.000000
   27       -3.374625   1.000000
   28       -3.195319   1.000000
   29       -3.047484   1.000000
   30       -2.878108   1.000000
   31       -2.778943   1.000000
   32       -2.570818   1.000000
   33       -2.378954   1.000000
   34       -2.266949   1.000000
   35       -2.226713   1.000000
   36       -2.154320   1.000000
   37       -1.959264   1.000000
   38       -1.801632   1.000000
   39       -1.694603   1.000000
   40       -1.431696   1.000000
   41       -1.288257   1.000000
   42       -1.109414   1.000000
   43       -1.046600   1.000000
   44       -0.905990   1.000000
   45       -0.856512   1.000000
   46       -0.676222   1.000000
   47       -0.526785   1.000000
   48       -0.431168   1.000000
   49       -0.350553   1.000000
   50       -0.282102   1.000000
   51       -0.094024   1.000000
   52       -0.010949   1.000000
   53        0.052214   1.000000
   54        0.240619   1.000000
   55        0.351806   1.000000
   56        0.475443   1.000000
   57        0.654288   1.000000
   58        0.696613   1.000000
   59        0.771193   1.000000
   60        0.884902   1.000000
   61        0.982076   1.000000
   62        1.019952   1.000000
   63        1.069633   1.000000
   64        1.265664   1.000000
   65        1.399133   1.000000
   66        1.494379   1.000000
   67        1.697161   1.000000
   68        1.767249   1.000000
   69        1.838912   1.000000
   70        1.926325   1.000000
   71        2.077028   1.000000
   72        2.181529   1.000000
   73        2.256972   1.000000
   74        2.339067   1.000000
   75        2.567265   1.000000
   76        2.673115   1.000000
   77        2.761589   1.000000
   78        2.864139   1.000000
   79        2.945395   1.000000
   80        3.036869   1.000000
   81        3.149571   1.000000
   82        3.226002   1.000000
   83        3.310971   1.000000
   84        3.407319   1.000000
   85        3.579340   1.000000
   86        3.688540   1.000000
   87        3.799454   1.000000
   88        3.917376   1.000000
   89        4.020596   1.000000
   90        4.144765   1.000000
   91        4.229433   1.000000
   92        4.395366   1.000000
   93        4.468417   1.000000
   94        4.690184   1.000000
   95        4.874203   1.000000
   96        5.298754   1.000000
   97        6.984002   1.000000
   98        7.115521   1.072622
   99        7.575126   0.000000
  100        7.633803   0.000000
  101        7.733136   0.000000
  102        7.869224   0.000000
  103        7.994138   0.000000
  104        8.304427   0.000000
  105        8.677159   0.000000
  106        8.816402   0.000000
  107        9.024268   0.000000
  108        9.561965   0.000000
  109        9.812928   0.000000
  110       10.005703   0.000000
  111       10.241618   0.000000
  112       10.450709   0.000000
  113       10.664054   0.000000
  114       10.731394   0.000000
  115       10.776894   0.000000
  116       10.985343   0.000000
  117       11.227522   0.000000
  118       11.361826   0.000000
  119       11.530412   0.000000
  120       11.706122   0.000000
  121       11.731622   0.000000
  122       11.932085   0.000000
  123       12.048049   0.000000
  124       12.053335   0.000000
  125       12.168660   0.000000
  126       12.212433   0.000000
  127       12.502498   0.000000
  128       12.625054   0.000000
 
  0.2000000E+00  0.1666667E+00  0.1818182E+00  0.6060606E-02
    1      -11.952735   1.000000
    2      -11.210964   1.000000
    3      -11.007454   1.000000
    4      -10.966344   1.000000
    5      -10.751013   1.000000
    6      -10.258329   1.000000
    7       -9.034341   1.000000
    8       -8.859509   1.000000
    9       -8.679269   1.000000
   10       -8.550159   1.000000
   11       -8.300324   1.000000
   12       -8.255762   1.000000
   13       -7.998124   1.000000
   14       -6.964534   1.000000
   15       -6.679778   1.000000
   16       -6.254634   1.000000
   17       -5.637745   1.000000
   18       -5.577445   1.000000
   19       -5.286058   1.000000
   20       -5.142155   1.000000
   21       -5.108219   1.000000
   22       -4.666044   1.000000
   23       -4.470966   1.000000
   24       -4.338709   1.000000
   25       -4.020147   1.000000
   26       -3.593481   1.000000
   27       -3.321284   1.000000
   28       -3.172867   1.000000
   29       -2.998495   1.000000
   30       -2.875751   1.000000
   31       -2.731844   1.000000
   32       -2.580119   1.000000
   33       -2.430159   1.000000
   34       -2.263752   1.000000
   35       -2.169407   1.000000
   36       -2.099866   1.000000
   37       -1.970930   1.000000
   38       -1.794056   1.000000
   39       -1.500564   1.000000
   40       -1.415238   1.000000
   41       -1.235405   1.000000
   42       -1.106039   1.000000
   43       -0.996723   1.000000
   44       -0.882939   1.000000
   45       -0.843426   1.000000
   46       -0.739198   1.000000
   47       -0.645443   1.000000
   48       -0.525917   1.000000
   49       -0.398448   1.000000
   50       -0.273164   1.000000
   51       -0.181458   1.000000
   52       -0.115468   1.000000
   53        0.035956   1.000000
   54        0.162905   1.000000
   55        0.292554   1.000000
   56        0.333932   1.000000
   57        0.469179   1.000000
   58        0.658612   1.000000
   59        0.708820   1.000000
   60        0.818417   1.000000
   61        0.994271   1.000000
   62        1.101898   1.000000
   63        1.227358   1.000000
   64        1.329353   1.000000
   65        1.453257   1.000000
   66        1.550542   1.000000
   67        1.672864   1.000000
   68        1.786584   1.000000
   69        1.887393   1.000000
   70        1.966740   1.000000
   71        2.048283   1.000000
   72        2.215193   1.000000
   73        2.340036   1.000000
   74        2.498428   1.000000
   75        2.614747   1.000000
   76        2.661480   1.000000
   77        2.778562   1.000000
   78        2.887689   1.000000
   79        2.953258   1.000000
   80        3.069954   1.000000
   81        3.190075   1.000000
   82        3.261988   1.000000
   83        3.345577   1.000000
   84        3.459606   1.000000
   85        3.564097   1.000000
   86        3.654713   1.000000
   87        3.881539   1.000000
   88        3.935811   1.000000
   89        4.066965   1.000000
   90        4.135988   1.000000
   91        4.206183   1.000000
   92        4.270992   1.000000
   93        4.405001   1.000000
   94        4.575933   1.000000
   95        4.813605   1.000000
   96        5.288582   1.000000
   97        6.952826   1.000000
   98        7.039304   1.000000
   99        7.539708   0.000000
  100        7.695133   0.000000
  101        7.769556   0.000000
  102        7.901860   0.000000
  103        8.014243   0.000000
  104        8.314912   0.000000
  105        8.721957   0.000000
  106        8.823526   0.000000
  107        9.066095   0.000000
  108        9.601639   0.000000
  109        9.783231   0.000000
  110        9.960469   0.000000
  111       10.125831   0.000000
  112       10.458374   0.000000
  113       10.607979   0.000000
  114       10.700643   0.000000
  115       10.724821   0.000000
  116       10.942275   0.000000
  117       11.128684   0.000000
  118       11.391189   0.000000
  119       11.471510   0.000000
  120       11.553389   0.000000
  121       11.653410   0.000000
  122       11.740825   0.000000
  123       11.924989   0.000000
  124       12.011371   0.000000
  125       12.101806   0.000000
  126       12.304256   0.000000
  127       12.567615   0.000000
  128       12.601708   0.000000
 
  0.4000000E+00  0.1666667E+00  0.1818182E+00  0.6060606E-02
    1      -11.940991   1.000000
    2      -11.238658   1.000000
    3      -11.009624   1.000000
    4      -10.980889   1.000000
    5      -10.749511   1.000000
    6      -10.216894   1.000000
    7       -8.975288   1.000000
    8       -8.843563   1.000000
    9       -8.708163   1.000000
   10       -8.568016   1.000000
   11       -8.372056   1.000000
   12       -8.271995   1.000000
   13       -7.967813   1.000000
   14       -6.933421   1.000000
   15       -6.674418   1.000000
   16       -6.219057   1.000000
   17       -5.682535   1.000000
   18       -5.536006   1.000000
   19       -5.380516   1.000000
   20       -5.161572   1.000000
   21       -5.120219   1.000000
   22       -4.677602   1.000000
   23       -4.510870   1.000000
   24       -4.373395   1.000000
   25       -3.985931   1.000000
   26       -3.637120   1.000000
   27       -3.260312   1.000000
   28       -3.143276   1.000000
   29       -3.016578   1.000000
   30       -2.781987   1.000000
   31       -2.579751   1.000000
   32       -2.467915   1.000000
   33       -2.370341   1.000000
   34       -2.270569   1.000000
   35       -2.148620   1.000000
   36       -1.977444   1.000000
   37       -1.856453   1.000000
   38       -1.805087   1.000000
   39       -1.569355   1.000000
   40       -1.424641   1.000000
   41       -1.332030   1.000000
   42       -1.195887   1.000000
   43       -1.102548   1.000000
   44       -1.010733   1.000000
   45       -0.909319   1.000000
   46       -0.709164   1.000000
   47       -0.647881   1.000000
   48       -0.603546   1.000000
   49       -0.485420   1.000000
   50       -0.407618   1.000000
   51       -0.284353   1.000000
   52       -0.068921   1.000000
   53        0.033353   1.000000
   54        0.160801   1.000000
   55        0.232283   1.000000
   56        0.294368   1.000000
   57        0.389585   1.000000
   58        0.672745   1.000000
   59        0.773242   1.000000
   60        0.921869   1.000000
   61        0.980575   1.000000
   62        1.124370   1.000000
   63        1.192634   1.000000
   64        1.337483   1.000000
   65        1.447887   1.000000
   66        1.562306   1.000000
   67        1.702610   1.000000
   68        1.821988   1.000000
   69        1.873966   1.000000
   70        2.071200   1.000000
   71        2.150383   1.000000
   72        2.286921   1.000000
   73        2.519134   1.000000
   74        2.617962   1.000000
   75        2.716635   1.000000
   76        2.798978   1.000000
   77        2.815429   1.000000
   78        2.911304   1.000000
   79        2.942956   1.000000
   80        3.072286   1.000000
   81        3.146217   1.000000
   82        3.225535   1.000000
   83        3.420963   1.000000
   84        3.493419   1.000000
   85        3.530643   1.000000
   86        3.671253   1.000000
   87        3.749389   1.000000
   88        3.894756   1.000000
   89        3.964272   1.000000
   90        4.029834   1.000000
   91        4.124307   1.000000
   92        4.193243   1.000000
   93        4.342842   1.000000
   94        4.476026   1.000000
   95        4.726008   1.000000
   96        5.298599   1.000000
   97        7.040326   1.000000
   98        7.169214   1.001129
   99        7.402054   0.000000
  100        7.651960   0.000000
  101        7.866431   0.000000
  102        7.931051   0.000000
  103        8.076366   0.000000
  104        8.208077   0.000000
  105        8.749772   0.000000
  106        8.819443   0.000000
  107        9.365651   0.000000
  108        9.731355   0.000000
  109        9.831724   0.000000
  110        9.897752   0.000000
  111       10.182327   0.000000
  112       10.455783   0.000000
  113       10.548944   0.000000
  114       10.660568   0.000000
  115       10.773240   0.000000
  116       11.010436   0.000000
  117       11.050658   0.000000
  118       11.297796   0.000000
  119       11.362116   0.000000
  120       11.417839   0.000000
  121       11.537740   0.000000
  122       11.675640   0.000000
  123       11.811712   0.000000
  124       11.904356   0.000000
  125       12.025676   0.000000
  126       12.269029   0.000000
  127       12.440892   0.000000
  128       12.635299   0.000000
 
 -0.4000000E+00  0.1666667E+00  0.1818182E+00  0.6060606E-02
    1      -11.929041   1.000000
    2      -11.265971   1.000000
    3      -11.035462   1.000000
    4      -10.971207   1.000000
    5      -10.739242   1.000000
    6      -10.184718   1.000000
    7       -8.953402   1.000000
    8       -8.834841   1.000000
    9       -8.746183   1.000000
   10       -8.537889   1.000000
   11       -8.356253   1.000000
   12       -8.300121   1.000000
   13       -7.986127   1.000000
   14       -6.971240   1.000000
   15       -6.667030   1.000000
   16       -6.255919   1.000000
   17       -5.694145   1.000000
   18       -5.470624   1.000000
   19       -5.356640   1.000000
   20       -5.151100   1.000000
   21       -5.103477   1.000000
   22       -4.683250   1.000000
   23       -4.563693   1.000000
   24       -4.384142   1.000000
   25       -3.922181   1.000000
   26       -3.636166   1.000000
   27       -3.302807   1.000000
   28       -3.152849   1.000000
   29       -2.990834   1.000000
   30       -2.724629   1.000000
   31       -2.535516   1.000000
   32       -2.435478   1.000000
   33       -2.287591   1.000000
   34       -2.259060   1.000000
   35       -2.178368   1.000000
   36       -2.059598   1.000000
   37       -1.940245   1.000000
   38       -1.847604   1.000000
   39       -1.541548   1.000000
   40       -1.469672   1.000000
   41       -1.365745   1.000000
   42       -1.270568   1.000000
   43       -1.227836   1.000000
   44       -1.019213   1.000000
   45       -0.919397   1.000000
   46       -0.728843   1.000000
   47       -0.623481   1.000000
   48       -0.607344   1.000000
   49       -0.407557   1.000000
   50       -0.296892   1.000000
   51       -0.274244   1.000000
   52       -0.020131   1.000000
   53        0.001038   1.000000
   54        0.065927   1.000000
   55        0.238892   1.000000
   56        0.425913   1.000000
   57        0.486029   1.000000
   58        0.603283   1.000000
   59        0.804432   1.000000
   60        0.949096   1.000000
   61        1.004599   1.000000
   62        1.138098   1.000000
   63        1.257959   1.000000
   64        1.305095   1.000000
   65        1.475882   1.000000
   66        1.588392   1.000000
   67        1.705009   1.000000
   68        1.812296   1.000000
   69        1.953857   1.000000
   70        2.023897   1.000000
   71        2.243002   1.000000
   72        2.348181   1.000000
   73        2.470503   1.000000
   74        2.551302   1.000000
   75        2.652373   1.000000
   76        2.725316   1.000000
   77        2.814912   1.000000
   78        2.880079   1.000000
   79        2.943499   1.000000
   80        3.060915   1.000000
   81        3.114111   1.000000
   82        3.220304   1.000000
   83        3.354694   1.000000
   84        3.425166   1.000000
   85        3.431871   1.000000
   86        3.676261   1.000000
   87        3.823671   1.000000
   88        3.855126   1.000000
   89        3.922477   1.000000
   90        4.001784   1.000000
   91        4.069781   1.000000
   92        4.235717   1.000000
   93        4.362951   1.000000
   94        4.527263   1.000000
   95        4.723045   1.000000
   96        5.312930   1.000000
   97        7.150194   1.000000
   98        7.285167   0.699278
   99        7.472888   0.000000
  100        7.585615   0.000000
  101        7.751192   0.000000
  102        7.917207   0.000000
  103        8.043995   0.000000
  104        8.204820   0.000000
  105        8.696099   0.000000
  106        8.820656   0.000000
  107        9.532794   0.000000
  108        9.788888   0.000000
  109        9.891740   0.000000
  110       10.028218   0.000000
  111       10.224850   0.000000
  112       10.378327   0.000000
  113       10.613797   0.000000
  114       10.668278   0.000000
  115       10.808417   0.000000
  116       10.977081   0.000000
  117       11.101804   0.000000
  118       11.304404   0.000000
  119       11.324502   0.000000
  120       11.451977   0.000000
  121       11.674776   0.000000
  122       11.743467   0.000000
  123       11.833998   0.000000
  124       11.892285   0.000000
  125       12.009825   0.000000
  126       12.219537   0.000000
  127       12.431577   0.000000
  128       12.609375   0.000000
 
 -0.2000000E+00  0.1666667E+00  0.1818182E+00  0.6060606E-02
    1      -11.934270   1.000000
    2      -11.254527   1.000000
    3      -11.033759   1.000000
    4      -10.970683   1.000000
    5      -10.732284   1.000000
    6      -10.203699   1.000000
    7       -9.014454   1.000000
    8       -8.836164   1.000000
    9       -8.733505   1.000000
   10       -8.474962   1.000000
   11       -8.374539   1.000000
   12       -8.209205   1.000000
   13       -8.046809   1.000000
   14       -7.026363   1.000000
   15       -6.664983   1.000000
   16       -6.301743   1.000000
   17       -5.664925   1.000000
   18       -5.484820   1.000000
   19       -5.299294   1.000000
   20       -5.103719   1.000000
   21       -5.049212   1.000000
   22       -4.676116   1.000000
   23       -4.525869   1.000000
   24       -4.367389   1.000000
   25       -3.933161   1.000000
   26       -3.606370   1.000000
   27       -3.340810   1.000000
   28       -3.166337   1.000000
   29       -3.027140   1.000000
   30       -2.910833   1.000000
   31       -2.601015   1.000000
   32       -2.457517   1.000000
   33       -2.389935   1.000000
   34       -2.256890   1.000000
   35       -2.160594   1.000000
   36       -2.044191   1.000000
   37       -1.971585   1.000000
   38       -1.819072   1.000000
   39       -1.743834   1.000000
   40       -1.604521   1.000000
   41       -1.323320   1.000000
   42       -1.215397   1.000000
   43       -1.115808   1.000000
   44       -1.026991   1.000000
   45       -0.918618   1.000000
   46       -0.715018   1.000000
   47       -0.483831   1.000000
   48       -0.391161   1.000000
   49       -0.292796   1.000000
   50       -0.227058   1.000000
   51       -0.133335   1.000000
   52       -0.029118   1.000000
   53        0.062789   1.000000
   54        0.220976   1.000000
   55        0.290391   1.000000
   56        0.325801   1.000000
   57        0.588328   1.000000
   58        0.657907   1.000000
   59        0.778560   1.000000
   60        0.901014   1.000000
   61        0.998819   1.000000
   62        1.117613   1.000000
   63        1.158703   1.000000
   64        1.272579   1.000000
   65        1.473217   1.000000
   66        1.610270   1.000000
   67        1.680554   1.000000
   68        1.777294   1.000000
   69        1.861941   1.000000
   70        1.979800   1.000000
   71        2.157783   1.000000
   72        2.273118   1.000000
   73        2.363595   1.000000
   74        2.457882   1.000000
   75        2.581502   1.000000
   76        2.662402   1.000000
   77        2.743332   1.000000
   78        2.817394   1.000000
   79        2.935128   1.000000
   80        3.049006   1.000000
   81        3.154979   1.000000
   82        3.221633   1.000000
   83        3.307325   1.000000
   84        3.330498   1.000000
   85        3.485020   1.000000
   86        3.532114   1.000000
   87        3.829050   1.000000
   88        3.882797   1.000000
   89        3.952350   1.000000
   90        4.113931   1.000000
   91        4.189893   1.000000
   92        4.395588   1.000000
   93        4.434490   1.000000
   94        4.639312   1.000000
   95        4.813202   1.000000
   96        5.313673   1.000000
   97        7.045797   1.000000
   98        7.363290   0.082484
   99        7.550174   0.000000
  100        7.586056   0.000000
  101        7.660245   0.000000
  102        7.876238   0.000000
  103        8.001434   0.000000
  104        8.246475   0.000000
  105        8.636149   0.000000
  106        8.819121   0.000000
  107        9.275941   0.000000
  108        9.731733   0.000000
  109        9.899180   0.000000
  110        9.968316   0.000000
  111       10.248450   0.000000
  112       10.412226   0.000000
  113       10.693733   0.000000
  114       10.809463   0.000000
  115       10.882673   0.000000
  116       10.960787   0.000000
  117       11.150737   0.000000
  118       11.280988   0.000000
  119       11.532080   0.000000
  120       11.615998   0.000000
  121       11.795184   0.000000
  122       11.832425   0.000000
  123       11.921370   0.000000
  124       12.002993   0.000000
  125       12.129425   0.000000
  126       12.268916   0.000000
  127       12.421440   0.000000
  128       12.645475   0.000000
 
  0.0000000E+00  0.3333333E+00  0.1818182E+00  0.6060606E-02
    1      -11.933898   1.000000
    2      -11.271061   1.000000
    3      -11.054487   1.000000
    4      -10.916745   1.000000
    5      -10.729244   1.000000
    6      -10.231258   1.000000
    7       -8.949122   1.000000
    8       -8.882923   1.000000
    9       -8.731765   1.000000
   10       -8.539209   1.000000
   11       -8.364526   1.000000
   12       -8.167731   1.000000
   13       -8.044841   1.000000
   14       -7.058721   1.000000
   15       -6.649337   1.000000
   16       -6.248899   1.000000
   17       -5.719614   1.000000
   18       -5.548266   1.000000
   19       -5.177592   1.000000
   20       -5.058560   1.000000
   21       -4.998013   1.000000
   22       -4.728873   1.000000
   23       -4.532891   1.000000
   24       -4.484676   1.000000
   25       -3.930753   1.000000
   26       -3.573559   1.000000
   27       -3.323250   1.000000
   28       -3.207205   1.000000
   29       -3.100216   1.000000
   30       -2.869075   1.000000
   31       -2.651976   1.000000
   32       -2.479055   1.000000
   33       -2.313227   1.000000
   34       -2.293316   1.000000
   35       -2.131085   1.000000
   36       -2.039474   1.000000
   37       -1.932571   1.000000
   38       -1.795413   1.000000
   39       -1.631410   1.000000
   40       -1.540579   1.000000
   41       -1.417553   1.000000
   42       -1.235107   1.000000
   43       -1.106191   1.000000
   44       -0.969239   1.000000
   45       -0.822187   1.000000
   46       -0.754637   1.000000
   47       -0.650640   1.000000
   48       -0.558077   1.000000
   49       -0.414194   1.000000
   50       -0.273022   1.000000
   51       -0.087879   1.000000
   52       -0.013375   1.000000
   53        0.204894   1.000000
   54        0.224491   1.000000
   55        0.348749   1.000000
   56        0.455700   1.000000
   57        0.584467   1.000000
   58        0.739183   1.000000
   59        0.825285   1.000000
   60        0.895623   1.000000
   61        0.966026   1.000000
   62        1.106792   1.000000
   63        1.184443   1.000000
   64        1.342062   1.000000
   65        1.384325   1.000000
   66        1.527247   1.000000
   67        1.588106   1.000000
   68        1.822183   1.000000
   69        1.861812   1.000000
   70        1.958094   1.000000
   71        2.071009   1.000000
   72        2.162756   1.000000
   73        2.329236   1.000000
   74        2.446492   1.000000
   75        2.529462   1.000000
   76        2.601717   1.000000
   77        2.709387   1.000000
   78        2.865759   1.000000
   79        2.954477   1.000000
   80        2.981171   1.000000
   81        3.166578   1.000000
   82        3.265305   1.000000
   83        3.367220   1.000000
   84        3.473255   1.000000
   85        3.537865   1.000000
   86        3.615899   1.000000
   87        3.843919   1.000000
   88        3.934437   1.000000
   89        4.012051   1.000000
   90        4.186343   1.000000
   91        4.243265   1.000000
   92        4.354298   1.000000
   93        4.419061   1.000000
   94        4.622394   1.000000
   95        4.895364   1.000000
   96        5.075431   1.000000
   97        7.023083   1.000000
   98        7.211760   0.957091
   99        7.516211   0.000000
  100        7.619531   0.000000
  101        7.818904   0.000000
  102        7.952135   0.000000
  103        8.033515   0.000000
  104        8.168926   0.000000
  105        8.722365   0.000000
  106        8.949804   0.000000
  107        9.091160   0.000000
  108        9.490034   0.000000
  109        9.787393   0.000000
  110       10.021817   0.000000
  111       10.333698   0.000000
  112       10.365544   0.000000
  113       10.643093   0.000000
  114       10.780759   0.000000
  115       10.850572   0.000000
  116       11.087386   0.000000
  117       11.139844   0.000000
  118       11.274951   0.000000
  119       11.536692   0.000000
  120       11.616834   0.000000
  121       11.669610   0.000000
  122       11.820029   0.000000
  123       11.897356   0.000000
  124       11.975587   0.000000
  125       12.085828   0.000000
  126       12.172159   0.000000
  127       12.484966   0.000000
  128       12.664749   0.000000
 
  0.2000000E+00  0.3333333E+00  0.1818182E+00  0.6060606E-02
    1      -11.940636   1.000000
    2      -11.257846   1.000000
    3      -11.026438   1.000000
    4      -10.931911   1.000000
    5      -10.738263   1.000000
    6      -10.250656   1.000000
    7       -8.961155   1.000000
    8       -8.891671   1.000000
    9       -8.700743   1.000000
   10       -8.553143   1.000000
   11       -8.340741   1.000000
   12       -8.233895   1.000000
   13       -7.991019   1.000000
   14       -7.006394   1.000000
   15       -6.658902   1.000000
   16       -6.217452   1.000000
   17       -5.714688   1.000000
   18       -5.592561   1.000000
   19       -5.253639   1.000000
   20       -5.067486   1.000000
   21       -5.029369   1.000000
   22       -4.734472   1.000000
   23       -4.548308   1.000000
   24       -4.458646   1.000000
   25       -3.994872   1.000000
   26       -3.511372   1.000000
   27       -3.245679   1.000000
   28       -3.162713   1.000000
   29       -3.012591   1.000000
   30       -2.920941   1.000000
   31       -2.827322   1.000000
   32       -2.571007   1.000000
   33       -2.388947   1.000000
   34       -2.250534   1.000000
   35       -2.124263   1.000000
   36       -1.944027   1.000000
   37       -1.888903   1.000000
   38       -1.783948   1.000000
   39       -1.501748   1.000000
   40       -1.399584   1.000000
   41       -1.237675   1.000000
   42       -1.150147   1.000000
   43       -1.016857   1.000000
   44       -0.906515   1.000000
   45       -0.843763   1.000000
   46       -0.742798   1.000000
   47       -0.580613   1.000000
   48       -0.534981   1.000000
   49       -0.398510   1.000000
   50       -0.357232   1.000000
   51       -0.181562   1.000000
   52       -0.072445   1.000000
   53        0.002608   1.000000
   54        0.088844   1.000000
   55        0.147353   1.000000
   56        0.284687   1.000000
   57        0.442953   1.000000
   58        0.536897   1.000000
   59        0.647807   1.000000
   60        0.807089   1.000000
   61        0.987832   1.000000
   62        1.105526   1.000000
   63        1.279463   1.000000
   64        1.400536   1.000000
   65        1.453925   1.000000
   66        1.563339   1.000000
   67        1.659476   1.000000
   68        1.744758   1.000000
   69        1.861759   1.000000
   70        1.938411   1.000000
   71        2.111938   1.000000
   72        2.287609   1.000000
   73        2.381456   1.000000
   74        2.456187   1.000000
   75        2.549985   1.000000
   76        2.731959   1.000000
   77        2.836330   1.000000
   78        2.945915   1.000000
   79        3.049669   1.000000
   80        3.154299   1.000000
   81        3.209034   1.000000
   82        3.266105   1.000000
   83        3.436169   1.000000
   84        3.474554   1.000000
   85        3.664694   1.000000
   86        3.739637   1.000000
   87        3.834703   1.000000
   88        3.882508   1.000000
   89        3.999771   1.000000
   90        4.149787   1.000000
   91        4.184802   1.000000
   92        4.276154   1.000000
   93        4.328451   1.000000
   94        4.476302   1.000000
   95        4.846912   1.000000
   96        5.073060   1.000000
   97        6.970639   1.000000
   98        7.076185   1.000000
   99        7.433678  -0.083653
  100        7.664513   0.000000
  101        7.859597   0.000000
  102        7.968457   0.000000
  103        8.047613   0.000000
  104        8.259411   0.000000
  105        8.819526   0.000000
  106        8.959183   0.000000
  107        9.110526   0.000000
  108        9.559222   0.000000
  109        9.775584   0.000000
  110        9.954961   0.000000
  111       10.211700   0.000000
  112       10.309203   0.000000
  113       10.602248   0.000000
  114       10.728371   0.000000
  115       10.809031   0.000000
  116       11.027620   0.000000
  117       11.125938   0.000000
  118       11.354506   0.000000
  119       11.393778   0.000000
  120       11.554275   0.000000
  121       11.579550   0.000000
  122       11.652806   0.000000
  123       11.757666   0.000000
  124       11.845534   0.000000
  125       11.979910   0.000000
  126       12.305525   0.000000
  127       12.500832   0.000000
  128       12.600235   0.000000
 
  0.4000000E+00  0.3333333E+00  0.1818182E+00  0.6060606E-02
    1      -11.932639   1.000000
    2      -11.266311   1.000000
    3      -11.023014   1.000000
    4      -10.960908   1.000000
    5      -10.738106   1.000000
    6      -10.219990   1.000000
    7       -8.951796   1.000000
    8       -8.875034   1.000000
    9       -8.669388   1.000000
   10       -8.543993   1.000000
   11       -8.390615   1.000000
   12       -8.319823   1.000000
   13       -7.930152   1.000000
   14       -6.961621   1.000000
   15       -6.656711   1.000000
   16       -6.199222   1.000000
   17       -5.741732   1.000000
   18       -5.582067   1.000000
   19       -5.416124   1.000000
   20       -5.061071   1.000000
   21       -5.020507   1.000000
   22       -4.715796   1.000000
   23       -4.570052   1.000000
   24       -4.487694   1.000000
   25       -3.996627   1.000000
   26       -3.483667   1.000000
   27       -3.230377   1.000000
   28       -3.142565   1.000000
   29       -3.030614   1.000000
   30       -2.907001   1.000000
   31       -2.755400   1.000000
   32       -2.614213   1.000000
   33       -2.278892   1.000000
   34       -2.139997   1.000000
   35       -2.066407   1.000000
   36       -1.929736   1.000000
   37       -1.823640   1.000000
   38       -1.596832   1.000000
   39       -1.485188   1.000000
   40       -1.402379   1.000000
   41       -1.300482   1.000000
   42       -1.144208   1.000000
   43       -1.067807   1.000000
   44       -0.975842   1.000000
   45       -0.810225   1.000000
   46       -0.734463   1.000000
   47       -0.701277   1.000000
   48       -0.623633   1.000000
   49       -0.479234   1.000000
   50       -0.293711   1.000000
   51       -0.229275   1.000000
   52       -0.112891   1.000000
   53       -0.033396   1.000000
   54        0.049492   1.000000
   55        0.105209   1.000000
   56        0.215356   1.000000
   57        0.313475   1.000000
   58        0.465359   1.000000
   59        0.668333   1.000000
   60        0.792951   1.000000
   61        0.932457   1.000000
   62        1.102688   1.000000
   63        1.147915   1.000000
   64        1.279382   1.000000
   65        1.383171   1.000000
   66        1.554840   1.000000
   67        1.651112   1.000000
   68        1.802238   1.000000
   69        1.873547   1.000000
   70        2.036016   1.000000
   71        2.238082   1.000000
   72        2.353111   1.000000
   73        2.461937   1.000000
   74        2.577893   1.000000
   75        2.822440   1.000000
   76        2.875570   1.000000
   77        2.901295   1.000000
   78        3.012363   1.000000
   79        3.100443   1.000000
   80        3.171484   1.000000
   81        3.279502   1.000000
   82        3.330415   1.000000
   83        3.456665   1.000000
   84        3.521828   1.000000
   85        3.702312   1.000000
   86        3.708495   1.000000
   87        3.767279   1.000000
   88        3.875222   1.000000
   89        3.931101   1.000000
   90        3.980439   1.000000
   91        4.094092   1.000000
   92        4.205452   1.000000
   93        4.260945   1.000000
   94        4.341828   1.000000
   95        4.765195   1.000000
   96        5.076153   1.000000
   97        7.005710   1.000000
   98        7.132170   1.000000
   99        7.326887   0.023764
  100        7.749426   0.000000
  101        7.824704   0.000000
  102        7.951306   0.000000
  103        8.070344   0.000000
  104        8.253235   0.000000
  105        8.899051   0.000000
  106        9.037311   0.000000
  107        9.338708   0.000000
  108        9.721601   0.000000
  109        9.827287   0.000000
  110       10.027368   0.000000
  111       10.142024   0.000000
  112       10.342171   0.000000
  113       10.490876   0.000000
  114       10.650229   0.000000
  115       10.757153   0.000000
  116       11.028398   0.000000
  117       11.115170   0.000000
  118       11.247725   0.000000
  119       11.312946   0.000000
  120       11.350856   0.000000
  121       11.460140   0.000000
  122       11.567407   0.000000
  123       11.621223   0.000000
  124       11.762996   0.000000
  125       11.902681   0.000000
  126       12.262162   0.000000
  127       12.411244   0.000000
  128       12.528707   0.000000
 
 -0.4000000E+00  0.3333333E+00  0.1818182E+00  0.6060606E-02
    1      -11.920301   1.000000
    2      -11.285357   1.000000
    3      -11.069035   1.000000
    4      -10.935048   1.000000
    5      -10.735684   1.000000
    6      -10.183557   1.000000
    7       -8.919416   1.000000
    8       -8.872715   1.000000
    9       -8.683849   1.000000
   10       -8.511222   1.000000
   11       -8.429389   1.000000
   12       -8.353446   1.000000
   13       -7.923493   1.000000
   14       -6.989481   1.000000
   15       -6.648053   1.000000
   16       -6.227124   1.000000
   17       -5.763500   1.000000
   18       -5.505844   1.000000
   19       -5.421829   1.000000
   20       -5.041931   1.000000
   21       -5.018545   1.000000
   22       -4.699032   1.000000
   23       -4.586299   1.000000
   24       -4.541975   1.000000
   25       -3.930227   1.000000
   26       -3.485431   1.000000
   27       -3.312038   1.000000
   28       -3.271646   1.000000
   29       -2.884664   1.000000
   30       -2.851259   1.000000
   31       -2.583984   1.000000
   32       -2.493349   1.000000
   33       -2.374503   1.000000
   34       -2.121401   1.000000
   35       -2.063142   1.000000
   36       -1.963483   1.000000
   37       -1.817138   1.000000
   38       -1.732595   1.000000
   39       -1.519101   1.000000
   40       -1.450262   1.000000
   41       -1.351461   1.000000
   42       -1.271778   1.000000
   43       -1.171857   1.000000
   44       -1.011980   1.000000
   45       -0.935332   1.000000
   46       -0.788896   1.000000
   47       -0.641993   1.000000
   48       -0.522249   1.000000
   49       -0.454407   1.000000
   50       -0.262871   1.000000
   51       -0.209197   1.000000
   52       -0.140662   1.000000
   53       -0.049889   1.000000
   54        0.007035   1.000000
   55        0.201765   1.000000
   56        0.343248   1.000000
   57        0.504244   1.000000
   58        0.603387   1.000000
   59        0.743045   1.000000
   60        0.805565   1.000000
   61        0.912342   1.000000
   62        1.038282   1.000000
   63        1.112754   1.000000
   64        1.271683   1.000000
   65        1.477966   1.000000
   66        1.616090   1.000000
   67        1.682206   1.000000
   68        1.842136   1.000000
   69        1.893840   1.000000
   70        1.982407   1.000000
   71        2.242745   1.000000
   72        2.345244   1.000000
   73        2.436447   1.000000
   74        2.575840   1.000000
   75        2.623810   1.000000
   76        2.833245   1.000000
   77        2.882889   1.000000
   78        2.957959   1.000000
   79        3.024179   1.000000
   80        3.175493   1.000000
   81        3.269640   1.000000
   82        3.334479   1.000000
   83        3.392806   1.000000
   84        3.457606   1.000000
   85        3.613967   1.000000
   86        3.722284   1.000000
   87        3.800916   1.000000
   88        3.825566   1.000000
   89        3.900007   1.000000
   90        3.987629   1.000000
   91        4.092831   1.000000
   92        4.275454   1.000000
   93        4.304448   1.000000
   94        4.384736   1.000000
   95        4.751140   1.000000
   96        5.079535   1.000000
   97        7.103332   1.000000
   98        7.282189   0.646898
   99        7.376173   0.000000
  100        7.656060   0.000000
  101        7.823452   0.000000
  102        7.913985   0.000000
  103        8.088547   0.000000
  104        8.149828   0.000000
  105        8.893783   0.000000
  106        9.010065   0.000000
  107        9.515794   0.000000
  108        9.826082   0.000000
  109        9.921910   0.000000
  110       10.070648   0.000000
  111       10.241678   0.000000
  112       10.393166   0.000000
  113       10.450397   0.000000
  114       10.570713   0.000000
  115       10.711662   0.000000
  116       10.993948   0.000000
  117       11.126105   0.000000
  118       11.272999   0.000000
  119       11.311252   0.000000
  120       11.379079   0.000000
  121       11.533811   0.000000
  122       11.582436   0.000000
  123       11.639631   0.000000
  124       11.743965   0.000000
  125       12.006836   0.000000
  126       12.134266   0.000000
  127       12.390242   0.000000
  128       12.526854   0.000000
 
 -0.2000000E+00  0.3333333E+00  0.1818182E+00  0.6060606E-02
    1      -11.921147   1.000000
    2      -11.286064   1.000000
    3      -11.086591   1.000000
    4      -10.910606   1.000000
    5      -10.731722   1.000000
    6      -10.190321   1.000000
    7       -8.919959   1.000000
    8       -8.871531   1.000000
    9       -8.726595   1.000000
   10       -8.520295   1.000000
   11       -8.418648   1.000000
   12       -8.257834   1.000000
   13       -7.978309   1.000000
   14       -7.048299   1.000000
   15       -6.643535   1.000000
   16       -6.259226   1.000000
   17       -5.750666   1.000000
   18       -5.496650   1.000000
   19       -5.256696   1.000000
   20       -5.059576   1.000000
   21       -4.996120   1.000000
   22       -4.705223   1.000000
   23       -4.568499   1.000000
   24       -4.540113   1.000000
   25       -3.887489   1.000000
   26       -3.518037   1.000000
   27       -3.353615   1.000000
   28       -3.244680   1.000000
   29       -3.041573   1.000000
   30       -2.818222   1.000000
   31       -2.513462   1.000000
   32       -2.457142   1.000000
   33       -2.325945   1.000000
   34       -2.253660   1.000000
   35       -2.115600   1.000000
   36       -2.074234   1.000000
   37       -1.848465   1.000000
   38       -1.738838   1.000000
   39       -1.626203   1.000000
   40       -1.534204   1.000000
   41       -1.427012   1.000000
   42       -1.365789   1.000000
   43       -1.242065   1.000000
   44       -1.076727   1.000000
   45       -0.918486   1.000000
   46       -0.763933   1.000000
   47       -0.575205   1.000000
   48       -0.421334   1.000000
   49       -0.344340   1.000000
   50       -0.247051   1.000000
   51       -0.160814   1.000000
   52        0.004982   1.000000
   53        0.070416   1.000000
   54        0.154142   1.000000
   55        0.244145   1.000000
   56        0.319316   1.000000
   57        0.596243   1.000000
   58        0.736141   1.000000
   59        0.776805   1.000000
   60        0.948699   1.000000
   61        1.080440   1.000000
   62        1.108019   1.000000
   63        1.147613   1.000000
   64        1.271625   1.000000
   65        1.479588   1.000000
   66        1.554302   1.000000
   67        1.707078   1.000000
   68        1.789702   1.000000
   69        1.882581   1.000000
   70        2.008934   1.000000
   71        2.183333   1.000000
   72        2.264526   1.000000
   73        2.317640   1.000000
   74        2.474692   1.000000
   75        2.533507   1.000000
   76        2.618433   1.000000
   77        2.710225   1.000000
   78        2.836886   1.000000
   79        2.918383   1.000000
   80        3.049531   1.000000
   81        3.206693   1.000000
   82        3.263655   1.000000
   83        3.335270   1.000000
   84        3.406253   1.000000
   85        3.529080   1.000000
   86        3.640950   1.000000
   87        3.795189   1.000000
   88        3.887424   1.000000
   89        4.019469   1.000000
   90        4.137671   1.000000
   91        4.189044   1.000000
   92        4.353361   1.000000
   93        4.406797   1.000000
   94        4.560247   1.000000
   95        4.826616   1.000000
   96        5.079646   1.000000
   97        7.062627   1.000000
   98        7.440688  -0.078799
   99        7.548008   0.000000
  100        7.623235   0.000000
  101        7.669082   0.000000
  102        7.896492   0.000000
  103        8.043257   0.000000
  104        8.131056   0.000000
  105        8.745186   0.000000
  106        8.997253   0.000000
  107        9.316241   0.000000
  108        9.628013   0.000000
  109        9.895348   0.000000
  110       10.099477   0.000000
  111       10.293818   0.000000
  112       10.439822   0.000000
  113       10.514722   0.000000
  114       10.757422   0.000000
  115       10.831393   0.000000
  116       11.067512   0.000000
  117       11.138209   0.000000
  118       11.205870   0.000000
  119       11.526298   0.000000
  120       11.560749   0.000000
  121       11.614333   0.000000
  122       11.708185   0.000000
  123       11.788320   0.000000
  124       11.900602   0.000000
  125       12.011872   0.000000
  126       12.194730   0.000000
  127       12.401501   0.000000
  128       12.629708   0.000000
 
  0.0000000E+00  0.5000000E+00  0.1818182E+00  0.6060606E-02
    1      -11.910209   1.000000
    2      -11.345311   1.000000
    3      -11.053860   1.000000
    4      -10.905970   1.000000
    5      -10.695166   1.000000
    6      -10.218675   1.000000
    7       -8.959657   1.000000
    8       -8.782551   1.000000
    9       -8.718635   1.000000
   10       -8.643234   1.000000
   11       -8.347646   1.000000
   12       -8.195512   1.000000
   13       -8.041920   1.000000
   14       -7.084534   1.000000
   15       -6.646705   1.000000
   16       -6.212042   1.000000
   17       -5.759729   1.000000
   18       -5.541842   1.000000
   19       -5.187008   1.000000
   20       -4.983252   1.000000
   21       -4.915893   1.000000
   22       -4.888699   1.000000
   23       -4.544890   1.000000
   24       -4.513891   1.000000
   25       -3.869905   1.000000
   26       -3.634907   1.000000
   27       -3.290402   1.000000
   28       -3.163516   1.000000
   29       -3.110390   1.000000
   30       -2.789314   1.000000
   31       -2.592318   1.000000
   32       -2.509781   1.000000
   33       -2.340858   1.000000
   34       -2.227907   1.000000
   35       -2.166643   1.000000
   36       -2.038637   1.000000
   37       -1.923973   1.000000
   38       -1.817328   1.000000
   39       -1.705609   1.000000
   40       -1.514526   1.000000
   41       -1.403936   1.000000
   42       -1.280543   1.000000
   43       -1.146109   1.000000
   44       -0.974541   1.000000
   45       -0.927196   1.000000
   46       -0.653003   1.000000
   47       -0.604144   1.000000
   48       -0.502394   1.000000
   49       -0.434464   1.000000
   50       -0.357166   1.000000
   51       -0.117057   1.000000
   52        0.147330   1.000000
   53        0.201920   1.000000
   54        0.259603   1.000000
   55        0.338784   1.000000
   56        0.397693   1.000000
   57        0.520148   1.000000
   58        0.700458   1.000000
   59        0.754903   1.000000
   60        0.857733   1.000000
   61        1.014735   1.000000
   62        1.086429   1.000000
   63        1.218750   1.000000
   64        1.314761   1.000000
   65        1.459167   1.000000
   66        1.575556   1.000000
   67        1.637576   1.000000
   68        1.861429   1.000000
   69        1.938382   1.000000
   70        1.999698   1.000000
   71        2.064734   1.000000
   72        2.115615   1.000000
   73        2.334135   1.000000
   74        2.404401   1.000000
   75        2.516974   1.000000
   76        2.589634   1.000000
   77        2.662763   1.000000
   78        2.796344   1.000000
   79        2.908165   1.000000
   80        3.100924   1.000000
   81        3.204556   1.000000
   82        3.298157   1.000000
   83        3.342579   1.000000
   84        3.374846   1.000000
   85        3.463349   1.000000
   86        3.681800   1.000000
   87        3.800604   1.000000
   88        3.948275   1.000000
   89        4.075877   1.000000
   90        4.129982   1.000000
   91        4.234209   1.000000
   92        4.354807   1.000000
   93        4.490525   1.000000
   94        4.597048   1.000000
   95        4.868180   1.000000
   96        4.925969   1.000000
   97        7.155455   1.000000
   98        7.341797   0.152048
   99        7.427709   0.000000
  100        7.612130   0.000000
  101        7.840628   0.000000
  102        7.917482   0.000000
  103        8.005594   0.000000
  104        8.131013   0.000000
  105        8.804089   0.000000
  106        9.035977   0.000000
  107        9.226541   0.000000
  108        9.342856   0.000000
  109        9.770976   0.000000
  110       10.039541   0.000000
  111       10.214511   0.000000
  112       10.580945   0.000000
  113       10.782215   0.000000
  114       10.890003   0.000000
  115       11.001221   0.000000
  116       11.054713   0.000000
  117       11.138274   0.000000
  118       11.200889   0.000000
  119       11.398151   0.000000
  120       11.574548   0.000000
  121       11.662744   0.000000
  122       11.767231   0.000000
  123       11.885642   0.000000
  124       11.966495   0.000000
  125       12.000426   0.000000
  126       12.217881   0.000000
  127       12.501558   0.000000
  128       12.625778   0.000000
 
  0.2000000E+00  0.5000000E+00  0.1818182E+00  0.6060606E-02
    1      -11.915850   1.000000
    2      -11.338046   1.000000
    3      -11.032233   1.000000
    4      -10.917140   1.000000
    5      -10.697000   1.000000
    6      -10.235444   1.000000
    7       -8.961056   1.000000
    8       -8.833695   1.000000
    9       -8.678017   1.000000
   10       -8.609008   1.000000
   11       -8.367418   1.000000
   12       -8.230432   1.000000
   13       -8.007356   1.000000
   14       -7.044763   1.000000
   15       -6.655572   1.000000
   16       -6.175655   1.000000
   17       -5.751023   1.000000
   18       -5.582401   1.000000
   19       -5.243239   1.000000
   20       -5.028457   1.000000
   21       -4.903178   1.000000
   22       -4.862302   1.000000
   23       -4.599050   1.000000
   24       -4.528326   1.000000
   25       -3.927342   1.000000
   26       -3.561594   1.000000
   27       -3.225370   1.000000
   28       -3.124912   1.000000
   29       -2.996528   1.000000
   30       -2.863152   1.000000
   31       -2.748753   1.000000
   32       -2.512090   1.000000
   33       -2.346595   1.000000
   34       -2.250600   1.000000
   35       -2.142531   1.000000
   36       -2.056029   1.000000
   37       -1.876230   1.000000
   38       -1.714486   1.000000
   39       -1.615103   1.000000
   40       -1.458777   1.000000
   41       -1.406306   1.000000
   42       -1.207172   1.000000
   43       -1.020319   1.000000
   44       -0.927538   1.000000
   45       -0.775188   1.000000
   46       -0.654510   1.000000
   47       -0.530693   1.000000
   48       -0.497662   1.000000
   49       -0.433952   1.000000
   50       -0.343318   1.000000
   51       -0.245379   1.000000
   52       -0.117539   1.000000
   53        0.025700   1.000000
   54        0.090143   1.000000
   55        0.162492   1.000000
   56        0.362694   1.000000
   57        0.482767   1.000000
   58        0.548431   1.000000
   59        0.668827   1.000000
   60        0.814856   1.000000
   61        0.894780   1.000000
   62        1.051762   1.000000
   63        1.220796   1.000000
   64        1.372888   1.000000
   65        1.524178   1.000000
   66        1.592749   1.000000
   67        1.686122   1.000000
   68        1.777023   1.000000
   69        1.927189   1.000000
   70        2.004984   1.000000
   71        2.154191   1.000000
   72        2.323897   1.000000
   73        2.378460   1.000000
   74        2.460464   1.000000
   75        2.594376   1.000000
   76        2.731184   1.000000
   77        2.843703   1.000000
   78        2.963729   1.000000
   79        3.010445   1.000000
   80        3.070239   1.000000
   81        3.212857   1.000000
   82        3.266826   1.000000
   83        3.371365   1.000000
   84        3.469091   1.000000
   85        3.606221   1.000000
   86        3.713273   1.000000
   87        3.784574   1.000000
   88        3.908251   1.000000
   89        4.036742   1.000000
   90        4.083517   1.000000
   91        4.129802   1.000000
   92        4.298801   1.000000
   93        4.366716   1.000000
   94        4.478704   1.000000
   95        4.835219   1.000000
   96        4.910262   1.000000
   97        7.094770   1.000000
   98        7.236404   1.042261
   99        7.308179   0.054039
  100        7.595785   0.000000
  101        7.937439   0.000000
  102        8.023072   0.000000
  103        8.073724   0.000000
  104        8.105905   0.000000
  105        8.828748   0.000000
  106        9.123457   0.000000
  107        9.242755   0.000000
  108        9.439329   0.000000
  109        9.773112   0.000000
  110        9.999734   0.000000
  111       10.126408   0.000000
  112       10.439698   0.000000
  113       10.670514   0.000000
  114       10.744134   0.000000
  115       10.987412   0.000000
  116       11.075184   0.000000
  117       11.159446   0.000000
  118       11.304857   0.000000
  119       11.362314   0.000000
  120       11.475717   0.000000
  121       11.563779   0.000000
  122       11.603758   0.000000
  123       11.674838   0.000000
  124       11.947978   0.000000
  125       12.037129   0.000000
  126       12.278016   0.000000
  127       12.422567   0.000000
  128       12.605993   0.000000
 
  0.4000000E+00  0.5000000E+00  0.1818182E+00  0.6060606E-02
    1      -11.911223   1.000000
    2      -11.331391   1.000000
    3      -11.034901   1.000000
    4      -10.952541   1.000000
    5      -10.686999   1.000000
    6      -10.219814   1.000000
    7       -8.961150   1.000000
    8       -8.842729   1.000000
    9       -8.617656   1.000000
   10       -8.576478   1.000000
   11       -8.427882   1.000000
   12       -8.313359   1.000000
   13       -7.936955   1.000000
   14       -6.997495   1.000000
   15       -6.653409   1.000000
   16       -6.172022   1.000000
   17       -5.771683   1.000000
   18       -5.593570   1.000000
   19       -5.389428   1.000000
   20       -5.044440   1.000000
   21       -4.906484   1.000000
   22       -4.818985   1.000000
   23       -4.612447   1.000000
   24       -4.533635   1.000000
   25       -3.978593   1.000000
   26       -3.520998   1.000000
   27       -3.273272   1.000000
   28       -3.125535   1.000000
   29       -2.946878   1.000000
   30       -2.882565   1.000000
   31       -2.734632   1.000000
   32       -2.586467   1.000000
   33       -2.300958   1.000000
   34       -2.147508   1.000000
   35       -2.062662   1.000000
   36       -1.849759   1.000000
   37       -1.702582   1.000000
   38       -1.644419   1.000000
   39       -1.530744   1.000000
   40       -1.461436   1.000000
   41       -1.326274   1.000000
   42       -1.081613   1.000000
   43       -0.999313   1.000000
   44       -0.976540   1.000000
   45       -0.850725   1.000000
   46       -0.713935   1.000000
   47       -0.680599   1.000000
   48       -0.624026   1.000000
   49       -0.445981   1.000000
   50       -0.377183   1.000000
   51       -0.281629   1.000000
   52       -0.174516   1.000000
   53        0.024601   1.000000
   54        0.055819   1.000000
   55        0.106192   1.000000
   56        0.167187   1.000000
   57        0.280494   1.000000
   58        0.537081   1.000000
   59        0.613302   1.000000
   60        0.688413   1.000000
   61        0.945108   1.000000
   62        1.066740   1.000000
   63        1.102385   1.000000
   64        1.342786   1.000000
   65        1.385689   1.000000
   66        1.530363   1.000000
   67        1.596105   1.000000
   68        1.817835   1.000000
   69        1.948577   1.000000
   70        2.013781   1.000000
   71        2.266929   1.000000
   72        2.371867   1.000000
   73        2.448772   1.000000
   74        2.664320   1.000000
   75        2.823774   1.000000
   76        2.920541   1.000000
   77        2.934067   1.000000
   78        3.066515   1.000000
   79        3.094221   1.000000
   80        3.198316   1.000000
   81        3.253799   1.000000
   82        3.321343   1.000000
   83        3.436640   1.000000
   84        3.521874   1.000000
   85        3.645945   1.000000
   86        3.743298   1.000000
   87        3.784741   1.000000
   88        3.859448   1.000000
   89        3.914622   1.000000
   90        3.981630   1.000000
   91        4.029333   1.000000
   92        4.191893   1.000000
   93        4.280455   1.000000
   94        4.332897   1.000000
   95        4.818588   1.000000
   96        4.884275   1.000000
   97        7.050493   1.000000
   98        7.207647   1.076578
   99        7.287289   0.148999
  100        7.716021   0.000000
  101        7.849869   0.000000
  102        7.952931   0.000000
  103        8.104490   0.000000
  104        8.194483   0.000000
  105        8.993147   0.000000
  106        9.264639   0.000000
  107        9.411151   0.000000
  108        9.638812   0.000000
  109        9.851573   0.000000
  110       10.023827   0.000000
  111       10.123480   0.000000
  112       10.391141   0.000000
  113       10.536682   0.000000
  114       10.643451   0.000000
  115       10.870710   0.000000
  116       10.988127   0.000000
  117       11.044286   0.000000
  118       11.191867   0.000000
  119       11.268033   0.000000
  120       11.332738   0.000000
  121       11.358499   0.000000
  122       11.543381   0.000000
  123       11.593870   0.000000
  124       11.793895   0.000000
  125       11.954993   0.000000
  126       12.260932   0.000000
  127       12.350424   0.000000
  128       12.512926   0.000000
 
 -0.4000000E+00  0.5000000E+00  0.1818182E+00  0.6060606E-02
    1      -11.902400   1.000000
    2      -11.336826   1.000000
    3      -11.053918   1.000000
    4      -10.964013   1.000000
    5      -10.679876   1.000000
    6      -10.194082   1.000000
    7       -8.956298   1.000000
    8       -8.822766   1.000000
    9       -8.610567   1.000000
   10       -8.555700   1.000000
   11       -8.478111   1.000000
   12       -8.331674   1.000000
   13       -7.915710   1.000000
   14       -7.012222   1.000000
   15       -6.643778   1.000000
   16       -6.207942   1.000000
   17       -5.794375   1.000000
   18       -5.527213   1.000000
   19       -5.442297   1.000000
   20       -5.012544   1.000000
   21       -4.910366   1.000000
   22       -4.831005   1.000000
   23       -4.587135   1.000000
   24       -4.529229   1.000000
   25       -3.962878   1.000000
   26       -3.531326   1.000000
   27       -3.343992   1.000000
   28       -3.166069   1.000000
   29       -2.967800   1.000000
   30       -2.899019   1.000000
   31       -2.661452   1.000000
   32       -2.500889   1.000000
   33       -2.312185   1.000000
   34       -2.079293   1.000000
   35       -1.919315   1.000000
   36       -1.832512   1.000000
   37       -1.744840   1.000000
   38       -1.693561   1.000000
   39       -1.516157   1.000000
   40       -1.410337   1.000000
   41       -1.301116   1.000000
   42       -1.246636   1.000000
   43       -1.118979   1.000000
   44       -1.005881   1.000000
   45       -0.901387   1.000000
   46       -0.825117   1.000000
   47       -0.702084   1.000000
   48       -0.612315   1.000000
   49       -0.467383   1.000000
   50       -0.399476   1.000000
   51       -0.247728   1.000000
   52       -0.153586   1.000000
   53       -0.019176   1.000000
   54        0.071419   1.000000
   55        0.161165   1.000000
   56        0.302084   1.000000
   57        0.495725   1.000000
   58        0.615557   1.000000
   59        0.706535   1.000000
   60        0.848762   1.000000
   61        0.886785   1.000000
   62        0.998395   1.000000
   63        1.087874   1.000000
   64        1.231529   1.000000
   65        1.344819   1.000000
   66        1.496484   1.000000
   67        1.577240   1.000000
   68        1.805099   1.000000
   69        1.917237   1.000000
   70        2.026891   1.000000
   71        2.279309   1.000000
   72        2.357155   1.000000
   73        2.411183   1.000000
   74        2.590897   1.000000
   75        2.750749   1.000000
   76        2.867813   1.000000
   77        2.881542   1.000000
   78        2.981261   1.000000
   79        3.116332   1.000000
   80        3.223652   1.000000
   81        3.297273   1.000000
   82        3.343939   1.000000
   83        3.424087   1.000000
   84        3.471805   1.000000
   85        3.572893   1.000000
   86        3.714450   1.000000
   87        3.792639   1.000000
   88        3.846037   1.000000
   89        3.925534   1.000000
   90        4.058842   1.000000
   91        4.130762   1.000000
   92        4.184845   1.000000
   93        4.308322   1.000000
   94        4.382308   1.000000
   95        4.826861   1.000000
   96        4.879933   1.000000
   97        7.103084   1.000000
   98        7.301979   0.470482
   99        7.353089   0.001060
  100        7.719393   0.000000
  101        7.805039   0.000000
  102        7.844151   0.000000
  103        8.118448   0.000000
  104        8.163772   0.000000
  105        9.054814   0.000000
  106        9.307401   0.000000
  107        9.491066   0.000000
  108        9.719368   0.000000
  109        9.899935   0.000000
  110       10.113248   0.000000
  111       10.194881   0.000000
  112       10.434191   0.000000
  113       10.504901   0.000000
  114       10.607935   0.000000
  115       10.692377   0.000000
  116       10.999018   0.000000
  117       11.093164   0.000000
  118       11.132639   0.000000
  119       11.233821   0.000000
  120       11.313041   0.000000
  121       11.386625   0.000000
  122       11.568898   0.000000
  123       11.609129   0.000000
  124       11.742792   0.000000
  125       11.922491   0.000000
  126       12.227910   0.000000
  127       12.375757   0.000000
  128       12.481738   0.000000
 
 -0.2000000E+00  0.5000000E+00  0.1818182E+00  0.6060606E-02
    1      -11.901811   1.000000
    2      -11.342486   1.000000
    3      -11.082955   1.000000
    4      -10.915643   1.000000
    5      -10.690445   1.000000
    6      -10.193129   1.000000
    7       -8.954681   1.000000
    8       -8.792690   1.000000
    9       -8.662192   1.000000
   10       -8.625480   1.000000
   11       -8.418365   1.000000
   12       -8.258108   1.000000
   13       -7.967262   1.000000
   14       -7.066170   1.000000
   15       -6.640233   1.000000
   16       -6.234779   1.000000
   17       -5.785745   1.000000
   18       -5.506935   1.000000
   19       -5.302052   1.000000
   20       -4.982883   1.000000
   21       -4.903278   1.000000
   22       -4.884079   1.000000
   23       -4.555280   1.000000
   24       -4.514351   1.000000
   25       -3.896610   1.000000
   26       -3.588276   1.000000
   27       -3.352186   1.000000
   28       -3.190106   1.000000
   29       -3.071449   1.000000
   30       -2.731582   1.000000
   31       -2.617611   1.000000
   32       -2.498497   1.000000
   33       -2.343334   1.000000
   34       -2.141965   1.000000
   35       -2.094420   1.000000
   36       -2.039274   1.000000
   37       -1.822014   1.000000
   38       -1.722142   1.000000
   39       -1.586733   1.000000
   40       -1.480976   1.000000
   41       -1.398615   1.000000
   42       -1.211971   1.000000
   43       -1.160067   1.000000
   44       -1.085089   1.000000
   45       -1.029064   1.000000
   46       -0.866022   1.000000
   47       -0.574925   1.000000
   48       -0.454376   1.000000
   49       -0.351026   1.000000
   50       -0.214731   1.000000
   51       -0.134450   1.000000
   52        0.009021   1.000000
   53        0.056233   1.000000
   54        0.139255   1.000000
   55        0.317451   1.000000
   56        0.340795   1.000000
   57        0.431957   1.000000
   58        0.539398   1.000000
   59        0.776082   1.000000
   60        0.842341   1.000000
   61        1.026064   1.000000
   62        1.140467   1.000000
   63        1.239207   1.000000
   64        1.275019   1.000000
   65        1.491695   1.000000
   66        1.538633   1.000000
   67        1.705326   1.000000
   68        1.756516   1.000000
   69        1.982977   1.000000
   70        2.032183   1.000000
   71        2.151346   1.000000
   72        2.213373   1.000000
   73        2.270623   1.000000
   74        2.432072   1.000000
   75        2.484122   1.000000
   76        2.572481   1.000000
   77        2.704281   1.000000
   78        2.809266   1.000000
   79        3.024852   1.000000
   80        3.071113   1.000000
   81        3.276303   1.000000
   82        3.365389   1.000000
   83        3.381575   1.000000
   84        3.443850   1.000000
   85        3.523459   1.000000
   86        3.707493   1.000000
   87        3.754031   1.000000
   88        3.891721   1.000000
   89        4.029532   1.000000
   90        4.107019   1.000000
   91        4.235635   1.000000
   92        4.330582   1.000000
   93        4.420062   1.000000
   94        4.568932   1.000000
   95        4.856677   1.000000
   96        4.888872   1.000000
   97        7.155906   1.000000
   98        7.415076  -0.014829
   99        7.495419   0.000000
  100        7.654221   0.000000
  101        7.707432   0.000000
  102        7.855935   0.000000
  103        8.023508   0.000000
  104        8.146308   0.000000
  105        8.946096   0.000000
  106        9.150294   0.000000
  107        9.360380   0.000000
  108        9.477095   0.000000
  109        9.882490   0.000000
  110       10.076683   0.000000
  111       10.235177   0.000000
  112       10.571331   0.000000
  113       10.656587   0.000000
  114       10.770443   0.000000
  115       10.889241   0.000000
  116       11.050584   0.000000
  117       11.128586   0.000000
  118       11.178506   0.000000
  119       11.309827   0.000000
  120       11.502225   0.000000
  121       11.551877   0.000000
  122       11.631173   0.000000
  123       11.752629   0.000000
  124       11.832559   0.000000
  125       11.914519   0.000000
  126       12.231341   0.000000
  127       12.432156   0.000000
  128       12.577702   0.000000
 
  0.0000000E+00 -0.3333333E+00  0.1818182E+00  0.6060606E-02
    1      -11.902536   1.000000
    2      -11.370273   1.000000
    3      -11.035646   1.000000
    4      -10.922291   1.000000
    5      -10.671977   1.000000
    6      -10.224653   1.000000
    7       -9.033722   1.000000
    8       -8.739588   1.000000
    9       -8.689524   1.000000
   10       -8.593127   1.000000
   11       -8.383391   1.000000
   12       -8.167527   1.000000
   13       -8.078459   1.000000
   14       -7.078161   1.000000
   15       -6.663676   1.000000
   16       -6.225585   1.000000
   17       -5.710794   1.000000
   18       -5.541841   1.000000
   19       -5.246794   1.000000
   20       -5.150040   1.000000
   21       -4.881231   1.000000
   22       -4.761824   1.000000
   23       -4.505361   1.000000
   24       -4.431305   1.000000
   25       -3.880650   1.000000
   26       -3.665587   1.000000
   27       -3.283988   1.000000
   28       -3.183937   1.000000
   29       -3.102995   1.000000
   30       -2.791712   1.000000
   31       -2.682711   1.000000
   32       -2.533015   1.000000
   33       -2.380711   1.000000
   34       -2.258238   1.000000
   35       -2.142068   1.000000
   36       -2.090431   1.000000
   37       -1.947500   1.000000
   38       -1.836534   1.000000
   39       -1.702314   1.000000
   40       -1.460559   1.000000
   41       -1.402367   1.000000
   42       -1.297257   1.000000
   43       -1.197120   1.000000
   44       -0.988359   1.000000
   45       -0.760993   1.000000
   46       -0.696177   1.000000
   47       -0.472900   1.000000
   48       -0.426588   1.000000
   49       -0.251547   1.000000
   50       -0.167223   1.000000
   51       -0.115695   1.000000
   52        0.070172   1.000000
   53        0.142506   1.000000
   54        0.171775   1.000000
   55        0.285028   1.000000
   56        0.429624   1.000000
   57        0.529212   1.000000
   58        0.617336   1.000000
   59        0.756243   1.000000
   60        0.852233   1.000000
   61        1.021794   1.000000
   62        1.104339   1.000000
   63        1.223681   1.000000
   64        1.287940   1.000000
   65        1.478663   1.000000
   66        1.504770   1.000000
   67        1.630640   1.000000
   68        1.775427   1.000000
   69        1.862254   1.000000
   70        1.956276   1.000000
   71        2.091029   1.000000
   72        2.151295   1.000000
   73        2.287589   1.000000
   74        2.355662   1.000000
   75        2.502791   1.000000
   76        2.549703   1.000000
   77        2.698410   1.000000
   78        2.862816   1.000000
   79        2.975836   1.000000
   80        3.088696   1.000000
   81        3.154478   1.000000
   82        3.310747   1.000000
   83        3.355548   1.000000
   84        3.434381   1.000000
   85        3.616025   1.000000
   86        3.681780   1.000000
   87        3.716913   1.000000
   88        3.858213   1.000000
   89        3.952705   1.000000
   90        4.108645   1.000000
   91        4.169607   1.000000
   92        4.276769   1.000000
   93        4.514263   1.000000
   94        4.755501   1.000000
   95        4.844274   1.000000
   96        5.088245   1.000000
   97        7.161650   1.000000
   98        7.400732  -0.031687
   99        7.453551   0.000000
  100        7.645424   0.000000
  101        7.691059   0.000000
  102        7.862729   0.000000
  103        7.993254   0.000000
  104        8.182873   0.000000
  105        8.760408   0.000000
  106        9.119305   0.000000
  107        9.186003   0.000000
  108        9.313372   0.000000
  109        9.775070   0.000000
  110       10.039725   0.000000
  111       10.273352   0.000000
  112       10.653278   0.000000
  113       10.764247   0.000000
  114       10.854790   0.000000
  115       10.886353   0.000000
  116       11.110276   0.000000
  117       11.228003   0.000000
  118       11.349949   0.000000
  119       11.466835   0.000000
  120       11.595702   0.000000
  121       11.709090   0.000000
  122       11.812217   0.000000
  123       11.863417   0.000000
  124       11.999941   0.000000
  125       12.152611   0.000000
  126       12.326879   0.000000
  127       12.469539   0.000000
  128       12.688453   0.000000
 
  0.2000000E+00 -0.3333333E+00  0.1818182E+00  0.6060606E-02
    1      -11.903140   1.000000
    2      -11.372661   1.000000
    3      -11.040316   1.000000
    4      -10.909046   1.000000
    5      -10.673444   1.000000
    6      -10.228062   1.000000
    7       -9.012823   1.000000
    8       -8.748351   1.000000
    9       -8.685549   1.000000
   10       -8.594736   1.000000
   11       -8.423515   1.000000
   12       -8.196320   1.000000
   13       -8.045617   1.000000
   14       -7.046132   1.000000
   15       -6.670623   1.000000
   16       -6.168522   1.000000
   17       -5.713148   1.000000
   18       -5.559451   1.000000
   19       -5.262258   1.000000
   20       -5.133979   1.000000
   21       -4.940481   1.000000
   22       -4.754470   1.000000
   23       -4.606377   1.000000
   24       -4.465935   1.000000
   25       -3.877214   1.000000
   26       -3.634310   1.000000
   27       -3.261511   1.000000
   28       -3.111381   1.000000
   29       -2.949222   1.000000
   30       -2.769974   1.000000
   31       -2.735356   1.000000
   32       -2.541789   1.000000
   33       -2.397893   1.000000
   34       -2.222970   1.000000
   35       -2.117223   1.000000
   36       -2.043486   1.000000
   37       -1.908190   1.000000
   38       -1.821779   1.000000
   39       -1.738795   1.000000
   40       -1.462801   1.000000
   41       -1.394193   1.000000
   42       -1.345732   1.000000
   43       -1.080663   1.000000
   44       -0.911925   1.000000
   45       -0.836341   1.000000
   46       -0.770068   1.000000
   47       -0.614012   1.000000
   48       -0.433567   1.000000
   49       -0.351262   1.000000
   50       -0.241241   1.000000
   51       -0.150047   1.000000
   52       -0.018015   1.000000
   53        0.020358   1.000000
   54        0.176631   1.000000
   55        0.284770   1.000000
   56        0.417786   1.000000
   57        0.438990   1.000000
   58        0.602629   1.000000
   59        0.737300   1.000000
   60        0.877527   1.000000
   61        0.973486   1.000000
   62        1.046065   1.000000
   63        1.251826   1.000000
   64        1.369369   1.000000
   65        1.456389   1.000000
   66        1.574200   1.000000
   67        1.651508   1.000000
   68        1.806986   1.000000
   69        1.911389   1.000000
   70        2.061251   1.000000
   71        2.194967   1.000000
   72        2.281534   1.000000
   73        2.324368   1.000000
   74        2.466968   1.000000
   75        2.614983   1.000000
   76        2.684406   1.000000
   77        2.810747   1.000000
   78        2.887946   1.000000
   79        3.017046   1.000000
   80        3.120869   1.000000
   81        3.143361   1.000000
   82        3.229595   1.000000
   83        3.293002   1.000000
   84        3.386149   1.000000
   85        3.594567   1.000000
   86        3.686566   1.000000
   87        3.706910   1.000000
   88        3.866633   1.000000
   89        3.967179   1.000000
   90        4.031243   1.000000
   91        4.113037   1.000000
   92        4.226711   1.000000
   93        4.377188   1.000000
   94        4.658668   1.000000
   95        4.771980   1.000000
   96        5.097540   1.000000
   97        7.077849   1.000000
   98        7.388829  -0.074698
   99        7.494755   0.000000
  100        7.552529   0.000000
  101        7.795508   0.000000
  102        7.940295   0.000000
  103        8.053256   0.000000
  104        8.112593   0.000000
  105        8.717198   0.000000
  106        9.144288   0.000000
  107        9.291153   0.000000
  108        9.421653   0.000000
  109        9.777925   0.000000
  110       10.021781   0.000000
  111       10.207587   0.000000
  112       10.481533   0.000000
  113       10.652539   0.000000
  114       10.794346   0.000000
  115       10.852927   0.000000
  116       11.128578   0.000000
  117       11.273336   0.000000
  118       11.356629   0.000000
  119       11.399673   0.000000
  120       11.529621   0.000000
  121       11.601253   0.000000
  122       11.761116   0.000000
  123       11.839032   0.000000
  124       11.950931   0.000000
  125       12.187298   0.000000
  126       12.242111   0.000000
  127       12.456740   0.000000
  128       12.598184   0.000000
 
  0.4000000E+00 -0.3333333E+00  0.1818182E+00  0.6060606E-02
    1      -11.897580   1.000000
    2      -11.364704   1.000000
    3      -11.069500   1.000000
    4      -10.920464   1.000000
    5      -10.659720   1.000000
    6      -10.216374   1.000000
    7       -8.980624   1.000000
    8       -8.790131   1.000000
    9       -8.647837   1.000000
   10       -8.575245   1.000000
   11       -8.460239   1.000000
   12       -8.259703   1.000000
   13       -7.983475   1.000000
   14       -7.008266   1.000000
   15       -6.667023   1.000000
   16       -6.163193   1.000000
   17       -5.735715   1.000000
   18       -5.562187   1.000000
   19       -5.339168   1.000000
   20       -5.174532   1.000000
   21       -4.959029   1.000000
   22       -4.721103   1.000000
   23       -4.623337   1.000000
   24       -4.492668   1.000000
   25       -3.928754   1.000000
   26       -3.647713   1.000000
   27       -3.367602   1.000000
   28       -3.090373   1.000000
   29       -2.876406   1.000000
   30       -2.752581   1.000000
   31       -2.608779   1.000000
   32       -2.513173   1.000000
   33       -2.318223   1.000000
   34       -2.220932   1.000000
   35       -2.108999   1.000000
   36       -1.947223   1.000000
   37       -1.830515   1.000000
   38       -1.650745   1.000000
   39       -1.535639   1.000000
   40       -1.421945   1.000000
   41       -1.297212   1.000000
   42       -1.186003   1.000000
   43       -1.056472   1.000000
   44       -1.043575   1.000000
   45       -0.944207   1.000000
   46       -0.822724   1.000000
   47       -0.779023   1.000000
   48       -0.620639   1.000000
   49       -0.479050   1.000000
   50       -0.356428   1.000000
   51       -0.206026   1.000000
   52       -0.144245   1.000000
   53        0.039082   1.000000
   54        0.109427   1.000000
   55        0.201796   1.000000
   56        0.318705   1.000000
   57        0.444060   1.000000
   58        0.560188   1.000000
   59        0.739176   1.000000
   60        0.824123   1.000000
   61        0.868517   1.000000
   62        0.960267   1.000000
   63        1.175499   1.000000
   64        1.364249   1.000000
   65        1.531825   1.000000
   66        1.572200   1.000000
   67        1.655885   1.000000
   68        1.828842   1.000000
   69        1.950812   1.000000
   70        2.058473   1.000000
   71        2.260711   1.000000
   72        2.333096   1.000000
   73        2.479144   1.000000
   74        2.638568   1.000000
   75        2.711279   1.000000
   76        2.828668   1.000000
   77        2.905813   1.000000
   78        2.986544   1.000000
   79        3.060555   1.000000
   80        3.147725   1.000000
   81        3.181981   1.000000
   82        3.295841   1.000000
   83        3.373408   1.000000
   84        3.435041   1.000000
   85        3.609041   1.000000
   86        3.688735   1.000000
   87        3.772165   1.000000
   88        3.833073   1.000000
   89        3.877784   1.000000
   90        3.926826   1.000000
   91        4.010425   1.000000
   92        4.161014   1.000000
   93        4.218610   1.000000
   94        4.535960   1.000000
   95        4.712689   1.000000
   96        5.110021   1.000000
   97        7.091694   1.000000
   98        7.297671   0.367521
   99        7.447390  -0.009699
  100        7.654837   0.000000
  101        7.835757   0.000000
  102        7.894012   0.000000
  103        8.056068   0.000000
  104        8.169173   0.000000
  105        8.880133   0.000000
  106        9.165747   0.000000
  107        9.571182   0.000000
  108        9.669383   0.000000
  109        9.881457   0.000000
  110       10.052985   0.000000
  111       10.167571   0.000000
  112       10.368403   0.000000
  113       10.577535   0.000000
  114       10.658395   0.000000
  115       10.792728   0.000000
  116       10.991384   0.000000
  117       11.081268   0.000000
  118       11.150557   0.000000
  119       11.270066   0.000000
  120       11.436570   0.000000
  121       11.509737   0.000000
  122       11.616258   0.000000
  123       11.734362   0.000000
  124       11.848964   0.000000
  125       12.047501   0.000000
  126       12.208810   0.000000
  127       12.417221   0.000000
  128       12.544582   0.000000
 
 -0.4000000E+00 -0.3333333E+00  0.1818182E+00  0.6060606E-02
    1      -11.893283   1.000000
    2      -11.361500   1.000000
    3      -11.050223   1.000000
    4      -10.975553   1.000000
    5      -10.642591   1.000000
    6      -10.206939   1.000000
    7       -8.990389   1.000000
    8       -8.780713   1.000000
    9       -8.620364   1.000000
   10       -8.598044   1.000000
   11       -8.437847   1.000000
   12       -8.280425   1.000000
   13       -7.960743   1.000000
   14       -7.019555   1.000000
   15       -6.657671   1.000000
   16       -6.219207   1.000000
   17       -5.748463   1.000000
   18       -5.519206   1.000000
   19       -5.399188   1.000000
   20       -5.192842   1.000000
   21       -4.922190   1.000000
   22       -4.710008   1.000000
   23       -4.549274   1.000000
   24       -4.487396   1.000000
   25       -3.969861   1.000000
   26       -3.661814   1.000000
   27       -3.362917   1.000000
   28       -3.157848   1.000000
   29       -2.943132   1.000000
   30       -2.874857   1.000000
   31       -2.668669   1.000000
   32       -2.469768   1.000000
   33       -2.298617   1.000000
   34       -2.116852   1.000000
   35       -2.026847   1.000000
   36       -1.790882   1.000000
   37       -1.684979   1.000000
   38       -1.613776   1.000000
   39       -1.470527   1.000000
   40       -1.402257   1.000000
   41       -1.323549   1.000000
   42       -1.265659   1.000000
   43       -1.142320   1.000000
   44       -1.085512   1.000000
   45       -0.948816   1.000000
   46       -0.869558   1.000000
   47       -0.712730   1.000000
   48       -0.584972   1.000000
   49       -0.540399   1.000000
   50       -0.353958   1.000000
   51       -0.223453   1.000000
   52       -0.203301   1.000000
   53        0.096978   1.000000
   54        0.129032   1.000000
   55        0.213810   1.000000
   56        0.383038   1.000000
   57        0.449374   1.000000
   58        0.614765   1.000000
   59        0.738321   1.000000
   60        0.808144   1.000000
   61        0.868617   1.000000
   62        1.015801   1.000000
   63        1.157614   1.000000
   64        1.237125   1.000000
   65        1.365591   1.000000
   66        1.500508   1.000000
   67        1.587728   1.000000
   68        1.815955   1.000000
   69        1.913012   1.000000
   70        2.093498   1.000000
   71        2.184022   1.000000
   72        2.356548   1.000000
   73        2.409662   1.000000
   74        2.610332   1.000000
   75        2.714715   1.000000
   76        2.845884   1.000000
   77        2.882507   1.000000
   78        2.949737   1.000000
   79        3.089251   1.000000
   80        3.145723   1.000000
   81        3.225755   1.000000
   82        3.306629   1.000000
   83        3.388303   1.000000
   84        3.463934   1.000000
   85        3.623549   1.000000
   86        3.648542   1.000000
   87        3.775225   1.000000
   88        3.854759   1.000000
   89        3.945659   1.000000
   90        4.020330   1.000000
   91        4.055994   1.000000
   92        4.144876   1.000000
   93        4.270623   1.000000
   94        4.540474   1.000000
   95        4.740677   1.000000
   96        5.110696   1.000000
   97        7.149291   1.000000
   98        7.323669   0.114736
   99        7.413272  -0.001003
  100        7.701766   0.000000
  101        7.754180   0.000000
  102        7.774087   0.000000
  103        8.138614   0.000000
  104        8.189180   0.000000
  105        8.970475   0.000000
  106        9.260979   0.000000
  107        9.575273   0.000000
  108        9.720480   0.000000
  109        9.976058   0.000000
  110       10.098426   0.000000
  111       10.227028   0.000000
  112       10.308388   0.000000
  113       10.552589   0.000000
  114       10.670436   0.000000
  115       10.781410   0.000000
  116       10.919907   0.000000
  117       11.082624   0.000000
  118       11.104454   0.000000
  119       11.262859   0.000000
  120       11.341256   0.000000
  121       11.446467   0.000000
  122       11.645749   0.000000
  123       11.738594   0.000000
  124       11.775262   0.000000
  125       11.988091   0.000000
  126       12.198863   0.000000
  127       12.471700   0.000000
  128       12.572178   0.000000
 
 -0.2000000E+00 -0.3333333E+00  0.1818182E+00  0.6060606E-02
    1      -11.896493   1.000000
    2      -11.362978   1.000000
    3      -11.045530   1.000000
    4      -10.959366   1.000000
    5      -10.653813   1.000000
    6      -10.211327   1.000000
    7       -9.022140   1.000000
    8       -8.764185   1.000000
    9       -8.663793   1.000000
   10       -8.524764   1.000000
   11       -8.472079   1.000000
   12       -8.204471   1.000000
   13       -8.009196   1.000000
   14       -7.064157   1.000000
   15       -6.655682   1.000000
   16       -6.256896   1.000000
   17       -5.730813   1.000000
   18       -5.513816   1.000000
   19       -5.315189   1.000000
   20       -5.201864   1.000000
   21       -4.867184   1.000000
   22       -4.736473   1.000000
   23       -4.486788   1.000000
   24       -4.454722   1.000000
   25       -3.942949   1.000000
   26       -3.661802   1.000000
   27       -3.337871   1.000000
   28       -3.183262   1.000000
   29       -3.046601   1.000000
   30       -2.836573   1.000000
   31       -2.688439   1.000000
   32       -2.515516   1.000000
   33       -2.396464   1.000000
   34       -2.223190   1.000000
   35       -2.140878   1.000000
   36       -1.930782   1.000000
   37       -1.784046   1.000000
   38       -1.711290   1.000000
   39       -1.634830   1.000000
   40       -1.413818   1.000000
   41       -1.341757   1.000000
   42       -1.213031   1.000000
   43       -1.055633   1.000000
   44       -0.939120   1.000000
   45       -0.819632   1.000000
   46       -0.779118   1.000000
   47       -0.678133   1.000000
   48       -0.583327   1.000000
   49       -0.350534   1.000000
   50       -0.232217   1.000000
   51       -0.184099   1.000000
   52       -0.039368   1.000000
   53        0.051384   1.000000
   54        0.273023   1.000000
   55        0.324265   1.000000
   56        0.384262   1.000000
   57        0.466105   1.000000
   58        0.596744   1.000000
   59        0.757911   1.000000
   60        0.785838   1.000000
   61        0.937232   1.000000
   62        0.987170   1.000000
   63        1.235799   1.000000
   64        1.322279   1.000000
   65        1.388349   1.000000
   66        1.551597   1.000000
   67        1.595606   1.000000
   68        1.744152   1.000000
   69        1.845555   1.000000
   70        2.016220   1.000000
   71        2.127049   1.000000
   72        2.246044   1.000000
   73        2.349201   1.000000
   74        2.428962   1.000000
   75        2.514934   1.000000
   76        2.600207   1.000000
   77        2.696867   1.000000
   78        2.816661   1.000000
   79        3.048267   1.000000
   80        3.167338   1.000000
   81        3.203463   1.000000
   82        3.291500   1.000000
   83        3.427735   1.000000
   84        3.470776   1.000000
   85        3.618222   1.000000
   86        3.673438   1.000000
   87        3.786405   1.000000
   88        3.882436   1.000000
   89        3.992225   1.000000
   90        4.086658   1.000000
   91        4.134135   1.000000
   92        4.234757   1.000000
   93        4.446696   1.000000
   94        4.687895   1.000000
   95        4.804902   1.000000
   96        5.097316   1.000000
   97        7.194981   1.000000
   98        7.398124  -0.074392
   99        7.445119   0.000000
  100        7.592676   0.000000
  101        7.708538   0.000000
  102        7.792350   0.000000
  103        8.079504   0.000000
  104        8.203065   0.000000
  105        8.905728   0.000000
  106        9.244043   0.000000
  107        9.306867   0.000000
  108        9.461336   0.000000
  109        9.913521   0.000000
  110       10.040045   0.000000
  111       10.231319   0.000000
  112       10.475796   0.000000
  113       10.728727   0.000000
  114       10.768895   0.000000
  115       10.856228   0.000000
  116       11.134251   0.000000
  117       11.197779   0.000000
  118       11.253878   0.000000
  119       11.376284   0.000000
  120       11.490845   0.000000
  121       11.553223   0.000000
  122       11.641244   0.000000
  123       11.835276   0.000000
  124       11.865189   0.000000
  125       11.992845   0.000000
  126       12.282844   0.000000
  127       12.459185   0.000000
  128       12.639110   0.000000
 
  0.0000000E+00 -0.1666667E+00  0.1818182E+00  0.6060606E-02
    1      -11.920564   1.000000
    2      -11.325183   1.000000
    3      -11.021140   1.000000
    4      -10.939092   1.000000
    5      -10.683055   1.000000
    6      -10.244088   1.000000
    7       -9.092244   1.000000
    8       -8.798670   1.000000
    9       -8.652558   1.000000
   10       -8.448181   1.000000
   11       -8.419902   1.000000
   12       -8.161599   1.000000
   13       -8.099273   1.000000
   14       -7.041891   1.000000
   15       -6.680849   1.000000
   16       -6.282250   1.000000
   17       -5.618068   1.000000
   18       -5.546895   1.000000
   19       -5.314485   1.000000
   20       -5.223116   1.000000
   21       -4.895162   1.000000
   22       -4.698044   1.000000
   23       -4.452486   1.000000
   24       -4.268217   1.000000
   25       -3.956191   1.000000
   26       -3.698403   1.000000
   27       -3.331611   1.000000
   28       -3.141256   1.000000
   29       -2.980493   1.000000
   30       -2.953069   1.000000
   31       -2.763048   1.000000
   32       -2.503753   1.000000
   33       -2.459157   1.000000
   34       -2.390212   1.000000
   35       -2.220860   1.000000
   36       -2.130685   1.000000
   37       -2.062441   1.000000
   38       -1.868079   1.000000
   39       -1.560821   1.000000
   40       -1.464089   1.000000
   41       -1.321766   1.000000
   42       -1.186190   1.000000
   43       -0.977072   1.000000
   44       -0.894941   1.000000
   45       -0.684513   1.000000
   46       -0.675472   1.000000
   47       -0.500175   1.000000
   48       -0.405263   1.000000
   49       -0.291635   1.000000
   50       -0.252838   1.000000
   51       -0.074463   1.000000
   52        0.037884   1.000000
   53        0.142369   1.000000
   54        0.207705   1.000000
   55        0.326806   1.000000
   56        0.489828   1.000000
   57        0.560714   1.000000
   58        0.676546   1.000000
   59        0.762559   1.000000
   60        0.854443   1.000000
   61        0.968630   1.000000
   62        1.055149   1.000000
   63        1.123728   1.000000
   64        1.341347   1.000000
   65        1.392378   1.000000
   66        1.491599   1.000000
   67        1.533501   1.000000
   68        1.646878   1.000000
   69        1.825537   1.000000
   70        1.934100   1.000000
   71        2.004561   1.000000
   72        2.128736   1.000000
   73        2.289964   1.000000
   74        2.387393   1.000000
   75        2.540980   1.000000
   76        2.630272   1.000000
   77        2.751160   1.000000
   78        2.937119   1.000000
   79        2.999795   1.000000
   80        3.076635   1.000000
   81        3.163347   1.000000
   82        3.255000   1.000000
   83        3.362403   1.000000
   84        3.443542   1.000000
   85        3.527741   1.000000
   86        3.612711   1.000000
   87        3.671194   1.000000
   88        3.833096   1.000000
   89        4.047407   1.000000
   90        4.105063   1.000000
   91        4.216606   1.000000
   92        4.278580   1.000000
   93        4.567086   1.000000
   94        4.758816   1.000000
   95        4.845872   1.000000
   96        5.307202   1.000000
   97        7.106721   1.000000
   98        7.283373   0.571229
   99        7.494035   0.000000
  100        7.617984   0.000000
  101        7.691232   0.000000
  102        7.797355   0.000000
  103        8.015701   0.000000
  104        8.253587   0.000000
  105        8.704882   0.000000
  106        8.935796   0.000000
  107        9.061053   0.000000
  108        9.585915   0.000000
  109        9.728921   0.000000
  110       10.020438   0.000000
  111       10.293266   0.000000
  112       10.530837   0.000000
  113       10.697229   0.000000
  114       10.764763   0.000000
  115       10.885000   0.000000
  116       11.066864   0.000000
  117       11.361272   0.000000
  118       11.451630   0.000000
  119       11.506179   0.000000
  120       11.626124   0.000000
  121       11.829536   0.000000
  122       11.927083   0.000000
  123       11.990497   0.000000
  124       12.120231   0.000000
  125       12.235820   0.000000
  126       12.388276   0.000000
  127       12.555089   0.000000
  128       12.623012   0.000000
 
  0.2000000E+00 -0.1666667E+00  0.1818182E+00  0.6060606E-02
    1      -11.918286   1.000000
    2      -11.332811   1.000000
    3      -11.044961   1.000000
    4      -10.908299   1.000000
    5      -10.687072   1.000000
    6      -10.236381   1.000000
    7       -9.058420   1.000000
    8       -8.762488   1.000000
    9       -8.670758   1.000000
   10       -8.518023   1.000000
   11       -8.470051   1.000000
   12       -8.155556   1.000000
   13       -8.078012   1.000000
   14       -7.005996   1.000000
   15       -6.686233   1.000000
   16       -6.209267   1.000000
   17       -5.644215   1.000000
   18       -5.542082   1.000000
   19       -5.289497   1.000000
   20       -5.215944   1.000000
   21       -5.002625   1.000000
   22       -4.715530   1.000000
   23       -4.547288   1.000000
   24       -4.293736   1.000000
   25       -3.914420   1.000000
   26       -3.707083   1.000000
   27       -3.291555   1.000000
   28       -3.055434   1.000000
   29       -2.971860   1.000000
   30       -2.894847   1.000000
   31       -2.692570   1.000000
   32       -2.461690   1.000000
   33       -2.411299   1.000000
   34       -2.358060   1.000000
   35       -2.095018   1.000000
   36       -2.063516   1.000000
   37       -1.893989   1.000000
   38       -1.823811   1.000000
   39       -1.714281   1.000000
   40       -1.557689   1.000000
   41       -1.454157   1.000000
   42       -1.367943   1.000000
   43       -1.114286   1.000000
   44       -0.927442   1.000000
   45       -0.805544   1.000000
   46       -0.731297   1.000000
   47       -0.676896   1.000000
   48       -0.388755   1.000000
   49       -0.283866   1.000000
   50       -0.246084   1.000000
   51       -0.141055   1.000000
   52       -0.017163   1.000000
   53        0.061222   1.000000
   54        0.217951   1.000000
   55        0.332462   1.000000
   56        0.472394   1.000000
   57        0.590324   1.000000
   58        0.736600   1.000000
   59        0.834106   1.000000
   60        0.908399   1.000000
   61        0.974655   1.000000
   62        1.126914   1.000000
   63        1.148777   1.000000
   64        1.347862   1.000000
   65        1.449052   1.000000
   66        1.485473   1.000000
   67        1.675875   1.000000
   68        1.749636   1.000000
   69        1.863775   1.000000
   70        2.036168   1.000000
   71        2.123739   1.000000
   72        2.262534   1.000000
   73        2.350439   1.000000
   74        2.391585   1.000000
   75        2.536187   1.000000
   76        2.749762   1.000000
   77        2.802678   1.000000
   78        2.908677   1.000000
   79        2.986093   1.000000
   80        3.077250   1.000000
   81        3.137139   1.000000
   82        3.203132   1.000000
   83        3.301198   1.000000
   84        3.334954   1.000000
   85        3.463684   1.000000
   86        3.613909   1.000000
   87        3.664300   1.000000
   88        3.751273   1.000000
   89        4.025215   1.000000
   90        4.096643   1.000000
   91        4.216625   1.000000
   92        4.236707   1.000000
   93        4.460253   1.000000
   94        4.677562   1.000000
   95        4.769875   1.000000
   96        5.309358   1.000000
   97        7.033615   1.000000
   98        7.363819   0.124208
   99        7.561449   0.000000
  100        7.648860   0.000000
  101        7.702621   0.000000
  102        7.875328   0.000000
  103        8.040934   0.000000
  104        8.139168   0.000000
  105        8.644860   0.000000
  106        8.901256   0.000000
  107        9.197067   0.000000
  108        9.655762   0.000000
  109        9.767422   0.000000
  110        9.990096   0.000000
  111       10.205767   0.000000
  112       10.411179   0.000000
  113       10.656700   0.000000
  114       10.750460   0.000000
  115       10.912915   0.000000
  116       11.020645   0.000000
  117       11.259313   0.000000
  118       11.380465   0.000000
  119       11.438535   0.000000
  120       11.652361   0.000000
  121       11.763534   0.000000
  122       11.880991   0.000000
  123       11.999001   0.000000
  124       12.031601   0.000000
  125       12.203474   0.000000
  126       12.286073   0.000000
  127       12.457472   0.000000
  128       12.605188   0.000000
 
  0.4000000E+00 -0.1666667E+00  0.1818182E+00  0.6060606E-02
    1      -11.908011   1.000000
    2      -11.334272   1.000000
    3      -11.092769   1.000000
    4      -10.899116   1.000000
    5      -10.676432   1.000000
    6      -10.213303   1.000000
    7       -8.991766   1.000000
    8       -8.761099   1.000000
    9       -8.708990   1.000000
   10       -8.587634   1.000000
   11       -8.443687   1.000000
   12       -8.173745   1.000000
   13       -8.057174   1.000000
   14       -6.980839   1.000000
   15       -6.680551   1.000000
   16       -6.187006   1.000000
   17       -5.678589   1.000000
   18       -5.511259   1.000000
   19       -5.309605   1.000000
   20       -5.259768   1.000000
   21       -5.037255   1.000000
   22       -4.727989   1.000000
   23       -4.605867   1.000000
   24       -4.318697   1.000000
   25       -3.899365   1.000000
   26       -3.778272   1.000000
   27       -3.327047   1.000000
   28       -3.060478   1.000000
   29       -2.939233   1.000000
   30       -2.709308   1.000000
   31       -2.558536   1.000000
   32       -2.477824   1.000000
   33       -2.330265   1.000000
   34       -2.247948   1.000000
   35       -2.084802   1.000000
   36       -1.978008   1.000000
   37       -1.865363   1.000000
   38       -1.700448   1.000000
   39       -1.625154   1.000000
   40       -1.546286   1.000000
   41       -1.384724   1.000000
   42       -1.248750   1.000000
   43       -1.109983   1.000000
   44       -1.050651   1.000000
   45       -0.984663   1.000000
   46       -0.867804   1.000000
   47       -0.808070   1.000000
   48       -0.669673   1.000000
   49       -0.544445   1.000000
   50       -0.387949   1.000000
   51       -0.112493   1.000000
   52       -0.022959   1.000000
   53        0.070456   1.000000
   54        0.161601   1.000000
   55        0.270789   1.000000
   56        0.441171   1.000000
   57        0.633009   1.000000
   58        0.705099   1.000000
   59        0.811232   1.000000
   60        0.862347   1.000000
   61        0.921784   1.000000
   62        1.078693   1.000000
   63        1.245620   1.000000
   64        1.411111   1.000000
   65        1.507518   1.000000
   66        1.615407   1.000000
   67        1.697683   1.000000
   68        1.801332   1.000000
   69        1.993013   1.000000
   70        2.051496   1.000000
   71        2.242846   1.000000
   72        2.330040   1.000000
   73        2.440064   1.000000
   74        2.536841   1.000000
   75        2.650123   1.000000
   76        2.779819   1.000000
   77        2.868940   1.000000
   78        2.951555   1.000000
   79        3.004537   1.000000
   80        3.057757   1.000000
   81        3.091459   1.000000
   82        3.190693   1.000000
   83        3.279004   1.000000
   84        3.347719   1.000000
   85        3.462625   1.000000
   86        3.539823   1.000000
   87        3.698081   1.000000
   88        3.786397   1.000000
   89        3.926228   1.000000
   90        4.046664   1.000000
   91        4.115125   1.000000
   92        4.197507   1.000000
   93        4.293824   1.000000
   94        4.591668   1.000000
   95        4.687540   1.000000
   96        5.328533   1.000000
   97        7.092611   1.000000
   98        7.386910  -0.068018
   99        7.578644   0.000000
  100        7.671771   0.000000
  101        7.747428   0.000000
  102        7.881848   0.000000
  103        7.937542   0.000000
  104        8.191142   0.000000
  105        8.718559   0.000000
  106        8.908281   0.000000
  107        9.521193   0.000000
  108        9.784997   0.000000
  109        9.895024   0.000000
  110       10.081186   0.000000
  111       10.184541   0.000000
  112       10.302866   0.000000
  113       10.484789   0.000000
  114       10.684083   0.000000
  115       10.912923   0.000000
  116       10.965371   0.000000
  117       11.080615   0.000000
  118       11.253165   0.000000
  119       11.360710   0.000000
  120       11.574740   0.000000
  121       11.644269   0.000000
  122       11.716807   0.000000
  123       11.884173   0.000000
  124       12.002823   0.000000
  125       12.092821   0.000000
  126       12.197790   0.000000
  127       12.322827   0.000000
  128       12.614170   0.000000
 
 -0.4000000E+00 -0.1666667E+00  0.1818182E+00  0.6060606E-02
    1      -11.903786   1.000000
    2      -11.331672   1.000000
    3      -11.088581   1.000000
    4      -10.935793   1.000000
    5      -10.659503   1.000000
    6      -10.207496   1.000000
    7       -9.003530   1.000000
    8       -8.775761   1.000000
    9       -8.692131   1.000000
   10       -8.604526   1.000000
   11       -8.344477   1.000000
   12       -8.219137   1.000000
   13       -8.050334   1.000000
   14       -7.001821   1.000000
   15       -6.672752   1.000000
   16       -6.252543   1.000000
   17       -5.682122   1.000000
   18       -5.476025   1.000000
   19       -5.334010   1.000000
   20       -5.290674   1.000000
   21       -4.983929   1.000000
   22       -4.718584   1.000000
   23       -4.549520   1.000000
   24       -4.309756   1.000000
   25       -3.944235   1.000000
   26       -3.794634   1.000000
   27       -3.363372   1.000000
   28       -3.078160   1.000000
   29       -2.987691   1.000000
   30       -2.807325   1.000000
   31       -2.583004   1.000000
   32       -2.531340   1.000000
   33       -2.278779   1.000000
   34       -2.193054   1.000000
   35       -2.013641   1.000000
   36       -1.913117   1.000000
   37       -1.800948   1.000000
   38       -1.730704   1.000000
   39       -1.629487   1.000000
   40       -1.484525   1.000000
   41       -1.313649   1.000000
   42       -1.243570   1.000000
   43       -1.109589   1.000000
   44       -1.023625   1.000000
   45       -0.937290   1.000000
   46       -0.883918   1.000000
   47       -0.802159   1.000000
   48       -0.617562   1.000000
   49       -0.421690   1.000000
   50       -0.235888   1.000000
   51       -0.114170   1.000000
   52       -0.075236   1.000000
   53        0.046489   1.000000
   54        0.080535   1.000000
   55        0.252956   1.000000
   56        0.324295   1.000000
   57        0.534446   1.000000
   58        0.630210   1.000000
   59        0.768722   1.000000
   60        0.851100   1.000000
   61        0.889966   1.000000
   62        1.066263   1.000000
   63        1.177844   1.000000
   64        1.332818   1.000000
   65        1.444960   1.000000
   66        1.596751   1.000000
   67        1.683227   1.000000
   68        1.879582   1.000000
   69        1.924754   1.000000
   70        2.126750   1.000000
   71        2.229282   1.000000
   72        2.340480   1.000000
   73        2.390532   1.000000
   74        2.529983   1.000000
   75        2.672917   1.000000
   76        2.764851   1.000000
   77        2.817382   1.000000
   78        2.897831   1.000000
   79        3.018791   1.000000
   80        3.101984   1.000000
   81        3.132673   1.000000
   82        3.222412   1.000000
   83        3.257554   1.000000
   84        3.331723   1.000000
   85        3.534518   1.000000
   86        3.641352   1.000000
   87        3.721068   1.000000
   88        3.861010   1.000000
   89        3.933081   1.000000
   90        4.017541   1.000000
   91        4.085253   1.000000
   92        4.183976   1.000000
   93        4.342733   1.000000
   94        4.617161   1.000000
   95        4.705033   1.000000
   96        5.336075   1.000000
   97        7.216962   1.000000
   98        7.324814  -0.003122
   99        7.504906   0.000000
  100        7.625664   0.000000
  101        7.729337   0.000000
  102        7.762806   0.000000
  103        8.048159   0.000000
  104        8.252585   0.000000
  105        8.792025   0.000000
  106        8.955170   0.000000
  107        9.559251   0.000000
  108        9.845602   0.000000
  109        9.952322   0.000000
  110       10.149859   0.000000
  111       10.187631   0.000000
  112       10.389630   0.000000
  113       10.462460   0.000000
  114       10.641201   0.000000
  115       10.856403   0.000000
  116       11.027833   0.000000
  117       11.088033   0.000000
  118       11.224281   0.000000
  119       11.322902   0.000000
  120       11.408497   0.000000
  121       11.648900   0.000000
  122       11.741152   0.000000
  123       11.856291   0.000000
  124       11.899503   0.000000
  125       12.060139   0.000000
  126       12.249530   0.000000
  127       12.425028   0.000000
  128       12.654565   0.000000
 
 -0.2000000E+00 -0.1666667E+00  0.1818182E+00  0.6060606E-02
    1      -11.911816   1.000000
    2      -11.325565   1.000000
    3      -11.037468   1.000000
    4      -10.968712   1.000000
    5      -10.662873   1.000000
    6      -10.226021   1.000000
    7       -9.068297   1.000000
    8       -8.796188   1.000000
    9       -8.656176   1.000000
   10       -8.528032   1.000000
   11       -8.345794   1.000000
   12       -8.169842   1.000000
   13       -8.092552   1.000000
   14       -7.041789   1.000000
   15       -6.672229   1.000000
   16       -6.306645   1.000000
   17       -5.646216   1.000000
   18       -5.499411   1.000000
   19       -5.334153   1.000000
   20       -5.270650   1.000000
   21       -4.893728   1.000000
   22       -4.702882   1.000000
   23       -4.453205   1.000000
   24       -4.296395   1.000000
   25       -3.978301   1.000000
   26       -3.756658   1.000000
   27       -3.290579   1.000000
   28       -3.152360   1.000000
   29       -2.987744   1.000000
   30       -2.902942   1.000000
   31       -2.738479   1.000000
   32       -2.573541   1.000000
   33       -2.419933   1.000000
   34       -2.335963   1.000000
   35       -2.163766   1.000000
   36       -2.049665   1.000000
   37       -1.953190   1.000000
   38       -1.819144   1.000000
   39       -1.523448   1.000000
   40       -1.396583   1.000000
   41       -1.206721   1.000000
   42       -1.148357   1.000000
   43       -0.952196   1.000000
   44       -0.918683   1.000000
   45       -0.701271   1.000000
   46       -0.608897   1.000000
   47       -0.555749   1.000000
   48       -0.506501   1.000000
   49       -0.473598   1.000000
   50       -0.366896   1.000000
   51       -0.209037   1.000000
   52       -0.102068   1.000000
   53        0.086176   1.000000
   54        0.230120   1.000000
   55        0.302604   1.000000
   56        0.412375   1.000000
   57        0.630867   1.000000
   58        0.654729   1.000000
   59        0.738197   1.000000
   60        0.818727   1.000000
   61        0.861269   1.000000
   62        1.018775   1.000000
   63        1.128467   1.000000
   64        1.283807   1.000000
   65        1.400724   1.000000
   66        1.441207   1.000000
   67        1.593918   1.000000
   68        1.792185   1.000000
   69        1.892023   1.000000
   70        2.000441   1.000000
   71        2.062365   1.000000
   72        2.196546   1.000000
   73        2.346171   1.000000
   74        2.475104   1.000000
   75        2.590573   1.000000
   76        2.714553   1.000000
   77        2.759164   1.000000
   78        2.846688   1.000000
   79        3.000922   1.000000
   80        3.082500   1.000000
   81        3.177681   1.000000
   82        3.205439   1.000000
   83        3.317747   1.000000
   84        3.453540   1.000000
   85        3.557934   1.000000
   86        3.613151   1.000000
   87        3.717652   1.000000
   88        3.905844   1.000000
   89        4.009038   1.000000
   90        4.106536   1.000000
   91        4.167486   1.000000
   92        4.259510   1.000000
   93        4.491830   1.000000
   94        4.708810   1.000000
   95        4.789662   1.000000
   96        5.324054   1.000000
   97        7.176606   1.000000
   98        7.337720   0.149597
   99        7.480665   0.000000
  100        7.534611   0.000000
  101        7.695655   0.000000
  102        7.744803   0.000000
  103        8.084394   0.000000
  104        8.271934   0.000000
  105        8.766761   0.000000
  106        8.989933   0.000000
  107        9.261695   0.000000
  108        9.698088   0.000000
  109        9.874508   0.000000
  110       10.035584   0.000000
  111       10.229615   0.000000
  112       10.423270   0.000000
  113       10.618394   0.000000
  114       10.740197   0.000000
  115       10.887029   0.000000
  116       11.118341   0.000000
  117       11.290782   0.000000
  118       11.358908   0.000000
  119       11.493895   0.000000
  120       11.606368   0.000000
  121       11.730568   0.000000
  122       11.780722   0.000000
  123       11.875819   0.000000
  124       11.972391   0.000000
  125       12.173829   0.000000
  126       12.318601   0.000000
  127       12.471244   0.000000
  128       12.701708   0.000000
 
  0.0000000E+00  0.0000000E+00  0.2727273E+00  0.6060606E-02
    1      -11.823327   1.000000
    2      -11.199937   1.000000
    3      -10.973934   1.000000
    4      -10.913515   1.000000
    5      -10.730136   1.000000
    6      -10.301776   1.000000
    7       -9.184312   1.000000
    8       -8.913753   1.000000
    9       -8.767502   1.000000
   10       -8.552457   1.000000
   11       -8.425153   1.000000
   12       -8.105907   1.000000
   13       -8.063739   1.000000
   14       -7.030734   1.000000
   15       -6.805389   1.000000
   16       -6.255538   1.000000
   17       -5.780250   1.000000
   18       -5.514801   1.000000
   19       -5.375118   1.000000
   20       -5.258849   1.000000
   21       -4.836345   1.000000
   22       -4.794345   1.000000
   23       -4.662007   1.000000
   24       -4.211515   1.000000
   25       -3.954820   1.000000
   26       -3.564205   1.000000
   27       -3.413430   1.000000
   28       -3.217734   1.000000
   29       -3.096385   1.000000
   30       -2.986835   1.000000
   31       -2.874876   1.000000
   32       -2.717981   1.000000
   33       -2.453430   1.000000
   34       -2.395690   1.000000
   35       -2.207904   1.000000
   36       -2.133790   1.000000
   37       -1.804923   1.000000
   38       -1.666127   1.000000
   39       -1.484134   1.000000
   40       -1.224969   1.000000
   41       -1.044620   1.000000
   42       -0.932564   1.000000
   43       -0.877615   1.000000
   44       -0.815303   1.000000
   45       -0.732745   1.000000
   46       -0.544460   1.000000
   47       -0.444888   1.000000
   48       -0.322209   1.000000
   49       -0.256197   1.000000
   50       -0.101431   1.000000
   51        0.021222   1.000000
   52        0.105550   1.000000
   53        0.177340   1.000000
   54        0.307979   1.000000
   55        0.428785   1.000000
   56        0.468732   1.000000
   57        0.599083   1.000000
   58        0.682526   1.000000
   59        0.748906   1.000000
   60        0.869744   1.000000
   61        0.940337   1.000000
   62        0.973110   1.000000
   63        1.162746   1.000000
   64        1.267640   1.000000
   65        1.382309   1.000000
   66        1.470030   1.000000
   67        1.524132   1.000000
   68        1.605505   1.000000
   69        1.877115   1.000000
   70        1.978749   1.000000
   71        2.052117   1.000000
   72        2.198135   1.000000
   73        2.284694   1.000000
   74        2.391332   1.000000
   75        2.607850   1.000000
   76        2.708646   1.000000
   77        2.776884   1.000000
   78        2.861645   1.000000
   79        2.983701   1.000000
   80        3.076167   1.000000
   81        3.175164   1.000000
   82        3.231624   1.000000
   83        3.333032   1.000000
   84        3.449251   1.000000
   85        3.513568   1.000000
   86        3.604927   1.000000
   87        3.728366   1.000000
   88        3.973262   1.000000
   89        4.056693   1.000000
   90        4.143779   1.000000
   91        4.238709   1.000000
   92        4.304642   1.000000
   93        4.442900   1.000000
   94        4.567781   1.000000
   95        4.710121   1.000000
   96        5.212426   1.000000
   97        7.217490   1.000000
   98        7.309914   0.472483
   99        7.383068   0.000000
  100        7.430781   0.000000
  101        7.693621   0.000000
  102        7.793344   0.000000
  103        7.980669   0.000000
  104        8.235191   0.000000
  105        8.471424   0.000000
  106        8.775837   0.000000
  107        9.030165   0.000000
  108        9.530767   0.000000
  109        9.624167   0.000000
  110        9.861737   0.000000
  111        9.890730   0.000000
  112       10.169658   0.000000
  113       10.424308   0.000000
  114       10.705410   0.000000
  115       10.939552   0.000000
  116       11.100041   0.000000
  117       11.176248   0.000000
  118       11.259220   0.000000
  119       11.398844   0.000000
  120       11.520006   0.000000
  121       11.765301   0.000000
  122       11.841080   0.000000
  123       11.988948   0.000000
  124       12.132901   0.000000
  125       12.224821   0.000000
  126       12.440643   0.000000
  127       12.536060   0.000000
  128       12.612765   0.000000
 
  0.2000000E+00  0.1387779E-16  0.2727273E+00  0.6060606E-02
    1      -11.826751   1.000000
    2      -11.199874   1.000000
    3      -10.977472   1.000000
    4      -10.884936   1.000000
    5      -10.748247   1.000000
    6      -10.305744   1.000000
    7       -9.188155   1.000000
    8       -8.877778   1.000000
    9       -8.709756   1.000000
   10       -8.549595   1.000000
   11       -8.529993   1.000000
   12       -8.133703   1.000000
   13       -8.076767   1.000000
   14       -6.984143   1.000000
   15       -6.803275   1.000000
   16       -6.159695   1.000000
   17       -5.788670   1.000000
   18       -5.518525   1.000000
   19       -5.365467   1.000000
   20       -5.308516   1.000000
   21       -4.930873   1.000000
   22       -4.848953   1.000000
   23       -4.728532   1.000000
   24       -4.242147   1.000000
   25       -3.877408   1.000000
   26       -3.504299   1.000000
   27       -3.315210   1.000000
   28       -3.079070   1.000000
   29       -3.024243   1.000000
   30       -2.916337   1.000000
   31       -2.839317   1.000000
   32       -2.605404   1.000000
   33       -2.449783   1.000000
   34       -2.393562   1.000000
   35       -2.181513   1.000000
   36       -2.100912   1.000000
   37       -1.902659   1.000000
   38       -1.762429   1.000000
   39       -1.706770   1.000000
   40       -1.381664   1.000000
   41       -1.232544   1.000000
   42       -1.162452   1.000000
   43       -1.080907   1.000000
   44       -0.759208   1.000000
   45       -0.736179   1.000000
   46       -0.490422   1.000000
   47       -0.366479   1.000000
   48       -0.325987   1.000000
   49       -0.238195   1.000000
   50       -0.161860   1.000000
   51       -0.020964   1.000000
   52        0.083349   1.000000
   53        0.309904   1.000000
   54        0.346604   1.000000
   55        0.419581   1.000000
   56        0.495626   1.000000
   57        0.593827   1.000000
   58        0.723806   1.000000
   59        0.759501   1.000000
   60        0.860279   1.000000
   61        1.089841   1.000000
   62        1.113440   1.000000
   63        1.221142   1.000000
   64        1.320997   1.000000
   65        1.387194   1.000000
   66        1.535960   1.000000
   67        1.616995   1.000000
   68        1.758529   1.000000
   69        1.826626   1.000000
   70        1.987623   1.000000
   71        2.130403   1.000000
   72        2.282695   1.000000
   73        2.322827   1.000000
   74        2.415515   1.000000
   75        2.590973   1.000000
   76        2.695129   1.000000
   77        2.780500   1.000000
   78        2.831919   1.000000
   79        3.018365   1.000000
   80        3.069180   1.000000
   81        3.155712   1.000000
   82        3.259108   1.000000
   83        3.321844   1.000000
   84        3.360602   1.000000
   85        3.469659   1.000000
   86        3.545480   1.000000
   87        3.763632   1.000000
   88        3.912008   1.000000
   89        4.022637   1.000000
   90        4.070976   1.000000
   91        4.153109   1.000000
   92        4.225591   1.000000
   93        4.416625   1.000000
   94        4.498919   1.000000
   95        4.690456   1.000000
   96        5.157721   1.000000
   97        7.073458   1.000000
   98        7.341177   0.193423
   99        7.466551   0.000000
  100        7.518444   0.000000
  101        7.687490   0.000000
  102        7.816682   0.000000
  103        8.047939   0.000000
  104        8.203761   0.000000
  105        8.523721   0.000000
  106        8.797470   0.000000
  107        8.986565   0.000000
  108        9.541668   0.000000
  109        9.678883   0.000000
  110        9.873437   0.000000
  111        9.951415   0.000000
  112       10.286868   0.000000
  113       10.389224   0.000000
  114       10.622893   0.000000
  115       10.812846   0.000000
  116       10.917464   0.000000
  117       11.105899   0.000000
  118       11.201448   0.000000
  119       11.294611   0.000000
  120       11.461443   0.000000
  121       11.655110   0.000000
  122       11.734439   0.000000
  123       11.968177   0.000000
  124       12.146064   0.000000
  125       12.156854   0.000000
  126       12.353543   0.000000
  127       12.524495   0.000000
  128       12.591891   0.000000
 
  0.4000000E+00  0.2775558E-16  0.2727273E+00  0.6060606E-02
    1      -11.818007   1.000000
    2      -11.205413   1.000000
    3      -11.020253   1.000000
    4      -10.864807   1.000000
    5      -10.748168   1.000000
    6      -10.287417   1.000000
    7       -9.140642   1.000000
    8       -8.852508   1.000000
    9       -8.724993   1.000000
   10       -8.603746   1.000000
   11       -8.533261   1.000000
   12       -8.126729   1.000000
   13       -8.105091   1.000000
   14       -6.965857   1.000000
   15       -6.795104   1.000000
   16       -6.101444   1.000000
   17       -5.751884   1.000000
   18       -5.580962   1.000000
   19       -5.367288   1.000000
   20       -5.263826   1.000000
   21       -5.019519   1.000000
   22       -4.932864   1.000000
   23       -4.830397   1.000000
   24       -4.240628   1.000000
   25       -3.939051   1.000000
   26       -3.523321   1.000000
   27       -3.217926   1.000000
   28       -3.089982   1.000000
   29       -2.961877   1.000000
   30       -2.794809   1.000000
   31       -2.571575   1.000000
   32       -2.511771   1.000000
   33       -2.285644   1.000000
   34       -2.215930   1.000000
   35       -2.130551   1.000000
   36       -2.020135   1.000000
   37       -1.923638   1.000000
   38       -1.826561   1.000000
   39       -1.640094   1.000000
   40       -1.529341   1.000000
   41       -1.432287   1.000000
   42       -1.272500   1.000000
   43       -1.229502   1.000000
   44       -0.956713   1.000000
   45       -0.727272   1.000000
   46       -0.658114   1.000000
   47       -0.607593   1.000000
   48       -0.537555   1.000000
   49       -0.405245   1.000000
   50       -0.244378   1.000000
   51       -0.011970   1.000000
   52        0.074124   1.000000
   53        0.197536   1.000000
   54        0.354644   1.000000
   55        0.446645   1.000000
   56        0.560951   1.000000
   57        0.638703   1.000000
   58        0.762451   1.000000
   59        0.880022   1.000000
   60        0.997968   1.000000
   61        1.133911   1.000000
   62        1.172306   1.000000
   63        1.258790   1.000000
   64        1.359275   1.000000
   65        1.508259   1.000000
   66        1.687044   1.000000
   67        1.756808   1.000000
   68        1.823231   1.000000
   69        1.941249   1.000000
   70        2.069971   1.000000
   71        2.109204   1.000000
   72        2.307179   1.000000
   73        2.421448   1.000000
   74        2.584058   1.000000
   75        2.656797   1.000000
   76        2.788615   1.000000
   77        2.817271   1.000000
   78        2.877948   1.000000
   79        2.956350   1.000000
   80        3.037779   1.000000
   81        3.149115   1.000000
   82        3.197750   1.000000
   83        3.232916   1.000000
   84        3.342915   1.000000
   85        3.429611   1.000000
   86        3.523176   1.000000
   87        3.694393   1.000000
   88        3.859187   1.000000
   89        3.909792   1.000000
   90        4.034520   1.000000
   91        4.068910   1.000000
   92        4.159443   1.000000
   93        4.323569   1.000000
   94        4.368284   1.000000
   95        4.611620   1.000000
   96        5.150747   1.000000
   97        7.028539   1.000000
   98        7.414285  -0.065103
   99        7.525604   0.000000
  100        7.586274   0.000000
  101        7.733951   0.000000
  102        7.853357   0.000000
  103        8.043283   0.000000
  104        8.173756   0.000000
  105        8.547640   0.000000
  106        8.890170   0.000000
  107        9.133289   0.000000
  108        9.666017   0.000000
  109        9.769185   0.000000
  110        9.900951   0.000000
  111       10.077742   0.000000
  112       10.134156   0.000000
  113       10.367106   0.000000
  114       10.493791   0.000000
  115       10.618019   0.000000
  116       10.826349   0.000000
  117       10.936704   0.000000
  118       11.094809   0.000000
  119       11.278901   0.000000
  120       11.438388   0.000000
  121       11.464460   0.000000
  122       11.647205   0.000000
  123       11.947964   0.000000
  124       12.013202   0.000000
  125       12.173484   0.000000
  126       12.226446   0.000000
  127       12.366672   0.000000
  128       12.576647   0.000000
 
 -0.4000000E+00 -0.2775558E-16  0.2727273E+00  0.6060606E-02
    1      -11.808684   1.000000
    2      -11.211472   1.000000
    3      -11.039015   1.000000
    4      -10.885494   1.000000
    5      -10.726332   1.000000
    6      -10.273453   1.000000
    7       -9.085816   1.000000
    8       -8.894277   1.000000
    9       -8.824436   1.000000
   10       -8.610810   1.000000
   11       -8.384680   1.000000
   12       -8.200849   1.000000
   13       -8.048884   1.000000
   14       -6.992889   1.000000
   15       -6.799508   1.000000
   16       -6.179716   1.000000
   17       -5.715224   1.000000
   18       -5.605540   1.000000
   19       -5.331025   1.000000
   20       -5.223895   1.000000
   21       -4.988526   1.000000
   22       -4.944423   1.000000
   23       -4.823902   1.000000
   24       -4.203231   1.000000
   25       -4.041572   1.000000
   26       -3.574538   1.000000
   27       -3.342916   1.000000
   28       -3.153006   1.000000
   29       -3.014196   1.000000
   30       -2.736724   1.000000
   31       -2.661706   1.000000
   32       -2.396200   1.000000
   33       -2.247215   1.000000
   34       -2.221084   1.000000
   35       -2.059354   1.000000
   36       -1.940656   1.000000
   37       -1.760135   1.000000
   38       -1.706507   1.000000
   39       -1.520102   1.000000
   40       -1.429747   1.000000
   41       -1.326759   1.000000
   42       -1.221460   1.000000
   43       -1.162566   1.000000
   44       -1.005421   1.000000
   45       -0.947519   1.000000
   46       -0.819717   1.000000
   47       -0.636117   1.000000
   48       -0.543535   1.000000
   49       -0.417056   1.000000
   50       -0.315110   1.000000
   51       -0.088313   1.000000
   52        0.052745   1.000000
   53        0.212649   1.000000
   54        0.306558   1.000000
   55        0.425585   1.000000
   56        0.485517   1.000000
   57        0.620673   1.000000
   58        0.711699   1.000000
   59        0.783697   1.000000
   60        0.988035   1.000000
   61        1.066149   1.000000
   62        1.150220   1.000000
   63        1.354568   1.000000
   64        1.393036   1.000000
   65        1.520968   1.000000
   66        1.620163   1.000000
   67        1.780108   1.000000
   68        1.867926   1.000000
   69        2.042609   1.000000
   70        2.113602   1.000000
   71        2.246777   1.000000
   72        2.273040   1.000000
   73        2.435727   1.000000
   74        2.556784   1.000000
   75        2.658398   1.000000
   76        2.715732   1.000000
   77        2.785596   1.000000
   78        2.858914   1.000000
   79        2.916145   1.000000
   80        3.034206   1.000000
   81        3.075630   1.000000
   82        3.178199   1.000000
   83        3.221307   1.000000
   84        3.356703   1.000000
   85        3.462671   1.000000
   86        3.618843   1.000000
   87        3.705115   1.000000
   88        3.888023   1.000000
   89        3.956095   1.000000
   90        4.029777   1.000000
   91        4.107241   1.000000
   92        4.184634   1.000000
   93        4.321889   1.000000
   94        4.362423   1.000000
   95        4.574407   1.000000
   96        5.189785   1.000000
   97        7.109639   1.000000
   98        7.363958  -0.083471
   99        7.485741   0.000000
  100        7.628148   0.000000
  101        7.785039   0.000000
  102        7.842288   0.000000
  103        7.962696   0.000000
  104        8.206001   0.000000
  105        8.502875   0.000000
  106        8.931858   0.000000
  107        9.243411   0.000000
  108        9.666055   0.000000
  109        9.802315   0.000000
  110        9.929835   0.000000
  111       10.094515   0.000000
  112       10.148073   0.000000
  113       10.197945   0.000000
  114       10.420724   0.000000
  115       10.718780   0.000000
  116       10.883891   0.000000
  117       10.976398   0.000000
  118       11.203085   0.000000
  119       11.291963   0.000000
  120       11.381035   0.000000
  121       11.537358   0.000000
  122       11.646951   0.000000
  123       11.809449   0.000000
  124       11.961445   0.000000
  125       12.150877   0.000000
  126       12.200359   0.000000
  127       12.324715   0.000000
  128       12.565375   0.000000
 
 -0.2000000E+00 -0.1387779E-16  0.2727273E+00  0.6060606E-02
    1      -11.812140   1.000000
    2      -11.209336   1.000000
    3      -11.009479   1.000000
    4      -10.914170   1.000000
    5      -10.716737   1.000000
    6      -10.281650   1.000000
    7       -9.125086   1.000000
    8       -8.920443   1.000000
    9       -8.824331   1.000000
   10       -8.591521   1.000000
   11       -8.317093   1.000000
   12       -8.203812   1.000000
   13       -8.019699   1.000000
   14       -7.036871   1.000000
   15       -6.804635   1.000000
   16       -6.266537   1.000000
   17       -5.736042   1.000000
   18       -5.587933   1.000000
   19       -5.272691   1.000000
   20       -5.255469   1.000000
   21       -4.900110   1.000000
   22       -4.861247   1.000000
   23       -4.711116   1.000000
   24       -4.194810   1.000000
   25       -4.053996   1.000000
   26       -3.537011   1.000000
   27       -3.425468   1.000000
   28       -3.333059   1.000000
   29       -3.051405   1.000000
   30       -2.895902   1.000000
   31       -2.820723   1.000000
   32       -2.609732   1.000000
   33       -2.334827   1.000000
   34       -2.269738   1.000000
   35       -2.128119   1.000000
   36       -1.944615   1.000000
   37       -1.650332   1.000000
   38       -1.623264   1.000000
   39       -1.475778   1.000000
   40       -1.361910   1.000000
   41       -1.145424   1.000000
   42       -1.034584   1.000000
   43       -0.974774   1.000000
   44       -0.913013   1.000000
   45       -0.835626   1.000000
   46       -0.647244   1.000000
   47       -0.552674   1.000000
   48       -0.341930   1.000000
   49       -0.302184   1.000000
   50       -0.149378   1.000000
   51       -0.061892   1.000000
   52        0.012766   1.000000
   53        0.069082   1.000000
   54        0.194793   1.000000
   55        0.415109   1.000000
   56        0.498721   1.000000
   57        0.604582   1.000000
   58        0.642750   1.000000
   59        0.782185   1.000000
   60        0.829305   1.000000
   61        0.978302   1.000000
   62        1.048799   1.000000
   63        1.251780   1.000000
   64        1.279683   1.000000
   65        1.421541   1.000000
   66        1.584937   1.000000
   67        1.626707   1.000000
   68        1.802358   1.000000
   69        1.887675   1.000000
   70        2.054269   1.000000
   71        2.210761   1.000000
   72        2.262094   1.000000
   73        2.321161   1.000000
   74        2.466076   1.000000
   75        2.603944   1.000000
   76        2.730041   1.000000
   77        2.776088   1.000000
   78        2.830036   1.000000
   79        2.886767   1.000000
   80        3.050448   1.000000
   81        3.156455   1.000000
   82        3.187830   1.000000
   83        3.349767   1.000000
   84        3.390091   1.000000
   85        3.534486   1.000000
   86        3.650547   1.000000
   87        3.696922   1.000000
   88        3.884821   1.000000
   89        3.965905   1.000000
   90        4.158526   1.000000
   91        4.258258   1.000000
   92        4.316569   1.000000
   93        4.387627   1.000000
   94        4.480742   1.000000
   95        4.629832   1.000000
   96        5.223674   1.000000
   97        7.227212   1.000000
   98        7.308446   0.229368
   99        7.409697   0.000000
  100        7.536858   0.000000
  101        7.680750   0.000000
  102        7.823017   0.000000
  103        7.992915   0.000000
  104        8.218160   0.000000
  105        8.450506   0.000000
  106        8.949610   0.000000
  107        9.074434   0.000000
  108        9.633285   0.000000
  109        9.734046   0.000000
  110        9.799699   0.000000
  111        9.971581   0.000000
  112       10.091032   0.000000
  113       10.337120   0.000000
  114       10.532756   0.000000
  115       10.937449   0.000000
  116       11.027411   0.000000
  117       11.160774   0.000000
  118       11.278431   0.000000
  119       11.319658   0.000000
  120       11.492256   0.000000
  121       11.665237   0.000000
  122       11.782420   0.000000
  123       11.885778   0.000000
  124       12.067544   0.000000
  125       12.178606   0.000000
  126       12.372600   0.000000
  127       12.443667   0.000000
  128       12.579067   0.000000
 
  0.0000000E+00  0.1666667E+00  0.2727273E+00  0.6060606E-02
    1      -11.835275   1.000000
    2      -11.150589   1.000000
    3      -10.960220   1.000000
    4      -10.937399   1.000000
    5      -10.766313   1.000000
    6      -10.292160   1.000000
    7       -9.149763   1.000000
    8       -8.951722   1.000000
    9       -8.824038   1.000000
   10       -8.522588   1.000000
   11       -8.296636   1.000000
   12       -8.197543   1.000000
   13       -8.092848   1.000000
   14       -7.034965   1.000000
   15       -6.770284   1.000000
   16       -6.270073   1.000000
   17       -5.788071   1.000000
   18       -5.586492   1.000000
   19       -5.283048   1.000000
   20       -5.170870   1.000000
   21       -4.896003   1.000000
   22       -4.792722   1.000000
   23       -4.727322   1.000000
   24       -4.356521   1.000000
   25       -3.859658   1.000000
   26       -3.481249   1.000000
   27       -3.310406   1.000000
   28       -3.154071   1.000000
   29       -3.110987   1.000000
   30       -2.919705   1.000000
   31       -2.729308   1.000000
   32       -2.660826   1.000000
   33       -2.578762   1.000000
   34       -2.488832   1.000000
   35       -2.223246   1.000000
   36       -2.029024   1.000000
   37       -1.814155   1.000000
   38       -1.737575   1.000000
   39       -1.553441   1.000000
   40       -1.442371   1.000000
   41       -1.158979   1.000000
   42       -1.090941   1.000000
   43       -0.988914   1.000000
   44       -0.831359   1.000000
   45       -0.751763   1.000000
   46       -0.605423   1.000000
   47       -0.464838   1.000000
   48       -0.326949   1.000000
   49       -0.179062   1.000000
   50       -0.004463   1.000000
   51        0.037704   1.000000
   52        0.078149   1.000000
   53        0.218051   1.000000
   54        0.329954   1.000000
   55        0.446185   1.000000
   56        0.609552   1.000000
   57        0.656886   1.000000
   58        0.711477   1.000000
   59        0.826628   1.000000
   60        0.863256   1.000000
   61        0.957682   1.000000
   62        1.077389   1.000000
   63        1.136603   1.000000
   64        1.285190   1.000000
   65        1.370104   1.000000
   66        1.453379   1.000000
   67        1.541548   1.000000
   68        1.693889   1.000000
   69        1.916938   1.000000
   70        1.980161   1.000000
   71        2.141878   1.000000
   72        2.199053   1.000000
   73        2.268358   1.000000
   74        2.354855   1.000000
   75        2.566317   1.000000
   76        2.660261   1.000000
   77        2.767906   1.000000
   78        2.898391   1.000000
   79        3.002328   1.000000
   80        3.106144   1.000000
   81        3.179871   1.000000
   82        3.263275   1.000000
   83        3.328643   1.000000
   84        3.429539   1.000000
   85        3.507720   1.000000
   86        3.579401   1.000000
   87        3.708813   1.000000
   88        3.915692   1.000000
   89        4.046415   1.000000
   90        4.176675   1.000000
   91        4.234599   1.000000
   92        4.339292   1.000000
   93        4.424321   1.000000
   94        4.545953   1.000000
   95        4.605990   1.000000
   96        5.126020   1.000000
   97        7.114993   1.000000
   98        7.272152   1.055336
   99        7.446836   0.000000
  100        7.490142   0.000000
  101        7.666802   0.000000
  102        7.857232   0.000000
  103        7.990101   0.000000
  104        8.236647   0.000000
  105        8.464079   0.000000
  106        8.854521   0.000000
  107        9.012099   0.000000
  108        9.451788   0.000000
  109        9.658167   0.000000
  110        9.866426   0.000000
  111        9.915161   0.000000
  112       10.312204   0.000000
  113       10.423359   0.000000
  114       10.689817   0.000000
  115       10.820286   0.000000
  116       10.930470   0.000000
  117       11.104101   0.000000
  118       11.229912   0.000000
  119       11.350329   0.000000
  120       11.483865   0.000000
  121       11.707571   0.000000
  122       11.844884   0.000000
  123       11.946526   0.000000
  124       12.093688   0.000000
  125       12.207700   0.000000
  126       12.241983   0.000000
  127       12.520209   0.000000
  128       12.598909   0.000000
 
  0.2000000E+00  0.1666667E+00  0.2727273E+00  0.6060606E-02
    1      -11.842111   1.000000
    2      -11.134321   1.000000
    3      -10.964485   1.000000
    4      -10.919044   1.000000
    5      -10.779478   1.000000
    6      -10.303869   1.000000
    7       -9.166312   1.000000
    8       -8.931348   1.000000
    9       -8.757055   1.000000
   10       -8.546397   1.000000
   11       -8.418379   1.000000
   12       -8.230478   1.000000
   13       -8.023210   1.000000
   14       -6.970466   1.000000
   15       -6.765368   1.000000
   16       -6.198723   1.000000
   17       -5.829043   1.000000
   18       -5.558974   1.000000
   19       -5.319894   1.000000
   20       -5.216592   1.000000
   21       -5.014846   1.000000
   22       -4.807074   1.000000
   23       -4.700161   1.000000
   24       -4.382107   1.000000
   25       -3.802640   1.000000
   26       -3.464712   1.000000
   27       -3.237620   1.000000
   28       -3.124331   1.000000
   29       -3.039909   1.000000
   30       -2.823438   1.000000
   31       -2.778970   1.000000
   32       -2.641756   1.000000
   33       -2.527065   1.000000
   34       -2.453701   1.000000
   35       -2.316351   1.000000
   36       -2.010026   1.000000
   37       -1.944100   1.000000
   38       -1.758038   1.000000
   39       -1.647368   1.000000
   40       -1.464363   1.000000
   41       -1.199108   1.000000
   42       -1.129690   1.000000
   43       -0.904988   1.000000
   44       -0.742089   1.000000
   45       -0.717390   1.000000
   46       -0.614072   1.000000
   47       -0.459839   1.000000
   48       -0.361581   1.000000
   49       -0.274895   1.000000
   50       -0.020355   1.000000
   51        0.046004   1.000000
   52        0.104792   1.000000
   53        0.196974   1.000000
   54        0.290157   1.000000
   55        0.330130   1.000000
   56        0.454997   1.000000
   57        0.605897   1.000000
   58        0.788879   1.000000
   59        0.867027   1.000000
   60        0.905676   1.000000
   61        0.980529   1.000000
   62        1.050939   1.000000
   63        1.172069   1.000000
   64        1.231254   1.000000
   65        1.409001   1.000000
   66        1.524901   1.000000
   67        1.617751   1.000000
   68        1.756888   1.000000
   69        1.927354   1.000000
   70        1.994382   1.000000
   71        2.073395   1.000000
   72        2.269096   1.000000
   73        2.300580   1.000000
   74        2.493108   1.000000
   75        2.579224   1.000000
   76        2.698658   1.000000
   77        2.760721   1.000000
   78        2.913342   1.000000
   79        3.006548   1.000000
   80        3.074793   1.000000
   81        3.200130   1.000000
   82        3.240836   1.000000
   83        3.384100   1.000000
   84        3.425566   1.000000
   85        3.533946   1.000000
   86        3.648058   1.000000
   87        3.792078   1.000000
   88        3.972335   1.000000
   89        4.053743   1.000000
   90        4.067956   1.000000
   91        4.161860   1.000000
   92        4.238199   1.000000
   93        4.347382   1.000000
   94        4.461966   1.000000
   95        4.611478   1.000000
   96        5.068633   1.000000
   97        7.075996   1.000000
   98        7.167150   1.103229
   99        7.475772   0.000000
  100        7.589874   0.000000
  101        7.711281   0.000000
  102        7.836822   0.000000
  103        8.003864   0.000000
  104        8.238174   0.000000
  105        8.498672   0.000000
  106        8.831740   0.000000
  107        9.029661   0.000000
  108        9.441365   0.000000
  109        9.684279   0.000000
  110        9.842630   0.000000
  111        9.959612   0.000000
  112       10.352646   0.000000
  113       10.427101   0.000000
  114       10.574184   0.000000
  115       10.766879   0.000000
  116       10.867724   0.000000
  117       11.002656   0.000000
  118       11.109918   0.000000
  119       11.323225   0.000000
  120       11.523447   0.000000
  121       11.583898   0.000000
  122       11.654751   0.000000
  123       11.924182   0.000000
  124       12.001190   0.000000
  125       12.106907   0.000000
  126       12.239819   0.000000
  127       12.542674   0.000000
  128       12.708606   0.000000
 
  0.4000000E+00  0.1666667E+00  0.2727273E+00  0.6060606E-02
    1      -11.834432   1.000000
    2      -11.149170   1.000000
    3      -10.981032   1.000000
    4      -10.909459   1.000000
    5      -10.787594   1.000000
    6      -10.282160   1.000000
    7       -9.134070   1.000000
    8       -8.903313   1.000000
    9       -8.667217   1.000000
   10       -8.648450   1.000000
   11       -8.509853   1.000000
   12       -8.223883   1.000000
   13       -8.006204   1.000000
   14       -6.947196   1.000000
   15       -6.755234   1.000000
   16       -6.138339   1.000000
   17       -5.808465   1.000000
   18       -5.606617   1.000000
   19       -5.314668   1.000000
   20       -5.260732   1.000000
   21       -5.071427   1.000000
   22       -4.874012   1.000000
   23       -4.764689   1.000000
   24       -4.376208   1.000000
   25       -3.830597   1.000000
   26       -3.471169   1.000000
   27       -3.194447   1.000000
   28       -3.084146   1.000000
   29       -3.004030   1.000000
   30       -2.749387   1.000000
   31       -2.661032   1.000000
   32       -2.514205   1.000000
   33       -2.404310   1.000000
   34       -2.324674   1.000000
   35       -2.136994   1.000000
   36       -2.026355   1.000000
   37       -1.968027   1.000000
   38       -1.797965   1.000000
   39       -1.577218   1.000000
   40       -1.466020   1.000000
   41       -1.358927   1.000000
   42       -1.258277   1.000000
   43       -1.036729   1.000000
   44       -0.951979   1.000000
   45       -0.792001   1.000000
   46       -0.687315   1.000000
   47       -0.583666   1.000000
   48       -0.407988   1.000000
   49       -0.282288   1.000000
   50       -0.202395   1.000000
   51       -0.144781   1.000000
   52       -0.035301   1.000000
   53        0.092179   1.000000
   54        0.316595   1.000000
   55        0.424210   1.000000
   56        0.498863   1.000000
   57        0.596998   1.000000
   58        0.787498   1.000000
   59        0.915656   1.000000
   60        1.004910   1.000000
   61        1.085695   1.000000
   62        1.131863   1.000000
   63        1.249521   1.000000
   64        1.384782   1.000000
   65        1.439543   1.000000
   66        1.501779   1.000000
   67        1.704063   1.000000
   68        1.837629   1.000000
   69        1.963979   1.000000
   70        2.025019   1.000000
   71        2.149408   1.000000
   72        2.326386   1.000000
   73        2.490082   1.000000
   74        2.574467   1.000000
   75        2.671158   1.000000
   76        2.813946   1.000000
   77        2.851762   1.000000
   78        2.890057   1.000000
   79        2.994310   1.000000
   80        3.060947   1.000000
   81        3.184225   1.000000
   82        3.271217   1.000000
   83        3.319594   1.000000
   84        3.422302   1.000000
   85        3.499797   1.000000
   86        3.621939   1.000000
   87        3.730843   1.000000
   88        3.882264   1.000000
   89        3.954878   1.000000
   90        4.009274   1.000000
   91        4.062051   1.000000
   92        4.107968   1.000000
   93        4.301796   1.000000
   94        4.352897   1.000000
   95        4.564320   1.000000
   96        5.046409   1.000000
   97        7.033152   1.000000
   98        7.295507   0.758830
   99        7.424248   0.000000
  100        7.649808   0.000000
  101        7.762624   0.000000
  102        7.847482   0.000000
  103        8.077798   0.000000
  104        8.172743   0.000000
  105        8.528740   0.000000
  106        8.938185   0.000000
  107        9.137193   0.000000
  108        9.599576   0.000000
  109        9.724125   0.000000
  110        9.899108   0.000000
  111        9.968896   0.000000
  112       10.225132   0.000000
  113       10.399676   0.000000
  114       10.489478   0.000000
  115       10.676231   0.000000
  116       10.848629   0.000000
  117       10.934161   0.000000
  118       11.024553   0.000000
  119       11.217350   0.000000
  120       11.340262   0.000000
  121       11.442028   0.000000
  122       11.534442   0.000000
  123       11.851094   0.000000
  124       11.954798   0.000000
  125       12.049285   0.000000
  126       12.196889   0.000000
  127       12.449871   0.000000
  128       12.669928   0.000000
 
 -0.4000000E+00  0.1666667E+00  0.2727273E+00  0.6060606E-02
    1      -11.822187   1.000000
    2      -11.176357   1.000000
    3      -10.987754   1.000000
    4      -10.921103   1.000000
    5      -10.776314   1.000000
    6      -10.259282   1.000000
    7       -9.085215   1.000000
    8       -8.912379   1.000000
    9       -8.796976   1.000000
   10       -8.590159   1.000000
   11       -8.445719   1.000000
   12       -8.197237   1.000000
   13       -8.041561   1.000000
   14       -6.985461   1.000000
   15       -6.764672   1.000000
   16       -6.198021   1.000000
   17       -5.747456   1.000000
   18       -5.635654   1.000000
   19       -5.249429   1.000000
   20       -5.234619   1.000000
   21       -5.032071   1.000000
   22       -4.905601   1.000000
   23       -4.839028   1.000000
   24       -4.338261   1.000000
   25       -3.899145   1.000000
   26       -3.478029   1.000000
   27       -3.214910   1.000000
   28       -3.113357   1.000000
   29       -3.016831   1.000000
   30       -2.803060   1.000000
   31       -2.601065   1.000000
   32       -2.513765   1.000000
   33       -2.321013   1.000000
   34       -2.269511   1.000000
   35       -2.085223   1.000000
   36       -1.944906   1.000000
   37       -1.833234   1.000000
   38       -1.672970   1.000000
   39       -1.581652   1.000000
   40       -1.481848   1.000000
   41       -1.314281   1.000000
   42       -1.179033   1.000000
   43       -1.165795   1.000000
   44       -1.022850   1.000000
   45       -0.957907   1.000000
   46       -0.807074   1.000000
   47       -0.611283   1.000000
   48       -0.497220   1.000000
   49       -0.414563   1.000000
   50       -0.290659   1.000000
   51       -0.179798   1.000000
   52       -0.039379   1.000000
   53        0.089669   1.000000
   54        0.340783   1.000000
   55        0.439517   1.000000
   56        0.500499   1.000000
   57        0.654717   1.000000
   58        0.762781   1.000000
   59        0.879334   1.000000
   60        0.947748   1.000000
   61        1.162474   1.000000
   62        1.209976   1.000000
   63        1.387955   1.000000
   64        1.439109   1.000000
   65        1.509190   1.000000
   66        1.630649   1.000000
   67        1.741357   1.000000
   68        1.902236   1.000000
   69        2.001272   1.000000
   70        2.121383   1.000000
   71        2.163609   1.000000
   72        2.289409   1.000000
   73        2.439509   1.000000
   74        2.593914   1.000000
   75        2.612742   1.000000
   76        2.684288   1.000000
   77        2.814048   1.000000
   78        2.856648   1.000000
   79        2.968213   1.000000
   80        3.071006   1.000000
   81        3.102567   1.000000
   82        3.167514   1.000000
   83        3.330732   1.000000
   84        3.421841   1.000000
   85        3.494251   1.000000
   86        3.579443   1.000000
   87        3.677136   1.000000
   88        3.899017   1.000000
   89        3.963741   1.000000
   90        4.013274   1.000000
   91        4.084852   1.000000
   92        4.146613   1.000000
   93        4.316015   1.000000
   94        4.362440   1.000000
   95        4.516898   1.000000
   96        5.084545   1.000000
   97        7.129911   1.000000
   98        7.236693   1.016291
   99        7.475425   0.000000
  100        7.618423   0.000000
  101        7.809184   0.000000
  102        7.886703   0.000000
  103        7.993108   0.000000
  104        8.191897   0.000000
  105        8.519977   0.000000
  106        8.917569   0.000000
  107        9.289158   0.000000
  108        9.678721   0.000000
  109        9.770419   0.000000
  110        9.922836   0.000000
  111       10.072736   0.000000
  112       10.123564   0.000000
  113       10.330557   0.000000
  114       10.475508   0.000000
  115       10.606951   0.000000
  116       10.811851   0.000000
  117       11.001438   0.000000
  118       11.120846   0.000000
  119       11.159009   0.000000
  120       11.393935   0.000000
  121       11.499973   0.000000
  122       11.619694   0.000000
  123       11.816696   0.000000
  124       11.928994   0.000000
  125       11.971139   0.000000
  126       12.177711   0.000000
  127       12.376584   0.000000
  128       12.615046   0.000000
 
 -0.2000000E+00  0.1666667E+00  0.2727273E+00  0.6060606E-02
    1      -11.822740   1.000000
    2      -11.177446   1.000000
    3      -10.969486   1.000000
    4      -10.943203   1.000000
    5      -10.763965   1.000000
    6      -10.264953   1.000000
    7       -9.093458   1.000000
    8       -8.940207   1.000000
    9       -8.861276   1.000000
   10       -8.549419   1.000000
   11       -8.295990   1.000000
   12       -8.178948   1.000000
   13       -8.113507   1.000000
   14       -7.041760   1.000000
   15       -6.771896   1.000000
   16       -6.273806   1.000000
   17       -5.731804   1.000000
   18       -5.634769   1.000000
   19       -5.214554   1.000000
   20       -5.170182   1.000000
   21       -4.968728   1.000000
   22       -4.859787   1.000000
   23       -4.791633   1.000000
   24       -4.331928   1.000000
   25       -3.914142   1.000000
   26       -3.471515   1.000000
   27       -3.276588   1.000000
   28       -3.158855   1.000000
   29       -3.110502   1.000000
   30       -2.933018   1.000000
   31       -2.627069   1.000000
   32       -2.599273   1.000000
   33       -2.427394   1.000000
   34       -2.326031   1.000000
   35       -2.102603   1.000000
   36       -1.914362   1.000000
   37       -1.832922   1.000000
   38       -1.694431   1.000000
   39       -1.555950   1.000000
   40       -1.414632   1.000000
   41       -1.303311   1.000000
   42       -1.206243   1.000000
   43       -1.090365   1.000000
   44       -0.960121   1.000000
   45       -0.906477   1.000000
   46       -0.687626   1.000000
   47       -0.467224   1.000000
   48       -0.309257   1.000000
   49       -0.231856   1.000000
   50       -0.177341   1.000000
   51       -0.120602   1.000000
   52        0.060406   1.000000
   53        0.125937   1.000000
   54        0.167588   1.000000
   55        0.436692   1.000000
   56        0.521083   1.000000
   57        0.629705   1.000000
   58        0.708564   1.000000
   59        0.851983   1.000000
   60        0.943152   1.000000
   61        1.068879   1.000000
   62        1.100248   1.000000
   63        1.291329   1.000000
   64        1.421888   1.000000
   65        1.546235   1.000000
   66        1.568956   1.000000
   67        1.735262   1.000000
   68        1.789751   1.000000
   69        1.977156   1.000000
   70        2.100056   1.000000
   71        2.170751   1.000000
   72        2.285948   1.000000
   73        2.315633   1.000000
   74        2.362943   1.000000
   75        2.590351   1.000000
   76        2.658144   1.000000
   77        2.768015   1.000000
   78        2.823461   1.000000
   79        2.855557   1.000000
   80        3.075434   1.000000
   81        3.124410   1.000000
   82        3.238853   1.000000
   83        3.306925   1.000000
   84        3.418183   1.000000
   85        3.454567   1.000000
   86        3.555343   1.000000
   87        3.753854   1.000000
   88        3.862212   1.000000
   89        3.926054   1.000000
   90        4.150078   1.000000
   91        4.203241   1.000000
   92        4.349308   1.000000
   93        4.402274   1.000000
   94        4.480286   1.000000
   95        4.530672   1.000000
   96        5.128564   1.000000
   97        7.138696   1.000000
   98        7.299124   0.620540
   99        7.445914   0.000000
  100        7.570146   0.000000
  101        7.679997   0.000000
  102        7.888034   0.000000
  103        8.003347   0.000000
  104        8.211881   0.000000
  105        8.464850   0.000000
  106        8.936817   0.000000
  107        9.135014   0.000000
  108        9.622289   0.000000
  109        9.722988   0.000000
  110        9.817792   0.000000
  111        9.983881   0.000000
  112       10.263745   0.000000
  113       10.316491   0.000000
  114       10.521186   0.000000
  115       10.809743   0.000000
  116       10.870739   0.000000
  117       11.115267   0.000000
  118       11.245143   0.000000
  119       11.320637   0.000000
  120       11.449960   0.000000
  121       11.591895   0.000000
  122       11.761051   0.000000
  123       11.898907   0.000000
  124       12.024903   0.000000
  125       12.087287   0.000000
  126       12.265732   0.000000
  127       12.481283   0.000000
  128       12.684120   0.000000
 
  0.0000000E+00  0.3333333E+00  0.2727273E+00  0.6060606E-02
    1      -11.829541   1.000000
    2      -11.160000   1.000000
    3      -11.001280   1.000000
    4      -10.885399   1.000000
    5      -10.791393   1.000000
    6      -10.277398   1.000000
    7       -9.063718   1.000000
    8       -8.981324   1.000000
    9       -8.852916   1.000000
   10       -8.469089   1.000000
   11       -8.361703   1.000000
   12       -8.264799   1.000000
   13       -8.048781   1.000000
   14       -7.077705   1.000000
   15       -6.738613   1.000000
   16       -6.222078   1.000000
   17       -5.781187   1.000000
   18       -5.679329   1.000000
   19       -5.141749   1.000000
   20       -5.111968   1.000000
   21       -4.961488   1.000000
   22       -4.824436   1.000000
   23       -4.699582   1.000000
   24       -4.633938   1.000000
   25       -3.678042   1.000000
   26       -3.532813   1.000000
   27       -3.297349   1.000000
   28       -3.236513   1.000000
   29       -3.007574   1.000000
   30       -2.937596   1.000000
   31       -2.632353   1.000000
   32       -2.568151   1.000000
   33       -2.359034   1.000000
   34       -2.309972   1.000000
   35       -2.123369   1.000000
   36       -2.054772   1.000000
   37       -1.869641   1.000000
   38       -1.743928   1.000000
   39       -1.601982   1.000000
   40       -1.559836   1.000000
   41       -1.411919   1.000000
   42       -1.275135   1.000000
   43       -1.092645   1.000000
   44       -0.918701   1.000000
   45       -0.755527   1.000000
   46       -0.680164   1.000000
   47       -0.609351   1.000000
   48       -0.391771   1.000000
   49       -0.232456   1.000000
   50       -0.040586   1.000000
   51        0.025685   1.000000
   52        0.156789   1.000000
   53        0.267984   1.000000
   54        0.426697   1.000000
   55        0.521393   1.000000
   56        0.607965   1.000000
   57        0.661263   1.000000
   58        0.696916   1.000000
   59        0.877225   1.000000
   60        0.927517   1.000000
   61        1.069934   1.000000
   62        1.177272   1.000000
   63        1.223695   1.000000
   64        1.272426   1.000000
   65        1.372895   1.000000
   66        1.538549   1.000000
   67        1.633666   1.000000
   68        1.756539   1.000000
   69        1.883832   1.000000
   70        2.024156   1.000000
   71        2.150680   1.000000
   72        2.216715   1.000000
   73        2.233308   1.000000
   74        2.367797   1.000000
   75        2.490988   1.000000
   76        2.577492   1.000000
   77        2.704038   1.000000
   78        2.887757   1.000000
   79        2.945626   1.000000
   80        3.111779   1.000000
   81        3.143740   1.000000
   82        3.273236   1.000000
   83        3.364335   1.000000
   84        3.475588   1.000000
   85        3.619420   1.000000
   86        3.647011   1.000000
   87        3.842763   1.000000
   88        3.903528   1.000000
   89        3.998029   1.000000
   90        4.115790   1.000000
   91        4.222158   1.000000
   92        4.306975   1.000000
   93        4.378780   1.000000
   94        4.469774   1.000000
   95        4.595351   1.000000
   96        4.878249   1.000000
   97        7.028248   1.000000
   98        7.350463   0.164302
   99        7.498083   0.000000
  100        7.584324   0.000000
  101        7.643765   0.000000
  102        7.924604   0.000000
  103        8.024023   0.000000
  104        8.178328   0.000000
  105        8.582435   0.000000
  106        8.949308   0.000000
  107        9.061921   0.000000
  108        9.378196   0.000000
  109        9.611144   0.000000
  110        9.842499   0.000000
  111       10.044531   0.000000
  112       10.370208   0.000000
  113       10.499273   0.000000
  114       10.631530   0.000000
  115       10.725676   0.000000
  116       10.851404   0.000000
  117       11.053369   0.000000
  118       11.177917   0.000000
  119       11.241427   0.000000
  120       11.398458   0.000000
  121       11.555674   0.000000
  122       11.731106   0.000000
  123       11.892889   0.000000
  124       12.004011   0.000000
  125       12.115657   0.000000
  126       12.214954   0.000000
  127       12.457320   0.000000
  128       12.570845   0.000000
 
  0.2000000E+00  0.3333333E+00  0.2727273E+00  0.6060606E-02
    1      -11.838641   1.000000
    2      -11.140154   1.000000
    3      -10.983331   1.000000
    4      -10.891631   1.000000
    5      -10.797511   1.000000
    6      -10.295535   1.000000
    7       -9.091296   1.000000
    8       -8.975782   1.000000
    9       -8.800580   1.000000
   10       -8.521170   1.000000
   11       -8.365381   1.000000
   12       -8.310106   1.000000
   13       -8.003162   1.000000
   14       -7.009778   1.000000
   15       -6.736756   1.000000
   16       -6.170669   1.000000
   17       -5.837917   1.000000
   18       -5.644578   1.000000
   19       -5.224497   1.000000
   20       -5.129195   1.000000
   21       -5.028165   1.000000
   22       -4.804283   1.000000
   23       -4.706790   1.000000
   24       -4.642032   1.000000
   25       -3.668459   1.000000
   26       -3.476528   1.000000
   27       -3.219958   1.000000
   28       -3.130993   1.000000
   29       -3.041155   1.000000
   30       -2.861990   1.000000
   31       -2.693509   1.000000
   32       -2.609678   1.000000
   33       -2.461612   1.000000
   34       -2.327166   1.000000
   35       -2.263571   1.000000
   36       -2.050583   1.000000
   37       -1.993806   1.000000
   38       -1.749706   1.000000
   39       -1.581840   1.000000
   40       -1.458463   1.000000
   41       -1.329293   1.000000
   42       -1.073409   1.000000
   43       -0.959262   1.000000
   44       -0.838649   1.000000
   45       -0.717670   1.000000
   46       -0.595878   1.000000
   47       -0.532397   1.000000
   48       -0.444919   1.000000
   49       -0.300214   1.000000
   50       -0.127580   1.000000
   51       -0.044129   1.000000
   52        0.110184   1.000000
   53        0.140927   1.000000
   54        0.323659   1.000000
   55        0.440990   1.000000
   56        0.553558   1.000000
   57        0.608522   1.000000
   58        0.707301   1.000000
   59        0.822235   1.000000
   60        0.880049   1.000000
   61        0.946045   1.000000
   62        1.092586   1.000000
   63        1.205869   1.000000
   64        1.302037   1.000000
   65        1.377632   1.000000
   66        1.555168   1.000000
   67        1.664939   1.000000
   68        1.806423   1.000000
   69        1.866527   1.000000
   70        2.038006   1.000000
   71        2.066611   1.000000
   72        2.259399   1.000000
   73        2.319533   1.000000
   74        2.485307   1.000000
   75        2.589771   1.000000
   76        2.622380   1.000000
   77        2.761274   1.000000
   78        2.942687   1.000000
   79        3.023663   1.000000
   80        3.152294   1.000000
   81        3.257215   1.000000
   82        3.332840   1.000000
   83        3.381074   1.000000
   84        3.493742   1.000000
   85        3.670869   1.000000
   86        3.737575   1.000000
   87        3.851575   1.000000
   88        3.892334   1.000000
   89        4.015810   1.000000
   90        4.076309   1.000000
   91        4.157522   1.000000
   92        4.257322   1.000000
   93        4.305614   1.000000
   94        4.374473   1.000000
   95        4.528130   1.000000
   96        4.837495   1.000000
   97        7.055547   1.000000
   98        7.163014   1.082381
   99        7.425849  -0.022140
  100        7.690241   0.000000
  101        7.708516   0.000000
  102        7.906326   0.000000
  103        8.011462   0.000000
  104        8.212009   0.000000
  105        8.592605   0.000000
  106        8.909676   0.000000
  107        9.111197   0.000000
  108        9.402687   0.000000
  109        9.592290   0.000000
  110        9.803083   0.000000
  111       10.071863   0.000000
  112       10.335719   0.000000
  113       10.472580   0.000000
  114       10.564024   0.000000
  115       10.769873   0.000000
  116       10.820687   0.000000
  117       10.955501   0.000000
  118       11.085858   0.000000
  119       11.238510   0.000000
  120       11.361945   0.000000
  121       11.458182   0.000000
  122       11.662945   0.000000
  123       11.721484   0.000000
  124       11.936255   0.000000
  125       12.007939   0.000000
  126       12.253914   0.000000
  127       12.471342   0.000000
  128       12.646174   0.000000
 
  0.4000000E+00  0.3333333E+00  0.2727273E+00  0.6060606E-02
    1      -11.834155   1.000000
    2      -11.147560   1.000000
    3      -10.966959   1.000000
    4      -10.913421   1.000000
    5      -10.807757   1.000000
    6      -10.275964   1.000000
    7       -9.091035   1.000000
    8       -8.954557   1.000000
    9       -8.700847   1.000000
   10       -8.613475   1.000000
   11       -8.467997   1.000000
   12       -8.312529   1.000000
   13       -7.935017   1.000000
   14       -6.960410   1.000000
   15       -6.729461   1.000000
   16       -6.135425   1.000000
   17       -5.844078   1.000000
   18       -5.670760   1.000000
   19       -5.381660   1.000000
   20       -5.146215   1.000000
   21       -4.991555   1.000000
   22       -4.833027   1.000000
   23       -4.723856   1.000000
   24       -4.620163   1.000000
   25       -3.666243   1.000000
   26       -3.476208   1.000000
   27       -3.312597   1.000000
   28       -3.091970   1.000000
   29       -3.003078   1.000000
   30       -2.802621   1.000000
   31       -2.674368   1.000000
   32       -2.542180   1.000000
   33       -2.483643   1.000000
   34       -2.311831   1.000000
   35       -2.147989   1.000000
   36       -2.051529   1.000000
   37       -1.912866   1.000000
   38       -1.593449   1.000000
   39       -1.530387   1.000000
   40       -1.391426   1.000000
   41       -1.209394   1.000000
   42       -1.095105   1.000000
   43       -1.015625   1.000000
   44       -0.895684   1.000000
   45       -0.823755   1.000000
   46       -0.676426   1.000000
   47       -0.548867   1.000000
   48       -0.365200   1.000000
   49       -0.347275   1.000000
   50       -0.124051   1.000000
   51       -0.106366   1.000000
   52       -0.040211   1.000000
   53        0.079990   1.000000
   54        0.234362   1.000000
   55        0.259958   1.000000
   56        0.377128   1.000000
   57        0.477300   1.000000
   58        0.568448   1.000000
   59        0.708529   1.000000
   60        0.815254   1.000000
   61        0.999908   1.000000
   62        1.112222   1.000000
   63        1.191954   1.000000
   64        1.337170   1.000000
   65        1.453844   1.000000
   66        1.572949   1.000000
   67        1.728733   1.000000
   68        1.777549   1.000000
   69        1.972898   1.000000
   70        2.079734   1.000000
   71        2.175969   1.000000
   72        2.304217   1.000000
   73        2.471386   1.000000
   74        2.604121   1.000000
   75        2.732300   1.000000
   76        2.854129   1.000000
   77        2.944723   1.000000
   78        3.011583   1.000000
   79        3.071115   1.000000
   80        3.203486   1.000000
   81        3.264412   1.000000
   82        3.325838   1.000000
   83        3.386669   1.000000
   84        3.539936   1.000000
   85        3.668883   1.000000
   86        3.732160   1.000000
   87        3.821433   1.000000
   88        3.878786   1.000000
   89        3.920668   1.000000
   90        3.968361   1.000000
   91        4.010739   1.000000
   92        4.079999   1.000000
   93        4.271576   1.000000
   94        4.329404   1.000000
   95        4.464191   1.000000
   96        4.800276   1.000000
   97        7.063357   1.000000
   98        7.194473   1.000000
   99        7.305587   0.044449
  100        7.749117   0.000000
  101        7.802887   0.000000
  102        7.847108   0.000000
  103        8.047400   0.000000
  104        8.179966   0.000000
  105        8.615491   0.000000
  106        9.062000   0.000000
  107        9.206018   0.000000
  108        9.553284   0.000000
  109        9.712495   0.000000
  110        9.771564   0.000000
  111       10.067514   0.000000
  112       10.219999   0.000000
  113       10.376934   0.000000
  114       10.469218   0.000000
  115       10.679714   0.000000
  116       10.829852   0.000000
  117       10.949683   0.000000
  118       11.056721   0.000000
  119       11.163126   0.000000
  120       11.231123   0.000000
  121       11.350309   0.000000
  122       11.485725   0.000000
  123       11.597777   0.000000
  124       11.868798   0.000000
  125       11.925823   0.000000
  126       12.186503   0.000000
  127       12.412150   0.000000
  128       12.681454   0.000000
 
 -0.4000000E+00  0.3333333E+00  0.2727273E+00  0.6060606E-02
    1      -11.821831   1.000000
    2      -11.173644   1.000000
    3      -10.982536   1.000000
    4      -10.910202   1.000000
    5      -10.807442   1.000000
    6      -10.247852   1.000000
    7       -9.063446   1.000000
    8       -8.953612   1.000000
    9       -8.721892   1.000000
   10       -8.575497   1.000000
   11       -8.505737   1.000000
   12       -8.315013   1.000000
   13       -7.920093   1.000000
   14       -6.995720   1.000000
   15       -6.734596   1.000000
   16       -6.179044   1.000000
   17       -5.793390   1.000000
   18       -5.710732   1.000000
   19       -5.352522   1.000000
   20       -5.119298   1.000000
   21       -4.945207   1.000000
   22       -4.859982   1.000000
   23       -4.785590   1.000000
   24       -4.579450   1.000000
   25       -3.680031   1.000000
   26       -3.509779   1.000000
   27       -3.335563   1.000000
   28       -3.190221   1.000000
   29       -3.010899   1.000000
   30       -2.739954   1.000000
   31       -2.699451   1.000000
   32       -2.580815   1.000000
   33       -2.389400   1.000000
   34       -2.247069   1.000000
   35       -2.020153   1.000000
   36       -1.875211   1.000000
   37       -1.779200   1.000000
   38       -1.616884   1.000000
   39       -1.469089   1.000000
   40       -1.401023   1.000000
   41       -1.280630   1.000000
   42       -1.151317   1.000000
   43       -1.112535   1.000000
   44       -0.973184   1.000000
   45       -0.831888   1.000000
   46       -0.731483   1.000000
   47       -0.556260   1.000000
   48       -0.499008   1.000000
   49       -0.444376   1.000000
   50       -0.330254   1.000000
   51       -0.169335   1.000000
   52       -0.037312   1.000000
   53        0.022126   1.000000
   54        0.152721   1.000000
   55        0.254141   1.000000
   56        0.492544   1.000000
   57        0.616979   1.000000
   58        0.733143   1.000000
   59        0.752620   1.000000
   60        0.875880   1.000000
   61        1.039834   1.000000
   62        1.144347   1.000000
   63        1.187078   1.000000
   64        1.375317   1.000000
   65        1.521768   1.000000
   66        1.590530   1.000000
   67        1.720273   1.000000
   68        1.882068   1.000000
   69        1.934377   1.000000
   70        2.027717   1.000000
   71        2.266034   1.000000
   72        2.315379   1.000000
   73        2.485654   1.000000
   74        2.544785   1.000000
   75        2.741024   1.000000
   76        2.816880   1.000000
   77        2.883461   1.000000
   78        2.954821   1.000000
   79        3.036274   1.000000
   80        3.182149   1.000000
   81        3.247707   1.000000
   82        3.327899   1.000000
   83        3.405562   1.000000
   84        3.510872   1.000000
   85        3.631817   1.000000
   86        3.684174   1.000000
   87        3.763965   1.000000
   88        3.859294   1.000000
   89        3.916218   1.000000
   90        3.952944   1.000000
   91        4.021530   1.000000
   92        4.138038   1.000000
   93        4.306288   1.000000
   94        4.342089   1.000000
   95        4.427514   1.000000
   96        4.816658   1.000000
   97        7.086305   1.000000
   98        7.182156   1.069050
   99        7.463714   0.000000
  100        7.645420   0.000000
  101        7.821334   0.000000
  102        7.886577   0.000000
  103        8.037578   0.000000
  104        8.129865   0.000000
  105        8.636067   0.000000
  106        9.062268   0.000000
  107        9.313711   0.000000
  108        9.678594   0.000000
  109        9.762702   0.000000
  110        9.892900   0.000000
  111       10.080271   0.000000
  112       10.216033   0.000000
  113       10.298770   0.000000
  114       10.460485   0.000000
  115       10.575738   0.000000
  116       10.800498   0.000000
  117       10.938780   0.000000
  118       10.988456   0.000000
  119       11.167040   0.000000
  120       11.294960   0.000000
  121       11.384217   0.000000
  122       11.518595   0.000000
  123       11.674868   0.000000
  124       11.813348   0.000000
  125       11.981597   0.000000
  126       12.045408   0.000000
  127       12.370976   0.000000
  128       12.629792   0.000000
 
 -0.2000000E+00  0.3333333E+00  0.2727273E+00  0.6060606E-02
    1      -11.818809   1.000000
    2      -11.180214   1.000000
    3      -11.007354   1.000000
    4      -10.887979   1.000000
    5      -10.799787   1.000000
    6      -10.248947   1.000000
    7       -9.038342   1.000000
    8       -8.977875   1.000000
    9       -8.824396   1.000000
   10       -8.503343   1.000000
   11       -8.391295   1.000000
   12       -8.323146   1.000000
   13       -7.976482   1.000000
   14       -7.066025   1.000000
   15       -6.740967   1.000000
   16       -6.235035   1.000000
   17       -5.752346   1.000000
   18       -5.710017   1.000000
   19       -5.197595   1.000000
   20       -5.108944   1.000000
   21       -4.948912   1.000000
   22       -4.851746   1.000000
   23       -4.760007   1.000000
   24       -4.586922   1.000000
   25       -3.686861   1.000000
   26       -3.538838   1.000000
   27       -3.360241   1.000000
   28       -3.220006   1.000000
   29       -2.986375   1.000000
   30       -2.892014   1.000000
   31       -2.676359   1.000000
   32       -2.515767   1.000000
   33       -2.325685   1.000000
   34       -2.259638   1.000000
   35       -2.056132   1.000000
   36       -1.925583   1.000000
   37       -1.821294   1.000000
   38       -1.659502   1.000000
   39       -1.520484   1.000000
   40       -1.422751   1.000000
   41       -1.382262   1.000000
   42       -1.308801   1.000000
   43       -1.106275   1.000000
   44       -0.999899   1.000000
   45       -0.881421   1.000000
   46       -0.709840   1.000000
   47       -0.670057   1.000000
   48       -0.372902   1.000000
   49       -0.305463   1.000000
   50       -0.164867   1.000000
   51       -0.101974   1.000000
   52        0.088327   1.000000
   53        0.145456   1.000000
   54        0.242316   1.000000
   55        0.367671   1.000000
   56        0.449498   1.000000
   57        0.635278   1.000000
   58        0.685257   1.000000
   59        0.812375   1.000000
   60        0.923434   1.000000
   61        1.156427   1.000000
   62        1.229716   1.000000
   63        1.349638   1.000000
   64        1.420344   1.000000
   65        1.503235   1.000000
   66        1.588586   1.000000
   67        1.717012   1.000000
   68        1.868845   1.000000
   69        1.896995   1.000000
   70        2.054738   1.000000
   71        2.200005   1.000000
   72        2.265388   1.000000
   73        2.342209   1.000000
   74        2.416724   1.000000
   75        2.482260   1.000000
   76        2.660780   1.000000
   77        2.764117   1.000000
   78        2.842048   1.000000
   79        2.869933   1.000000
   80        3.111461   1.000000
   81        3.174127   1.000000
   82        3.253622   1.000000
   83        3.379911   1.000000
   84        3.466629   1.000000
   85        3.634454   1.000000
   86        3.668293   1.000000
   87        3.804541   1.000000
   88        3.882446   1.000000
   89        3.970100   1.000000
   90        4.061727   1.000000
   91        4.112201   1.000000
   92        4.306932   1.000000
   93        4.390725   1.000000
   94        4.410534   1.000000
   95        4.510636   1.000000
   96        4.861092   1.000000
   97        7.031508   1.000000
   98        7.350480   0.145440
   99        7.538809   0.000000
  100        7.596742   0.000000
  101        7.708493   0.000000
  102        7.904888   0.000000
  103        8.007726   0.000000
  104        8.148432   0.000000
  105        8.606965   0.000000
  106        9.004909   0.000000
  107        9.216477   0.000000
  108        9.560798   0.000000
  109        9.723822   0.000000
  110        9.867051   0.000000
  111       10.025548   0.000000
  112       10.289159   0.000000
  113       10.411041   0.000000
  114       10.518834   0.000000
  115       10.640067   0.000000
  116       10.799923   0.000000
  117       11.065333   0.000000
  118       11.113406   0.000000
  119       11.269621   0.000000
  120       11.346975   0.000000
  121       11.528066   0.000000
  122       11.703258   0.000000
  123       11.810375   0.000000
  124       11.876253   0.000000
  125       12.004380   0.000000
  126       12.145874   0.000000
  127       12.415455   0.000000
  128       12.671327   0.000000
 
  0.0000000E+00  0.5000000E+00  0.2727273E+00  0.6060606E-02
    1      -11.810785   1.000000
    2      -11.221703   1.000000
    3      -11.010633   1.000000
    4      -10.861263   1.000000
    5      -10.772978   1.000000
    6      -10.271273   1.000000
    7       -9.037885   1.000000
    8       -8.943233   1.000000
    9       -8.827225   1.000000
   10       -8.521731   1.000000
   11       -8.414872   1.000000
   12       -8.302318   1.000000
   13       -7.979856   1.000000
   14       -7.111821   1.000000
   15       -6.747445   1.000000
   16       -6.159691   1.000000
   17       -5.768621   1.000000
   18       -5.706493   1.000000
   19       -5.182129   1.000000
   20       -5.061845   1.000000
   21       -4.941519   1.000000
   22       -4.858657   1.000000
   23       -4.776145   1.000000
   24       -4.602488   1.000000
   25       -3.734311   1.000000
   26       -3.538059   1.000000
   27       -3.355416   1.000000
   28       -3.301860   1.000000
   29       -3.073661   1.000000
   30       -2.813270   1.000000
   31       -2.645889   1.000000
   32       -2.405049   1.000000
   33       -2.293100   1.000000
   34       -2.181734   1.000000
   35       -2.060441   1.000000
   36       -1.951726   1.000000
   37       -1.882288   1.000000
   38       -1.726935   1.000000
   39       -1.676105   1.000000
   40       -1.618618   1.000000
   41       -1.366733   1.000000
   42       -1.288775   1.000000
   43       -1.145243   1.000000
   44       -0.894913   1.000000
   45       -0.827670   1.000000
   46       -0.705836   1.000000
   47       -0.634571   1.000000
   48       -0.477978   1.000000
   49       -0.280724   1.000000
   50       -0.088066   1.000000
   51        0.074319   1.000000
   52        0.205926   1.000000
   53        0.252330   1.000000
   54        0.324783   1.000000
   55        0.387850   1.000000
   56        0.540688   1.000000
   57        0.596427   1.000000
   58        0.707440   1.000000
   59        0.904454   1.000000
   60        1.018155   1.000000
   61        1.110124   1.000000
   62        1.233058   1.000000
   63        1.306330   1.000000
   64        1.348036   1.000000
   65        1.392873   1.000000
   66        1.538498   1.000000
   67        1.613754   1.000000
   68        1.860142   1.000000
   69        1.933701   1.000000
   70        2.027593   1.000000
   71        2.080095   1.000000
   72        2.147519   1.000000
   73        2.282310   1.000000
   74        2.376862   1.000000
   75        2.429617   1.000000
   76        2.547253   1.000000
   77        2.713261   1.000000
   78        2.796903   1.000000
   79        2.880747   1.000000
   80        3.082813   1.000000
   81        3.209916   1.000000
   82        3.289332   1.000000
   83        3.383621   1.000000
   84        3.504250   1.000000
   85        3.557911   1.000000
   86        3.746053   1.000000
   87        3.815204   1.000000
   88        3.985853   1.000000
   89        4.043867   1.000000
   90        4.120025   1.000000
   91        4.208482   1.000000
   92        4.299294   1.000000
   93        4.437383   1.000000
   94        4.469145   1.000000
   95        4.567214   1.000000
   96        4.672176   1.000000
   97        7.054258   1.000000
   98        7.415791  -0.078217
   99        7.462824   0.000000
  100        7.621021   0.000000
  101        7.706624   0.000000
  102        7.961355   0.000000
  103        8.015821   0.000000
  104        8.116178   0.000000
  105        8.726929   0.000000
  106        8.928952   0.000000
  107        9.170041   0.000000
  108        9.307131   0.000000
  109        9.559624   0.000000
  110        9.866199   0.000000
  111        9.993062   0.000000
  112       10.470315   0.000000
  113       10.545558   0.000000
  114       10.643492   0.000000
  115       10.757234   0.000000
  116       10.882037   0.000000
  117       10.989390   0.000000
  118       11.145328   0.000000
  119       11.263280   0.000000
  120       11.416938   0.000000
  121       11.476166   0.000000
  122       11.616729   0.000000
  123       11.859220   0.000000
  124       11.945417   0.000000
  125       12.037302   0.000000
  126       12.206270   0.000000
  127       12.359840   0.000000
  128       12.571937   0.000000
 
  0.2000000E+00  0.5000000E+00  0.2727273E+00  0.6060606E-02
    1      -11.819056   1.000000
    2      -11.214265   1.000000
    3      -10.983507   1.000000
    4      -10.869204   1.000000
    5      -10.775190   1.000000
    6      -10.288705   1.000000
    7       -9.037041   1.000000
    8       -8.965654   1.000000
    9       -8.818152   1.000000
   10       -8.507156   1.000000
   11       -8.427123   1.000000
   12       -8.302424   1.000000
   13       -7.995809   1.000000
   14       -7.058984   1.000000
   15       -6.748906   1.000000
   16       -6.108952   1.000000
   17       -5.810479   1.000000
   18       -5.670213   1.000000
   19       -5.242994   1.000000
   20       -5.082416   1.000000
   21       -4.961688   1.000000
   22       -4.864456   1.000000
   23       -4.799985   1.000000
   24       -4.673996   1.000000
   25       -3.649180   1.000000
   26       -3.518540   1.000000
   27       -3.239619   1.000000
   28       -3.140462   1.000000
   29       -2.987991   1.000000
   30       -2.911406   1.000000
   31       -2.621177   1.000000
   32       -2.501474   1.000000
   33       -2.382485   1.000000
   34       -2.305981   1.000000
   35       -2.155445   1.000000
   36       -2.057188   1.000000
   37       -1.938583   1.000000
   38       -1.748713   1.000000
   39       -1.678787   1.000000
   40       -1.490455   1.000000
   41       -1.210867   1.000000
   42       -1.175382   1.000000
   43       -1.067433   1.000000
   44       -0.907148   1.000000
   45       -0.785940   1.000000
   46       -0.671177   1.000000
   47       -0.473928   1.000000
   48       -0.431110   1.000000
   49       -0.272643   1.000000
   50       -0.215664   1.000000
   51       -0.068746   1.000000
   52        0.036585   1.000000
   53        0.158853   1.000000
   54        0.260314   1.000000
   55        0.402332   1.000000
   56        0.546278   1.000000
   57        0.609921   1.000000
   58        0.707482   1.000000
   59        0.870886   1.000000
   60        0.939601   1.000000
   61        1.012712   1.000000
   62        1.131313   1.000000
   63        1.223018   1.000000
   64        1.349349   1.000000
   65        1.497280   1.000000
   66        1.556925   1.000000
   67        1.635106   1.000000
   68        1.775732   1.000000
   69        1.872969   1.000000
   70        2.024169   1.000000
   71        2.146675   1.000000
   72        2.307367   1.000000
   73        2.349752   1.000000
   74        2.445404   1.000000
   75        2.556195   1.000000
   76        2.611393   1.000000
   77        2.799601   1.000000
   78        2.931912   1.000000
   79        3.047358   1.000000
   80        3.128761   1.000000
   81        3.202969   1.000000
   82        3.281942   1.000000
   83        3.341221   1.000000
   84        3.522060   1.000000
   85        3.657638   1.000000
   86        3.729792   1.000000
   87        3.799771   1.000000
   88        3.953969   1.000000
   89        4.033274   1.000000
   90        4.095663   1.000000
   91        4.166649   1.000000
   92        4.221953   1.000000
   93        4.311839   1.000000
   94        4.472313   1.000000
   95        4.528435   1.000000
   96        4.570982   1.000000
   97        7.073865   1.000000
   98        7.290092   0.755984
   99        7.343839   0.007127
  100        7.623119   0.000000
  101        7.812557   0.000000
  102        7.974978   0.000000
  103        8.053095   0.000000
  104        8.120553   0.000000
  105        8.723768   0.000000
  106        8.963058   0.000000
  107        9.168005   0.000000
  108        9.344198   0.000000
  109        9.561099   0.000000
  110        9.857905   0.000000
  111       10.019208   0.000000
  112       10.443488   0.000000
  113       10.530204   0.000000
  114       10.604861   0.000000
  115       10.727358   0.000000
  116       10.864095   0.000000
  117       10.983767   0.000000
  118       11.005398   0.000000
  119       11.155012   0.000000
  120       11.304383   0.000000
  121       11.427520   0.000000
  122       11.523194   0.000000
  123       11.783257   0.000000
  124       11.899558   0.000000
  125       12.054095   0.000000
  126       12.200365   0.000000
  127       12.391348   0.000000
  128       12.627109   0.000000
 
  0.4000000E+00  0.5000000E+00  0.2727273E+00  0.6060606E-02
    1      -11.817337   1.000000
    2      -11.207273   1.000000
    3      -10.983498   1.000000
    4      -10.892722   1.000000
    5      -10.772717   1.000000
    6      -10.274448   1.000000
    7       -9.042974   1.000000
    8       -8.976664   1.000000
    9       -8.734668   1.000000
   10       -8.582198   1.000000
   11       -8.445327   1.000000
   12       -8.356748   1.000000
   13       -7.912520   1.000000
   14       -6.994889   1.000000
   15       -6.744405   1.000000
   16       -6.098967   1.000000
   17       -5.829095   1.000000
   18       -5.691088   1.000000
   19       -5.423371   1.000000
   20       -5.075198   1.000000
   21       -4.936069   1.000000
   22       -4.810931   1.000000
   23       -4.790113   1.000000
   24       -4.708254   1.000000
   25       -3.638583   1.000000
   26       -3.522225   1.000000
   27       -3.336339   1.000000
   28       -3.167307   1.000000
   29       -3.041033   1.000000
   30       -2.825528   1.000000
   31       -2.647866   1.000000
   32       -2.527073   1.000000
   33       -2.481792   1.000000
   34       -2.210622   1.000000
   35       -2.117552   1.000000
   36       -1.903579   1.000000
   37       -1.805269   1.000000
   38       -1.622601   1.000000
   39       -1.533343   1.000000
   40       -1.421492   1.000000
   41       -1.280850   1.000000
   42       -1.058109   1.000000
   43       -0.886069   1.000000
   44       -0.809257   1.000000
   45       -0.691142   1.000000
   46       -0.611853   1.000000
   47       -0.527535   1.000000
   48       -0.459535   1.000000
   49       -0.348353   1.000000
   50       -0.301467   1.000000
   51       -0.193378   1.000000
   52        0.011522   1.000000
   53        0.090158   1.000000
   54        0.214867   1.000000
   55        0.248777   1.000000
   56        0.341444   1.000000
   57        0.411011   1.000000
   58        0.477304   1.000000
   59        0.546896   1.000000
   60        0.791797   1.000000
   61        0.925778   1.000000
   62        1.027468   1.000000
   63        1.191481   1.000000
   64        1.388329   1.000000
   65        1.476199   1.000000
   66        1.537426   1.000000
   67        1.635551   1.000000
   68        1.770327   1.000000
   69        1.975562   1.000000
   70        2.040875   1.000000
   71        2.228493   1.000000
   72        2.382316   1.000000
   73        2.507537   1.000000
   74        2.632407   1.000000
   75        2.793042   1.000000
   76        2.909439   1.000000
   77        3.002891   1.000000
   78        3.058878   1.000000
   79        3.112560   1.000000
   80        3.194512   1.000000
   81        3.342026   1.000000
   82        3.363607   1.000000
   83        3.403855   1.000000
   84        3.530288   1.000000
   85        3.646081   1.000000
   86        3.742499   1.000000
   87        3.797140   1.000000
   88        3.836733   1.000000
   89        3.945001   1.000000
   90        3.975928   1.000000
   91        4.042454   1.000000
   92        4.130888   1.000000
   93        4.268790   1.000000
   94        4.361863   1.000000
   95        4.476201   1.000000
   96        4.532996   1.000000
   97        7.064898   1.000000
   98        7.231816   0.983594
   99        7.270230   0.312441
  100        7.723553   0.000000
  101        7.836640   0.000000
  102        7.885433   0.000000
  103        8.056867   0.000000
  104        8.130364   0.000000
  105        8.742737   0.000000
  106        9.113341   0.000000
  107        9.337588   0.000000
  108        9.496068   0.000000
  109        9.687702   0.000000
  110        9.805855   0.000000
  111       10.012439   0.000000
  112       10.264505   0.000000
  113       10.418155   0.000000
  114       10.551606   0.000000
  115       10.663913   0.000000
  116       10.785561   0.000000
  117       10.897152   0.000000
  118       10.989042   0.000000
  119       11.139468   0.000000
  120       11.219106   0.000000
  121       11.274762   0.000000
  122       11.483134   0.000000
  123       11.621714   0.000000
  124       11.819347   0.000000
  125       11.930401   0.000000
  126       12.172620   0.000000
  127       12.283281   0.000000
  128       12.615792   0.000000
 
 -0.4000000E+00  0.5000000E+00  0.2727273E+00  0.6060606E-02
    1      -11.807821   1.000000
    2      -11.214367   1.000000
    3      -10.994339   1.000000
    4      -10.916477   1.000000
    5      -10.763256   1.000000
    6      -10.249337   1.000000
    7       -9.049140   1.000000
    8       -8.954313   1.000000
    9       -8.674702   1.000000
   10       -8.614106   1.000000
   11       -8.530398   1.000000
   12       -8.342923   1.000000
   13       -7.856723   1.000000
   14       -7.012481   1.000000
   15       -6.741880   1.000000
   16       -6.143650   1.000000
   17       -5.803864   1.000000
   18       -5.742091   1.000000
   19       -5.439455   1.000000
   20       -5.009343   1.000000
   21       -4.939006   1.000000
   22       -4.842457   1.000000
   23       -4.737557   1.000000
   24       -4.657196   1.000000
   25       -3.664245   1.000000
   26       -3.562899   1.000000
   27       -3.454609   1.000000
   28       -3.281445   1.000000
   29       -3.162216   1.000000
   30       -2.839256   1.000000
   31       -2.651517   1.000000
   32       -2.528629   1.000000
   33       -2.360453   1.000000
   34       -2.079719   1.000000
   35       -1.923662   1.000000
   36       -1.753393   1.000000
   37       -1.680855   1.000000
   38       -1.549518   1.000000
   39       -1.452263   1.000000
   40       -1.303927   1.000000
   41       -1.234886   1.000000
   42       -1.165163   1.000000
   43       -1.028384   1.000000
   44       -0.926409   1.000000
   45       -0.759710   1.000000
   46       -0.613584   1.000000
   47       -0.581243   1.000000
   48       -0.477147   1.000000
   49       -0.420466   1.000000
   50       -0.345466   1.000000
   51       -0.231693   1.000000
   52       -0.060315   1.000000
   53        0.106276   1.000000
   54        0.164111   1.000000
   55        0.238060   1.000000
   56        0.313204   1.000000
   57        0.431651   1.000000
   58        0.610371   1.000000
   59        0.689006   1.000000
   60        0.709029   1.000000
   61        0.894403   1.000000
   62        0.973054   1.000000
   63        1.133485   1.000000
   64        1.325556   1.000000
   65        1.381816   1.000000
   66        1.537470   1.000000
   67        1.687144   1.000000
   68        1.821835   1.000000
   69        1.846014   1.000000
   70        2.061193   1.000000
   71        2.326867   1.000000
   72        2.375306   1.000000
   73        2.474870   1.000000
   74        2.631455   1.000000
   75        2.829308   1.000000
   76        2.888011   1.000000
   77        2.963192   1.000000
   78        3.045621   1.000000
   79        3.149522   1.000000
   80        3.278940   1.000000
   81        3.323402   1.000000
   82        3.430725   1.000000
   83        3.491053   1.000000
   84        3.567671   1.000000
   85        3.632002   1.000000
   86        3.689428   1.000000
   87        3.711756   1.000000
   88        3.803496   1.000000
   89        3.914146   1.000000
   90        4.023975   1.000000
   91        4.112598   1.000000
   92        4.141914   1.000000
   93        4.278189   1.000000
   94        4.361325   1.000000
   95        4.460977   1.000000
   96        4.552979   1.000000
   97        7.018038   1.000000
   98        7.266261   0.702426
   99        7.437984  -0.047849
  100        7.696484   0.000000
  101        7.787415   0.000000
  102        7.838255   0.000000
  103        8.066137   0.000000
  104        8.081521   0.000000
  105        8.758876   0.000000
  106        9.178506   0.000000
  107        9.421244   0.000000
  108        9.595890   0.000000
  109        9.695169   0.000000
  110        9.856210   0.000000
  111       10.017613   0.000000
  112       10.274105   0.000000
  113       10.412084   0.000000
  114       10.515806   0.000000
  115       10.561078   0.000000
  116       10.773781   0.000000
  117       10.918025   0.000000
  118       11.027928   0.000000
  119       11.116698   0.000000
  120       11.216307   0.000000
  121       11.308078   0.000000
  122       11.498544   0.000000
  123       11.570804   0.000000
  124       11.736842   0.000000
  125       11.867298   0.000000
  126       12.167937   0.000000
  127       12.312362   0.000000
  128       12.538263   0.000000
 
 -0.2000000E+00  0.5000000E+00  0.2727273E+00  0.6060606E-02
    1      -11.803620   1.000000
    2      -11.221362   1.000000
    3      -11.025156   1.000000
    4      -10.880307   1.000000
    5      -10.767795   1.000000
    6      -10.247876   1.000000
    7       -9.038817   1.000000
    8       -8.952962   1.000000
    9       -8.746952   1.000000
   10       -8.553546   1.000000
   11       -8.501117   1.000000
   12       -8.326392   1.000000
   13       -7.887209   1.000000
   14       -7.083734   1.000000
   15       -6.746578   1.000000
   16       -6.186091   1.000000
   17       -5.770042   1.000000
   18       -5.740634   1.000000
   19       -5.286621   1.000000
   20       -5.026501   1.000000
   21       -4.921348   1.000000
   22       -4.857964   1.000000
   23       -4.736076   1.000000
   24       -4.609839   1.000000
   25       -3.719780   1.000000
   26       -3.596943   1.000000
   27       -3.480626   1.000000
   28       -3.295969   1.000000
   29       -3.019927   1.000000
   30       -2.937789   1.000000
   31       -2.743252   1.000000
   32       -2.459203   1.000000
   33       -2.271052   1.000000
   34       -1.998759   1.000000
   35       -1.929371   1.000000
   36       -1.849826   1.000000
   37       -1.765417   1.000000
   38       -1.696237   1.000000
   39       -1.466610   1.000000
   40       -1.348268   1.000000
   41       -1.302279   1.000000
   42       -1.229684   1.000000
   43       -1.122707   1.000000
   44       -0.995149   1.000000
   45       -0.822489   1.000000
   46       -0.752319   1.000000
   47       -0.552320   1.000000
   48       -0.455524   1.000000
   49       -0.342013   1.000000
   50       -0.259891   1.000000
   51       -0.192700   1.000000
   52        0.004629   1.000000
   53        0.186435   1.000000
   54        0.246175   1.000000
   55        0.382643   1.000000
   56        0.420548   1.000000
   57        0.524028   1.000000
   58        0.628374   1.000000
   59        0.834536   1.000000
   60        0.854474   1.000000
   61        1.047011   1.000000
   62        1.198706   1.000000
   63        1.228855   1.000000
   64        1.344595   1.000000
   65        1.415359   1.000000
   66        1.583614   1.000000
   67        1.640425   1.000000
   68        1.768153   1.000000
   69        1.892600   1.000000
   70        2.079998   1.000000
   71        2.210589   1.000000
   72        2.255869   1.000000
   73        2.310256   1.000000
   74        2.413976   1.000000
   75        2.563985   1.000000
   76        2.708869   1.000000
   77        2.782197   1.000000
   78        2.851432   1.000000
   79        2.998210   1.000000
   80        3.196707   1.000000
   81        3.259113   1.000000
   82        3.381180   1.000000
   83        3.454697   1.000000
   84        3.531596   1.000000
   85        3.597618   1.000000
   86        3.705024   1.000000
   87        3.801620   1.000000
   88        3.922327   1.000000
   89        3.978135   1.000000
   90        4.097658   1.000000
   91        4.188044   1.000000
   92        4.285316   1.000000
   93        4.362038   1.000000
   94        4.447268   1.000000
   95        4.514914   1.000000
   96        4.617144   1.000000
   97        7.021673   1.000000
   98        7.413164  -0.051496
   99        7.532677   0.000000
  100        7.620529   0.000000
  101        7.730364   0.000000
  102        7.879335   0.000000
  103        7.991090   0.000000
  104        8.106270   0.000000
  105        8.750107   0.000000
  106        9.034247   0.000000
  107        9.306967   0.000000
  108        9.521701   0.000000
  109        9.663446   0.000000
  110        9.827056   0.000000
  111        9.995925   0.000000
  112       10.344026   0.000000
  113       10.411430   0.000000
  114       10.593566   0.000000
  115       10.692839   0.000000
  116       10.843802   0.000000
  117       10.948775   0.000000
  118       11.132507   0.000000
  119       11.275247   0.000000
  120       11.327902   0.000000
  121       11.479802   0.000000
  122       11.613469   0.000000
  123       11.671668   0.000000
  124       11.789298   0.000000
  125       11.862792   0.000000
  126       12.196029   0.000000
  127       12.352199   0.000000
  128       12.607429   0.000000
 
  0.0000000E+00 -0.3333333E+00  0.2727273E+00  0.6060606E-02
    1      -11.796686   1.000000
    2      -11.268225   1.000000
    3      -10.991622   1.000000
    4      -10.886923   1.000000
    5      -10.726008   1.000000
    6      -10.279978   1.000000
    7       -9.104768   1.000000
    8       -8.853004   1.000000
    9       -8.747169   1.000000
   10       -8.644670   1.000000
   11       -8.466543   1.000000
   12       -8.235320   1.000000
   13       -7.953191   1.000000
   14       -7.110453   1.000000
   15       -6.784576   1.000000
   16       -6.138149   1.000000
   17       -5.754971   1.000000
   18       -5.657874   1.000000
   19       -5.268422   1.000000
   20       -5.201571   1.000000
   21       -4.948115   1.000000
   22       -4.851280   1.000000
   23       -4.558209   1.000000
   24       -4.511636   1.000000
   25       -3.833834   1.000000
   26       -3.568517   1.000000
   27       -3.449614   1.000000
   28       -3.398804   1.000000
   29       -3.130058   1.000000
   30       -2.903172   1.000000
   31       -2.589956   1.000000
   32       -2.401196   1.000000
   33       -2.333113   1.000000
   34       -2.274564   1.000000
   35       -2.039187   1.000000
   36       -1.901077   1.000000
   37       -1.779062   1.000000
   38       -1.708616   1.000000
   39       -1.543159   1.000000
   40       -1.459824   1.000000
   41       -1.330358   1.000000
   42       -1.241381   1.000000
   43       -1.106920   1.000000
   44       -0.911556   1.000000
   45       -0.740403   1.000000
   46       -0.600564   1.000000
   47       -0.496055   1.000000
   48       -0.451609   1.000000
   49       -0.315167   1.000000
   50       -0.187271   1.000000
   51        0.037739   1.000000
   52        0.167444   1.000000
   53        0.221235   1.000000
   54        0.351923   1.000000
   55        0.413592   1.000000
   56        0.486610   1.000000
   57        0.556265   1.000000
   58        0.688002   1.000000
   59        0.758157   1.000000
   60        0.896994   1.000000
   61        1.068685   1.000000
   62        1.192967   1.000000
   63        1.241522   1.000000
   64        1.349590   1.000000
   65        1.388432   1.000000
   66        1.557741   1.000000
   67        1.605742   1.000000
   68        1.828439   1.000000
   69        1.906638   1.000000
   70        2.000453   1.000000
   71        2.078569   1.000000
   72        2.142474   1.000000
   73        2.246315   1.000000
   74        2.332481   1.000000
   75        2.448620   1.000000
   76        2.551804   1.000000
   77        2.725253   1.000000
   78        2.833170   1.000000
   79        2.915007   1.000000
   80        3.106801   1.000000
   81        3.301210   1.000000
   82        3.347575   1.000000
   83        3.385307   1.000000
   84        3.474366   1.000000
   85        3.574225   1.000000
   86        3.668959   1.000000
   87        3.837251   1.000000
   88        3.930158   1.000000
   89        3.998987   1.000000
   90        4.095717   1.000000
   91        4.175327   1.000000
   92        4.240839   1.000000
   93        4.451989   1.000000
   94        4.563994   1.000000
   95        4.602938   1.000000
   96        4.903419   1.000000
   97        7.141545   1.000000
   98        7.361197  -0.042234
   99        7.419874   0.000000
  100        7.649343   0.000000
  101        7.728523   0.000000
  102        7.873153   0.000000
  103        8.024193   0.000000
  104        8.141283   0.000000
  105        8.689541   0.000000
  106        8.854030   0.000000
  107        9.207804   0.000000
  108        9.347733   0.000000
  109        9.610498   0.000000
  110        9.805800   0.000000
  111        9.920182   0.000000
  112       10.331754   0.000000
  113       10.648963   0.000000
  114       10.694246   0.000000
  115       10.835467   0.000000
  116       10.900379   0.000000
  117       11.124946   0.000000
  118       11.226618   0.000000
  119       11.256090   0.000000
  120       11.409052   0.000000
  121       11.637266   0.000000
  122       11.737601   0.000000
  123       11.829704   0.000000
  124       11.921956   0.000000
  125       12.063692   0.000000
  126       12.210697   0.000000
  127       12.367993   0.000000
  128       12.708143   0.000000
 
  0.2000000E+00 -0.3333333E+00  0.2727273E+00  0.6060606E-02
    1      -11.801142   1.000000
    2      -11.270275   1.000000
    3      -10.979280   1.000000
    4      -10.871904   1.000000
    5      -10.736872   1.000000
    6      -10.290254   1.000000
    7       -9.097893   1.000000
    8       -8.839319   1.000000
    9       -8.809925   1.000000
   10       -8.589949   1.000000
   11       -8.430140   1.000000
   12       -8.272037   1.000000
   13       -8.005735   1.000000
   14       -7.072980   1.000000
   15       -6.787369   1.000000
   16       -6.067006   1.000000
   17       -5.771914   1.000000
   18       -5.625453   1.000000
   19       -5.300314   1.000000
   20       -5.183517   1.000000
   21       -5.026077   1.000000
   22       -4.909514   1.000000
   23       -4.665926   1.000000
   24       -4.541700   1.000000
   25       -3.743321   1.000000
   26       -3.523317   1.000000
   27       -3.324783   1.000000
   28       -3.145378   1.000000
   29       -3.022356   1.000000
   30       -2.877265   1.000000
   31       -2.585811   1.000000
   32       -2.445301   1.000000
   33       -2.375065   1.000000
   34       -2.297957   1.000000
   35       -2.163719   1.000000
   36       -2.036437   1.000000
   37       -1.943271   1.000000
   38       -1.696498   1.000000
   39       -1.583090   1.000000
   40       -1.489286   1.000000
   41       -1.400897   1.000000
   42       -1.259944   1.000000
   43       -1.052552   1.000000
   44       -0.950726   1.000000
   45       -0.815544   1.000000
   46       -0.546656   1.000000
   47       -0.500148   1.000000
   48       -0.338576   1.000000
   49       -0.251373   1.000000
   50       -0.139995   1.000000
   51       -0.017503   1.000000
   52        0.043390   1.000000
   53        0.140319   1.000000
   54        0.238955   1.000000
   55        0.319028   1.000000
   56        0.512380   1.000000
   57        0.590659   1.000000
   58        0.678457   1.000000
   59        0.808885   1.000000
   60        0.954550   1.000000
   61        1.082331   1.000000
   62        1.206686   1.000000
   63        1.244533   1.000000
   64        1.407789   1.000000
   65        1.496704   1.000000
   66        1.576725   1.000000
   67        1.628292   1.000000
   68        1.865156   1.000000
   69        1.937462   1.000000
   70        2.025498   1.000000
   71        2.159128   1.000000
   72        2.231577   1.000000
   73        2.318264   1.000000
   74        2.457866   1.000000
   75        2.504664   1.000000
   76        2.712208   1.000000
   77        2.742317   1.000000
   78        2.893252   1.000000
   79        2.936248   1.000000
   80        3.067328   1.000000
   81        3.203828   1.000000
   82        3.270682   1.000000
   83        3.351915   1.000000
   84        3.469463   1.000000
   85        3.552589   1.000000
   86        3.613015   1.000000
   87        3.798442   1.000000
   88        3.920355   1.000000
   89        4.000962   1.000000
   90        4.063238   1.000000
   91        4.103912   1.000000
   92        4.176655   1.000000
   93        4.392905   1.000000
   94        4.489163   1.000000
   95        4.545711   1.000000
   96        4.850437   1.000000
   97        7.094155   1.000000
   98        7.290816   0.432119
   99        7.455197   0.000000
  100        7.586950   0.000000
  101        7.837627   0.000000
  102        7.901101   0.000000
  103        8.072778   0.000000
  104        8.113292   0.000000
  105        8.705446   0.000000
  106        8.925270   0.000000
  107        9.145722   0.000000
  108        9.437120   0.000000
  109        9.603721   0.000000
  110        9.833318   0.000000
  111        9.980973   0.000000
  112       10.440533   0.000000
  113       10.569213   0.000000
  114       10.705509   0.000000
  115       10.781946   0.000000
  116       10.831377   0.000000
  117       10.907074   0.000000
  118       10.995004   0.000000
  119       11.204474   0.000000
  120       11.293925   0.000000
  121       11.571527   0.000000
  122       11.742959   0.000000
  123       11.833839   0.000000
  124       11.933615   0.000000
  125       12.116876   0.000000
  126       12.191141   0.000000
  127       12.482465   0.000000
  128       12.650562   0.000000
 
  0.4000000E+00 -0.3333333E+00  0.2727273E+00  0.6060606E-02
    1      -11.798886   1.000000
    2      -11.261448   1.000000
    3      -11.002561   1.000000
    4      -10.876882   1.000000
    5      -10.729131   1.000000
    6      -10.279401   1.000000
    7       -9.070185   1.000000
    8       -8.914760   1.000000
    9       -8.760803   1.000000
   10       -8.563804   1.000000
   11       -8.445122   1.000000
   12       -8.353101   1.000000
   13       -7.935781   1.000000
   14       -7.017074   1.000000
   15       -6.784712   1.000000
   16       -6.056030   1.000000
   17       -5.784731   1.000000
   18       -5.649357   1.000000
   19       -5.417500   1.000000
   20       -5.169477   1.000000
   21       -5.004077   1.000000
   22       -4.896955   1.000000
   23       -4.742841   1.000000
   24       -4.537735   1.000000
   25       -3.756020   1.000000
   26       -3.583527   1.000000
   27       -3.332308   1.000000
   28       -3.205735   1.000000
   29       -2.950025   1.000000
   30       -2.747547   1.000000
   31       -2.606015   1.000000
   32       -2.485328   1.000000
   33       -2.442259   1.000000
   34       -2.250962   1.000000
   35       -2.098406   1.000000
   36       -1.900362   1.000000
   37       -1.781302   1.000000
   38       -1.686905   1.000000
   39       -1.501373   1.000000
   40       -1.380117   1.000000
   41       -1.304227   1.000000
   42       -1.153494   1.000000
   43       -1.032610   1.000000
   44       -0.860737   1.000000
   45       -0.680860   1.000000
   46       -0.621587   1.000000
   47       -0.600613   1.000000
   48       -0.469648   1.000000
   49       -0.365024   1.000000
   50       -0.266909   1.000000
   51       -0.136033   1.000000
   52       -0.040760   1.000000
   53        0.049776   1.000000
   54        0.161155   1.000000
   55        0.257959   1.000000
   56        0.377134   1.000000
   57        0.544446   1.000000
   58        0.645623   1.000000
   59        0.710609   1.000000
   60        0.782875   1.000000
   61        0.932200   1.000000
   62        1.129501   1.000000
   63        1.173632   1.000000
   64        1.388030   1.000000
   65        1.441922   1.000000
   66        1.558383   1.000000
   67        1.650101   1.000000
   68        1.818148   1.000000
   69        1.956730   1.000000
   70        2.042811   1.000000
   71        2.214265   1.000000
   72        2.389906   1.000000
   73        2.495509   1.000000
   74        2.683178   1.000000
   75        2.761182   1.000000
   76        2.854871   1.000000
   77        2.942479   1.000000
   78        3.046752   1.000000
   79        3.105759   1.000000
   80        3.205004   1.000000
   81        3.263777   1.000000
   82        3.300525   1.000000
   83        3.402251   1.000000
   84        3.443184   1.000000
   85        3.471249   1.000000
   86        3.633284   1.000000
   87        3.792227   1.000000
   88        3.855525   1.000000
   89        3.915134   1.000000
   90        3.970665   1.000000
   91        4.025394   1.000000
   92        4.116002   1.000000
   93        4.293368   1.000000
   94        4.354445   1.000000
   95        4.426985   1.000000
   96        4.838621   1.000000
   97        7.007128   1.000000
   98        7.332936   0.175390
   99        7.453655  -0.047332
  100        7.622309   0.000000
  101        7.822345   0.000000
  102        7.900529   0.000000
  103        8.031149   0.000000
  104        8.117734   0.000000
  105        8.747115   0.000000
  106        9.079231   0.000000
  107        9.281543   0.000000
  108        9.655471   0.000000
  109        9.739695   0.000000
  110        9.828411   0.000000
  111        9.953809   0.000000
  112       10.338941   0.000000
  113       10.401212   0.000000
  114       10.493942   0.000000
  115       10.676706   0.000000
  116       10.798342   0.000000
  117       10.897935   0.000000
  118       11.023702   0.000000
  119       11.084504   0.000000
  120       11.127885   0.000000
  121       11.476632   0.000000
  122       11.549561   0.000000
  123       11.758238   0.000000
  124       11.863571   0.000000
  125       12.022604   0.000000
  126       12.081081   0.000000
  127       12.464842   0.000000
  128       12.560700   0.000000
 
 -0.4000000E+00 -0.3333333E+00  0.2727273E+00  0.6060606E-02
    1      -11.792817   1.000000
    2      -11.257475   1.000000
    3      -11.000082   1.000000
    4      -10.925881   1.000000
    5      -10.707825   1.000000
    6      -10.263141   1.000000
    7       -9.064533   1.000000
    8       -8.918934   1.000000
    9       -8.719061   1.000000
   10       -8.629963   1.000000
   11       -8.483813   1.000000
   12       -8.326671   1.000000
   13       -7.858906   1.000000
   14       -7.021613   1.000000
   15       -6.780503   1.000000
   16       -6.120258   1.000000
   17       -5.779444   1.000000
   18       -5.695406   1.000000
   19       -5.452238   1.000000
   20       -5.141829   1.000000
   21       -4.935935   1.000000
   22       -4.866624   1.000000
   23       -4.688171   1.000000
   24       -4.503591   1.000000
   25       -3.827765   1.000000
   26       -3.633018   1.000000
   27       -3.443306   1.000000
   28       -3.376413   1.000000
   29       -3.177961   1.000000
   30       -2.825161   1.000000
   31       -2.659090   1.000000
   32       -2.468047   1.000000
   33       -2.309601   1.000000
   34       -1.988700   1.000000
   35       -1.904014   1.000000
   36       -1.706745   1.000000
   37       -1.564609   1.000000
   38       -1.505093   1.000000
   39       -1.457513   1.000000
   40       -1.331977   1.000000
   41       -1.221487   1.000000
   42       -1.171901   1.000000
   43       -0.973983   1.000000
   44       -0.930707   1.000000
   45       -0.803831   1.000000
   46       -0.685222   1.000000
   47       -0.588503   1.000000
   48       -0.511987   1.000000
   49       -0.425021   1.000000
   50       -0.305846   1.000000
   51       -0.242044   1.000000
   52       -0.073422   1.000000
   53        0.040788   1.000000
   54        0.127390   1.000000
   55        0.247434   1.000000
   56        0.402619   1.000000
   57        0.570192   1.000000
   58        0.615455   1.000000
   59        0.668126   1.000000
   60        0.769379   1.000000
   61        0.904172   1.000000
   62        0.963641   1.000000
   63        1.076036   1.000000
   64        1.234863   1.000000
   65        1.373536   1.000000
   66        1.465919   1.000000
   67        1.634383   1.000000
   68        1.749109   1.000000
   69        1.858466   1.000000
   70        2.015014   1.000000
   71        2.254383   1.000000
   72        2.411308   1.000000
   73        2.512203   1.000000
   74        2.712965   1.000000
   75        2.798680   1.000000
   76        2.889490   1.000000
   77        2.997099   1.000000
   78        3.067362   1.000000
   79        3.155147   1.000000
   80        3.263146   1.000000
   81        3.313032   1.000000
   82        3.380183   1.000000
   83        3.413680   1.000000
   84        3.506968   1.000000
   85        3.596041   1.000000
   86        3.665583   1.000000
   87        3.788726   1.000000
   88        3.858553   1.000000
   89        3.895347   1.000000
   90        3.952825   1.000000
   91        4.064618   1.000000
   92        4.173521   1.000000
   93        4.273087   1.000000
   94        4.343055   1.000000
   95        4.439091   1.000000
   96        4.855232   1.000000
   97        7.012336   1.000000
   98        7.380045  -0.005548
   99        7.497453  -0.016718
  100        7.693380   0.000000
  101        7.730256   0.000000
  102        7.753233   0.000000
  103        8.034995   0.000000
  104        8.120328   0.000000
  105        8.742737   0.000000
  106        9.137712   0.000000
  107        9.424074   0.000000
  108        9.643594   0.000000
  109        9.701552   0.000000
  110        9.875655   0.000000
  111        9.941550   0.000000
  112       10.283029   0.000000
  113       10.362833   0.000000
  114       10.516790   0.000000
  115       10.690652   0.000000
  116       10.866037   0.000000
  117       10.890133   0.000000
  118       11.043028   0.000000
  119       11.144678   0.000000
  120       11.260388   0.000000
  121       11.294472   0.000000
  122       11.539272   0.000000
  123       11.648244   0.000000
  124       11.762753   0.000000
  125       11.906483   0.000000
  126       12.030909   0.000000
  127       12.454177   0.000000
  128       12.573795   0.000000
 
 -0.2000000E+00 -0.3333333E+00  0.2727273E+00  0.6060606E-02
    1      -11.791437   1.000000
    2      -11.261211   1.000000
    3      -10.999460   1.000000
    4      -10.923688   1.000000
    5      -10.708603   1.000000
    6      -10.263629   1.000000
    7       -9.089677   1.000000
    8       -8.883711   1.000000
    9       -8.700836   1.000000
   10       -8.628535   1.000000
   11       -8.558634   1.000000
   12       -8.252067   1.000000
   13       -7.862738   1.000000
   14       -7.081122   1.000000
   15       -6.781947   1.000000
   16       -6.172444   1.000000
   17       -5.762364   1.000000
   18       -5.697105   1.000000
   19       -5.340655   1.000000
   20       -5.172152   1.000000
   21       -4.894082   1.000000
   22       -4.856257   1.000000
   23       -4.577136   1.000000
   24       -4.493994   1.000000
   25       -3.856091   1.000000
   26       -3.635246   1.000000
   27       -3.552449   1.000000
   28       -3.374871   1.000000
   29       -3.228835   1.000000
   30       -2.986260   1.000000
   31       -2.688645   1.000000
   32       -2.463634   1.000000
   33       -2.266467   1.000000
   34       -1.999683   1.000000
   35       -1.921057   1.000000
   36       -1.676383   1.000000
   37       -1.570035   1.000000
   38       -1.547952   1.000000
   39       -1.456769   1.000000
   40       -1.377920   1.000000
   41       -1.236596   1.000000
   42       -1.137015   1.000000
   43       -1.009809   1.000000
   44       -0.914275   1.000000
   45       -0.812217   1.000000
   46       -0.700496   1.000000
   47       -0.636741   1.000000
   48       -0.471942   1.000000
   49       -0.380483   1.000000
   50       -0.234974   1.000000
   51       -0.152514   1.000000
   52       -0.034868   1.000000
   53        0.127027   1.000000
   54        0.252494   1.000000
   55        0.387437   1.000000
   56        0.473397   1.000000
   57        0.517760   1.000000
   58        0.622081   1.000000
   59        0.691284   1.000000
   60        0.832752   1.000000
   61        1.041465   1.000000
   62        1.080954   1.000000
   63        1.110349   1.000000
   64        1.182791   1.000000
   65        1.389353   1.000000
   66        1.479485   1.000000
   67        1.619495   1.000000
   68        1.701708   1.000000
   69        1.785676   1.000000
   70        2.034590   1.000000
   71        2.142335   1.000000
   72        2.285935   1.000000
   73        2.345524   1.000000
   74        2.399475   1.000000
   75        2.587044   1.000000
   76        2.747738   1.000000
   77        2.882785   1.000000
   78        2.944420   1.000000
   79        3.047301   1.000000
   80        3.225973   1.000000
   81        3.327875   1.000000
   82        3.378703   1.000000
   83        3.464623   1.000000
   84        3.511261   1.000000
   85        3.570190   1.000000
   86        3.787594   1.000000
   87        3.814321   1.000000
   88        3.907850   1.000000
   89        3.941472   1.000000
   90        4.055412   1.000000
   91        4.162158   1.000000
   92        4.236849   1.000000
   93        4.378934   1.000000
   94        4.488981   1.000000
   95        4.515551   1.000000
   96        4.891728   1.000000
   97        7.081704   1.000000
   98        7.418531  -0.035225
   99        7.524164   0.000000
  100        7.601062   0.000000
  101        7.702809   0.000000
  102        7.794504   0.000000
  103        7.998072   0.000000
  104        8.137166   0.000000
  105        8.704939   0.000000
  106        8.982525   0.000000
  107        9.379162   0.000000
  108        9.511933   0.000000
  109        9.647648   0.000000
  110        9.840281   0.000000
  111        9.870214   0.000000
  112       10.223453   0.000000
  113       10.484598   0.000000
  114       10.672473   0.000000
  115       10.722509   0.000000
  116       10.948142   0.000000
  117       11.084441   0.000000
  118       11.161925   0.000000
  119       11.268471   0.000000
  120       11.362220   0.000000
  121       11.509611   0.000000
  122       11.610330   0.000000
  123       11.746403   0.000000
  124       11.810936   0.000000
  125       11.858248   0.000000
  126       12.116186   0.000000
  127       12.423749   0.000000
  128       12.604295   0.000000
 
  0.0000000E+00 -0.1666667E+00  0.2727273E+00  0.6060606E-02
    1      -11.803642   1.000000
    2      -11.256752   1.000000
    3      -10.974799   1.000000
    4      -10.906866   1.000000
    5      -10.708685   1.000000
    6      -10.295735   1.000000
    7       -9.163169   1.000000
    8       -8.861603   1.000000
    9       -8.719500   1.000000
   10       -8.596516   1.000000
   11       -8.525862   1.000000
   12       -8.147654   1.000000
   13       -7.983277   1.000000
   14       -7.072560   1.000000
   15       -6.810486   1.000000
   16       -6.186834   1.000000
   17       -5.762862   1.000000
   18       -5.555477   1.000000
   19       -5.355854   1.000000
   20       -5.297937   1.000000
   21       -4.852316   1.000000
   22       -4.822083   1.000000
   23       -4.588905   1.000000
   24       -4.284615   1.000000
   25       -3.915497   1.000000
   26       -3.623505   1.000000
   27       -3.479603   1.000000
   28       -3.320844   1.000000
   29       -3.138797   1.000000
   30       -3.068468   1.000000
   31       -2.732200   1.000000
   32       -2.549821   1.000000
   33       -2.383660   1.000000
   34       -2.292985   1.000000
   35       -2.125481   1.000000
   36       -1.961017   1.000000
   37       -1.803301   1.000000
   38       -1.655565   1.000000
   39       -1.497090   1.000000
   40       -1.239624   1.000000
   41       -1.181473   1.000000
   42       -1.039435   1.000000
   43       -0.991575   1.000000
   44       -0.839477   1.000000
   45       -0.703657   1.000000
   46       -0.580304   1.000000
   47       -0.365888   1.000000
   48       -0.332264   1.000000
   49       -0.257519   1.000000
   50       -0.199002   1.000000
   51       -0.065222   1.000000
   52        0.052848   1.000000
   53        0.191407   1.000000
   54        0.322787   1.000000
   55        0.410052   1.000000
   56        0.508663   1.000000
   57        0.569114   1.000000
   58        0.706241   1.000000
   59        0.823618   1.000000
   60        0.854876   1.000000
   61        0.948951   1.000000
   62        1.054794   1.000000
   63        1.198009   1.000000
   64        1.238298   1.000000
   65        1.319006   1.000000
   66        1.488845   1.000000
   67        1.571301   1.000000
   68        1.649646   1.000000
   69        1.887695   1.000000
   70        1.947550   1.000000
   71        2.049754   1.000000
   72        2.146979   1.000000
   73        2.299930   1.000000
   74        2.435698   1.000000
   75        2.543175   1.000000
   76        2.640706   1.000000
   77        2.732422   1.000000
   78        2.822396   1.000000
   79        3.014351   1.000000
   80        3.098485   1.000000
   81        3.193579   1.000000
   82        3.311533   1.000000
   83        3.376190   1.000000
   84        3.467663   1.000000
   85        3.527368   1.000000
   86        3.675172   1.000000
   87        3.835903   1.000000
   88        3.896436   1.000000
   89        4.003922   1.000000
   90        4.090124   1.000000
   91        4.203114   1.000000
   92        4.279587   1.000000
   93        4.438207   1.000000
   94        4.584848   1.000000
   95        4.698335   1.000000
   96        5.134372   1.000000
   97        7.201206   1.000000
   98        7.351472   0.008266
   99        7.367653   0.000000
  100        7.565870   0.000000
  101        7.683137   0.000000
  102        7.814114   0.000000
  103        8.010131   0.000000
  104        8.192052   0.000000
  105        8.569706   0.000000
  106        8.776130   0.000000
  107        9.113951   0.000000
  108        9.482621   0.000000
  109        9.658865   0.000000
  110        9.791962   0.000000
  111        9.912604   0.000000
  112       10.152909   0.000000
  113       10.496498   0.000000
  114       10.717065   0.000000
  115       10.977180   0.000000
  116       11.075269   0.000000
  117       11.185733   0.000000
  118       11.297007   0.000000
  119       11.371230   0.000000
  120       11.403423   0.000000
  121       11.684428   0.000000
  122       11.792851   0.000000
  123       11.962547   0.000000
  124       12.070949   0.000000
  125       12.203320   0.000000
  126       12.346352   0.000000
  127       12.472846   0.000000
  128       12.647306   0.000000
 
  0.2000000E+00 -0.1666667E+00  0.2727273E+00  0.6060606E-02
    1      -11.805487   1.000000
    2      -11.262595   1.000000
    3      -10.980266   1.000000
    4      -10.872468   1.000000
    5      -10.726526   1.000000
    6      -10.298962   1.000000
    7       -9.158464   1.000000
    8       -8.828233   1.000000
    9       -8.710280   1.000000
   10       -8.639316   1.000000
   11       -8.489898   1.000000
   12       -8.174448   1.000000
   13       -8.051024   1.000000
   14       -7.037601   1.000000
   15       -6.812244   1.000000
   16       -6.091803   1.000000
   17       -5.758333   1.000000
   18       -5.553799   1.000000
   19       -5.354705   1.000000
   20       -5.306800   1.000000
   21       -4.946658   1.000000
   22       -4.893853   1.000000
   23       -4.713120   1.000000
   24       -4.309547   1.000000
   25       -3.838010   1.000000
   26       -3.532434   1.000000
   27       -3.354039   1.000000
   28       -3.148886   1.000000
   29       -3.043390   1.000000
   30       -2.866693   1.000000
   31       -2.739920   1.000000
   32       -2.481622   1.000000
   33       -2.401218   1.000000
   34       -2.311342   1.000000
   35       -2.116549   1.000000
   36       -2.069045   1.000000
   37       -1.895135   1.000000
   38       -1.758532   1.000000
   39       -1.698323   1.000000
   40       -1.466576   1.000000
   41       -1.369436   1.000000
   42       -1.159754   1.000000
   43       -1.050805   1.000000
   44       -0.868190   1.000000
   45       -0.704726   1.000000
   46       -0.612560   1.000000
   47       -0.464137   1.000000
   48       -0.344418   1.000000
   49       -0.200524   1.000000
   50       -0.077603   1.000000
   51       -0.057706   1.000000
   52        0.078501   1.000000
   53        0.226076   1.000000
   54        0.297315   1.000000
   55        0.387005   1.000000
   56        0.505342   1.000000
   57        0.627678   1.000000
   58        0.733419   1.000000
   59        0.821825   1.000000
   60        0.889457   1.000000
   61        0.988899   1.000000
   62        1.168905   1.000000
   63        1.203031   1.000000
   64        1.363369   1.000000
   65        1.483668   1.000000
   66        1.627193   1.000000
   67        1.675004   1.000000
   68        1.802023   1.000000
   69        1.855519   1.000000
   70        2.015887   1.000000
   71        2.131717   1.000000
   72        2.229582   1.000000
   73        2.307356   1.000000
   74        2.372137   1.000000
   75        2.584190   1.000000
   76        2.749825   1.000000
   77        2.787050   1.000000
   78        2.873634   1.000000
   79        2.929404   1.000000
   80        3.044630   1.000000
   81        3.157024   1.000000
   82        3.255396   1.000000
   83        3.277493   1.000000
   84        3.434985   1.000000
   85        3.455160   1.000000
   86        3.604355   1.000000
   87        3.756569   1.000000
   88        3.875614   1.000000
   89        3.941410   1.000000
   90        4.043184   1.000000
   91        4.136387   1.000000
   92        4.215439   1.000000
   93        4.401434   1.000000
   94        4.527934   1.000000
   95        4.643729   1.000000
   96        5.090672   1.000000
   97        7.075860   1.000000
   98        7.386562  -0.063638
   99        7.442585   0.000000
  100        7.593537   0.000000
  101        7.727840   0.000000
  102        7.832577   0.000000
  103        8.080892   0.000000
  104        8.148196   0.000000
  105        8.613106   0.000000
  106        8.838573   0.000000
  107        9.038657   0.000000
  108        9.573588   0.000000
  109        9.673966   0.000000
  110        9.810932   0.000000
  111        9.993986   0.000000
  112       10.245890   0.000000
  113       10.502892   0.000000
  114       10.665255   0.000000
  115       10.790816   0.000000
  116       10.928237   0.000000
  117       11.040480   0.000000
  118       11.211741   0.000000
  119       11.245155   0.000000
  120       11.330131   0.000000
  121       11.641224   0.000000
  122       11.747198   0.000000
  123       11.916492   0.000000
  124       12.114125   0.000000
  125       12.203051   0.000000
  126       12.368993   0.000000
  127       12.504211   0.000000
  128       12.620779   0.000000
 
  0.4000000E+00 -0.1666667E+00  0.2727273E+00  0.6060606E-02
    1      -11.799289   1.000000
    2      -11.259804   1.000000
    3      -11.021895   1.000000
    4      -10.859030   1.000000
    5      -10.720102   1.000000
    6      -10.286195   1.000000
    7       -9.113640   1.000000
    8       -8.847193   1.000000
    9       -8.773772   1.000000
   10       -8.564801   1.000000
   11       -8.503036   1.000000
   12       -8.254857   1.000000
   13       -8.004572   1.000000
   14       -7.002321   1.000000
   15       -6.808156   1.000000
   16       -6.057620   1.000000
   17       -5.743118   1.000000
   18       -5.597321   1.000000
   19       -5.401736   1.000000
   20       -5.251933   1.000000
   21       -4.997129   1.000000
   22       -4.951665   1.000000
   23       -4.803951   1.000000
   24       -4.313475   1.000000
   25       -3.897265   1.000000
   26       -3.593484   1.000000
   27       -3.269114   1.000000
   28       -3.182409   1.000000
   29       -2.876504   1.000000
   30       -2.763894   1.000000
   31       -2.580424   1.000000
   32       -2.423047   1.000000
   33       -2.360140   1.000000
   34       -2.281820   1.000000
   35       -2.118343   1.000000
   36       -2.013969   1.000000
   37       -1.817090   1.000000
   38       -1.728866   1.000000
   39       -1.573877   1.000000
   40       -1.454165   1.000000
   41       -1.401233   1.000000
   42       -1.230471   1.000000
   43       -1.067882   1.000000
   44       -0.942129   1.000000
   45       -0.793676   1.000000
   46       -0.677306   1.000000
   47       -0.619448   1.000000
   48       -0.566588   1.000000
   49       -0.394623   1.000000
   50       -0.238682   1.000000
   51       -0.122794   1.000000
   52        0.093296   1.000000
   53        0.216539   1.000000
   54        0.292203   1.000000
   55        0.365344   1.000000
   56        0.475417   1.000000
   57        0.634083   1.000000
   58        0.694458   1.000000
   59        0.795010   1.000000
   60        0.932273   1.000000
   61        1.019424   1.000000
   62        1.129187   1.000000
   63        1.281054   1.000000
   64        1.301291   1.000000
   65        1.488632   1.000000
   66        1.641397   1.000000
   67        1.769015   1.000000
   68        1.839737   1.000000
   69        1.929589   1.000000
   70        2.069843   1.000000
   71        2.264739   1.000000
   72        2.319869   1.000000
   73        2.493063   1.000000
   74        2.594433   1.000000
   75        2.631741   1.000000
   76        2.764339   1.000000
   77        2.891031   1.000000
   78        2.988502   1.000000
   79        3.045721   1.000000
   80        3.090312   1.000000
   81        3.102588   1.000000
   82        3.217299   1.000000
   83        3.263102   1.000000
   84        3.339500   1.000000
   85        3.526037   1.000000
   86        3.556340   1.000000
   87        3.696927   1.000000
   88        3.861102   1.000000
   89        3.886632   1.000000
   90        3.993350   1.000000
   91        4.038508   1.000000
   92        4.149364   1.000000
   93        4.300326   1.000000
   94        4.356668   1.000000
   95        4.550501   1.000000
   96        5.084002   1.000000
   97        7.007244   1.000000
   98        7.449470  -0.007487
   99        7.540978   0.000000
  100        7.591626   0.000000
  101        7.768012   0.000000
  102        7.862679   0.000000
  103        7.988651   0.000000
  104        8.165000   0.000000
  105        8.639291   0.000000
  106        8.976307   0.000000
  107        9.179392   0.000000
  108        9.715052   0.000000
  109        9.817519   0.000000
  110        9.917505   0.000000
  111       10.011046   0.000000
  112       10.182263   0.000000
  113       10.321977   0.000000
  114       10.457924   0.000000
  115       10.610805   0.000000
  116       10.856443   0.000000
  117       10.952031   0.000000
  118       11.074075   0.000000
  119       11.215764   0.000000
  120       11.290711   0.000000
  121       11.494511   0.000000
  122       11.652733   0.000000
  123       11.820918   0.000000
  124       12.040914   0.000000
  125       12.156325   0.000000
  126       12.214760   0.000000
  127       12.398021   0.000000
  128       12.531394   0.000000
 
 -0.4000000E+00 -0.1666667E+00  0.2727273E+00  0.6060606E-02
    1      -11.793346   1.000000
    2      -11.254483   1.000000
    3      -11.033547   1.000000
    4      -10.895554   1.000000
    5      -10.693728   1.000000
    6      -10.275957   1.000000
    7       -9.076783   1.000000
    8       -8.908391   1.000000
    9       -8.781385   1.000000
   10       -8.618270   1.000000
   11       -8.380597   1.000000
   12       -8.323909   1.000000
   13       -7.926080   1.000000
   14       -7.012802   1.000000
   15       -6.807247   1.000000
   16       -6.138715   1.000000
   17       -5.736327   1.000000
   18       -5.630810   1.000000
   19       -5.404790   1.000000
   20       -5.228001   1.000000
   21       -4.946068   1.000000
   22       -4.913113   1.000000
   23       -4.747600   1.000000
   24       -4.289406   1.000000
   25       -3.990898   1.000000
   26       -3.679148   1.000000
   27       -3.415398   1.000000
   28       -3.290611   1.000000
   29       -2.973797   1.000000
   30       -2.940215   1.000000
   31       -2.592836   1.000000
   32       -2.414140   1.000000
   33       -2.274174   1.000000
   34       -2.084834   1.000000
   35       -2.003010   1.000000
   36       -1.780529   1.000000
   37       -1.674948   1.000000
   38       -1.607397   1.000000
   39       -1.438990   1.000000
   40       -1.276235   1.000000
   41       -1.216658   1.000000
   42       -1.154333   1.000000
   43       -1.116242   1.000000
   44       -1.001065   1.000000
   45       -0.912862   1.000000
   46       -0.730727   1.000000
   47       -0.621659   1.000000
   48       -0.578988   1.000000
   49       -0.434581   1.000000
   50       -0.387774   1.000000
   51       -0.162089   1.000000
   52        0.025974   1.000000
   53        0.130832   1.000000
   54        0.264634   1.000000
   55        0.371500   1.000000
   56        0.451424   1.000000
   57        0.520152   1.000000
   58        0.733950   1.000000
   59        0.814423   1.000000
   60        0.874347   1.000000
   61        0.942885   1.000000
   62        1.013532   1.000000
   63        1.176317   1.000000
   64        1.279074   1.000000
   65        1.388659   1.000000
   66        1.486974   1.000000
   67        1.740969   1.000000
   68        1.843633   1.000000
   69        1.943904   1.000000
   70        1.995940   1.000000
   71        2.224932   1.000000
   72        2.397920   1.000000
   73        2.474678   1.000000
   74        2.666043   1.000000
   75        2.728647   1.000000
   76        2.779029   1.000000
   77        2.874277   1.000000
   78        2.969000   1.000000
   79        3.055220   1.000000
   80        3.144555   1.000000
   81        3.201072   1.000000
   82        3.242691   1.000000
   83        3.281736   1.000000
   84        3.412292   1.000000
   85        3.574752   1.000000
   86        3.694509   1.000000
   87        3.712593   1.000000
   88        3.827894   1.000000
   89        3.959104   1.000000
   90        3.990085   1.000000
   91        4.074954   1.000000
   92        4.203702   1.000000
   93        4.267593   1.000000
   94        4.341413   1.000000
   95        4.542205   1.000000
   96        5.107031   1.000000
   97        7.058062   1.000000
   98        7.418669  -0.022003
   99        7.582531   0.000000
  100        7.610459   0.000000
  101        7.728416   0.000000
  102        7.764423   0.000000
  103        7.984030   0.000000
  104        8.176133   0.000000
  105        8.604197   0.000000
  106        9.061004   0.000000
  107        9.261222   0.000000
  108        9.673378   0.000000
  109        9.863360   0.000000
  110        9.900269   0.000000
  111        9.972462   0.000000
  112       10.131118   0.000000
  113       10.326299   0.000000
  114       10.408976   0.000000
  115       10.782081   0.000000
  116       10.826096   0.000000
  117       11.006884   0.000000
  118       11.150323   0.000000
  119       11.267514   0.000000
  120       11.293434   0.000000
  121       11.420668   0.000000
  122       11.572885   0.000000
  123       11.775710   0.000000
  124       11.925211   0.000000
  125       11.985800   0.000000
  126       12.135648   0.000000
  127       12.380081   0.000000
  128       12.626833   0.000000
 
 -0.2000000E+00 -0.1666667E+00  0.2727273E+00  0.6060606E-02
    1      -11.796104   1.000000
    2      -11.253733   1.000000
    3      -10.998145   1.000000
    4      -10.928688   1.000000
    5      -10.688499   1.000000
    6      -10.281551   1.000000
    7       -9.123235   1.000000
    8       -8.888243   1.000000
    9       -8.756697   1.000000
   10       -8.619934   1.000000
   11       -8.473507   1.000000
   12       -8.203639   1.000000
   13       -7.907996   1.000000
   14       -7.059034   1.000000
   15       -6.808507   1.000000
   16       -6.214932   1.000000
   17       -5.751220   1.000000
   18       -5.611713   1.000000
   19       -5.328109   1.000000
   20       -5.281285   1.000000
   21       -4.882448   1.000000
   22       -4.827657   1.000000
   23       -4.619715   1.000000
   24       -4.279692   1.000000
   25       -4.006312   1.000000
   26       -3.612565   1.000000
   27       -3.526912   1.000000
   28       -3.405635   1.000000
   29       -3.203479   1.000000
   30       -2.975398   1.000000
   31       -2.819066   1.000000
   32       -2.481619   1.000000
   33       -2.296833   1.000000
   34       -2.140885   1.000000
   35       -1.976276   1.000000
   36       -1.786487   1.000000
   37       -1.614416   1.000000
   38       -1.508519   1.000000
   39       -1.384771   1.000000
   40       -1.277275   1.000000
   41       -1.127289   1.000000
   42       -1.054201   1.000000
   43       -0.944241   1.000000
   44       -0.872634   1.000000
   45       -0.837458   1.000000
   46       -0.664104   1.000000
   47       -0.592757   1.000000
   48       -0.470883   1.000000
   49       -0.350299   1.000000
   50       -0.260491   1.000000
   51       -0.147248   1.000000
   52        0.065468   1.000000
   53        0.124646   1.000000
   54        0.220625   1.000000
   55        0.352129   1.000000
   56        0.455505   1.000000
   57        0.602900   1.000000
   58        0.662708   1.000000
   59        0.744348   1.000000
   60        0.835299   1.000000
   61        0.896633   1.000000
   62        1.015878   1.000000
   63        1.095122   1.000000
   64        1.212554   1.000000
   65        1.324451   1.000000
   66        1.490791   1.000000
   67        1.616788   1.000000
   68        1.744685   1.000000
   69        1.813248   1.000000
   70        2.022391   1.000000
   71        2.133918   1.000000
   72        2.261808   1.000000
   73        2.360642   1.000000
   74        2.440631   1.000000
   75        2.623583   1.000000
   76        2.714027   1.000000
   77        2.825634   1.000000
   78        2.919559   1.000000
   79        3.036466   1.000000
   80        3.127473   1.000000
   81        3.206847   1.000000
   82        3.368621   1.000000
   83        3.395407   1.000000
   84        3.462175   1.000000
   85        3.556889   1.000000
   86        3.713431   1.000000
   87        3.776118   1.000000
   88        3.881023   1.000000
   89        4.025294   1.000000
   90        4.101702   1.000000
   91        4.184295   1.000000
   92        4.295311   1.000000
   93        4.343085   1.000000
   94        4.483803   1.000000
   95        4.621056   1.000000
   96        5.135346   1.000000
   97        7.161962   1.000000
   98        7.360267  -0.021024
   99        7.519871   0.000000
  100        7.543531   0.000000
  101        7.692720   0.000000
  102        7.749056   0.000000
  103        7.998864   0.000000
  104        8.188115   0.000000
  105        8.555676   0.000000
  106        8.942628   0.000000
  107        9.206413   0.000000
  108        9.592664   0.000000
  109        9.740087   0.000000
  110        9.806585   0.000000
  111        9.936107   0.000000
  112       10.020026   0.000000
  113       10.446056   0.000000
  114       10.565955   0.000000
  115       10.904859   0.000000
  116       11.069062   0.000000
  117       11.148183   0.000000
  118       11.233331   0.000000
  119       11.281393   0.000000
  120       11.413050   0.000000
  121       11.593775   0.000000
  122       11.757581   0.000000
  123       11.822672   0.000000
  124       11.966827   0.000000
  125       12.051096   0.000000
  126       12.182656   0.000000
  127       12.501063   0.000000
  128       12.554662   0.000000
 
  0.0000000E+00  0.0000000E+00  0.3636364E+00  0.6060606E-02
    1      -11.685836   1.000000
    2      -11.127334   1.000000
    3      -10.947417   1.000000
    4      -10.887461   1.000000
    5      -10.755797   1.000000
    6      -10.379011   1.000000
    7       -9.205005   1.000000
    8       -8.964205   1.000000
    9       -8.876171   1.000000
   10       -8.654082   1.000000
   11       -8.575711   1.000000
   12       -8.115053   1.000000
   13       -7.873526   1.000000
   14       -7.042368   1.000000
   15       -6.905268   1.000000
   16       -6.186031   1.000000
   17       -5.960421   1.000000
   18       -5.514654   1.000000
   19       -5.345907   1.000000
   20       -5.285423   1.000000
   21       -4.987245   1.000000
   22       -4.917663   1.000000
   23       -4.536658   1.000000
   24       -4.197995   1.000000
   25       -4.085824   1.000000
   26       -3.778110   1.000000
   27       -3.582448   1.000000
   28       -3.478972   1.000000
   29       -3.298450   1.000000
   30       -3.104563   1.000000
   31       -2.885801   1.000000
   32       -2.393297   1.000000
   33       -2.279443   1.000000
   34       -2.070420   1.000000
   35       -2.015488   1.000000
   36       -1.873410   1.000000
   37       -1.584639   1.000000
   38       -1.372300   1.000000
   39       -1.232863   1.000000
   40       -1.150110   1.000000
   41       -1.009996   1.000000
   42       -0.975575   1.000000
   43       -0.828221   1.000000
   44       -0.732721   1.000000
   45       -0.644316   1.000000
   46       -0.544326   1.000000
   47       -0.422862   1.000000
   48       -0.330573   1.000000
   49       -0.228279   1.000000
   50       -0.151548   1.000000
   51       -0.074520   1.000000
   52        0.062915   1.000000
   53        0.132856   1.000000
   54        0.266090   1.000000
   55        0.358915   1.000000
   56        0.449455   1.000000
   57        0.573951   1.000000
   58        0.699177   1.000000
   59        0.851074   1.000000
   60        0.904075   1.000000
   61        1.045467   1.000000
   62        1.112948   1.000000
   63        1.222287   1.000000
   64        1.298410   1.000000
   65        1.357575   1.000000
   66        1.459040   1.000000
   67        1.601314   1.000000
   68        1.688116   1.000000
   69        1.895974   1.000000
   70        2.061353   1.000000
   71        2.139031   1.000000
   72        2.229436   1.000000
   73        2.343653   1.000000
   74        2.478193   1.000000
   75        2.565535   1.000000
   76        2.684522   1.000000
   77        2.753920   1.000000
   78        2.831713   1.000000
   79        2.904365   1.000000
   80        3.020083   1.000000
   81        3.088597   1.000000
   82        3.155346   1.000000
   83        3.242383   1.000000
   84        3.405521   1.000000
   85        3.534931   1.000000
   86        3.613664   1.000000
   87        3.645286   1.000000
   88        3.925183   1.000000
   89        4.049012   1.000000
   90        4.189672   1.000000
   91        4.265002   1.000000
   92        4.321818   1.000000
   93        4.418211   1.000000
   94        4.546952   1.000000
   95        4.962945   1.000000
   96        5.156919   1.000000
   97        7.103469   1.000000
   98        7.237303   1.143283
   99        7.434120   0.000000
  100        7.505663   0.000000
  101        7.687653   0.000000
  102        7.870589   0.000000
  103        8.023134   0.000000
  104        8.086078   0.000000
  105        8.278171   0.000000
  106        8.509893   0.000000
  107        9.162551   0.000000
  108        9.346795   0.000000
  109        9.488841   0.000000
  110        9.574177   0.000000
  111        9.731650   0.000000
  112        9.827295   0.000000
  113       10.344680   0.000000
  114       10.424343   0.000000
  115       10.883644   0.000000
  116       11.023376   0.000000
  117       11.083895   0.000000
  118       11.161380   0.000000
  119       11.256225   0.000000
  120       11.414541   0.000000
  121       11.701596   0.000000
  122       11.832458   0.000000
  123       11.954697   0.000000
  124       12.170693   0.000000
  125       12.244883   0.000000
  126       12.360286   0.000000
  127       12.526692   0.000000
  128       12.668159   0.000000
 
  0.2000000E+00  0.1387779E-16  0.3636364E+00  0.6060606E-02
    1      -11.690763   1.000000
    2      -11.126561   1.000000
    3      -10.936717   1.000000
    4      -10.874566   1.000000
    5      -10.771493   1.000000
    6      -10.380121   1.000000
    7       -9.249204   1.000000
    8       -8.913724   1.000000
    9       -8.797497   1.000000
   10       -8.692273   1.000000
   11       -8.584432   1.000000
   12       -8.123432   1.000000
   13       -7.973904   1.000000
   14       -7.008739   1.000000
   15       -6.889338   1.000000
   16       -6.105331   1.000000
   17       -5.934204   1.000000
   18       -5.453764   1.000000
   19       -5.438442   1.000000
   20       -5.361180   1.000000
   21       -5.046023   1.000000
   22       -4.983571   1.000000
   23       -4.654584   1.000000
   24       -4.185346   1.000000
   25       -3.999662   1.000000
   26       -3.613196   1.000000
   27       -3.379521   1.000000
   28       -3.281556   1.000000
   29       -3.082333   1.000000
   30       -2.960930   1.000000
   31       -2.818157   1.000000
   32       -2.703831   1.000000
   33       -2.330525   1.000000
   34       -2.285406   1.000000
   35       -2.136990   1.000000
   36       -1.900190   1.000000
   37       -1.761594   1.000000
   38       -1.664071   1.000000
   39       -1.435026   1.000000
   40       -1.333870   1.000000
   41       -1.166976   1.000000
   42       -0.897295   1.000000
   43       -0.840457   1.000000
   44       -0.763063   1.000000
   45       -0.684985   1.000000
   46       -0.467394   1.000000
   47       -0.417059   1.000000
   48       -0.231068   1.000000
   49       -0.125346   1.000000
   50       -0.083869   1.000000
   51        0.076322   1.000000
   52        0.145349   1.000000
   53        0.196950   1.000000
   54        0.323377   1.000000
   55        0.391115   1.000000
   56        0.576940   1.000000
   57        0.717507   1.000000
   58        0.791401   1.000000
   59        0.842075   1.000000
   60        0.945880   1.000000
   61        1.027097   1.000000
   62        1.049771   1.000000
   63        1.139126   1.000000
   64        1.311205   1.000000
   65        1.368276   1.000000
   66        1.556258   1.000000
   67        1.667058   1.000000
   68        1.795102   1.000000
   69        1.926247   1.000000
   70        2.103632   1.000000
   71        2.199769   1.000000
   72        2.299561   1.000000
   73        2.349122   1.000000
   74        2.458920   1.000000
   75        2.618680   1.000000
   76        2.707025   1.000000
   77        2.764843   1.000000
   78        2.807936   1.000000
   79        2.864999   1.000000
   80        2.958852   1.000000
   81        3.045142   1.000000
   82        3.146568   1.000000
   83        3.216469   1.000000
   84        3.411256   1.000000
   85        3.514975   1.000000
   86        3.607050   1.000000
   87        3.677946   1.000000
   88        3.831702   1.000000
   89        3.984271   1.000000
   90        4.067220   1.000000
   91        4.161704   1.000000
   92        4.237389   1.000000
   93        4.353945   1.000000
   94        4.480040   1.000000
   95        4.957331   1.000000
   96        5.090803   1.000000
   97        7.158035   1.000000
   98        7.277037   0.785507
   99        7.343088   0.000000
  100        7.488701   0.000000
  101        7.709379   0.000000
  102        7.822065   0.000000
  103        8.057375   0.000000
  104        8.125301   0.000000
  105        8.352742   0.000000
  106        8.508623   0.000000
  107        9.143940   0.000000
  108        9.379428   0.000000
  109        9.539700   0.000000
  110        9.697556   0.000000
  111        9.832010   0.000000
  112        9.939365   0.000000
  113       10.286357   0.000000
  114       10.381406   0.000000
  115       10.742560   0.000000
  116       10.938613   0.000000
  117       10.986022   0.000000
  118       11.091136   0.000000
  119       11.285799   0.000000
  120       11.410133   0.000000
  121       11.561208   0.000000
  122       11.832018   0.000000
  123       11.905027   0.000000
  124       12.038979   0.000000
  125       12.272201   0.000000
  126       12.413119   0.000000
  127       12.520278   0.000000
  128       12.614457   0.000000
 
  0.4000000E+00  0.2775558E-16  0.3636364E+00  0.6060606E-02
    1      -11.687072   1.000000
    2      -11.121741   1.000000
    3      -10.970296   1.000000
    4      -10.855458   1.000000
    5      -10.778434   1.000000
    6      -10.368514   1.000000
    7       -9.248722   1.000000
    8       -8.921295   1.000000
    9       -8.804529   1.000000
   10       -8.605614   1.000000
   11       -8.562367   1.000000
   12       -8.204503   1.000000
   13       -8.026385   1.000000
   14       -6.997028   1.000000
   15       -6.865228   1.000000
   16       -6.048069   1.000000
   17       -5.863293   1.000000
   18       -5.534254   1.000000
   19       -5.463594   1.000000
   20       -5.313016   1.000000
   21       -5.148141   1.000000
   22       -5.118070   1.000000
   23       -4.761595   1.000000
   24       -4.191025   1.000000
   25       -3.974122   1.000000
   26       -3.446202   1.000000
   27       -3.175465   1.000000
   28       -3.099163   1.000000
   29       -3.006564   1.000000
   30       -2.666940   1.000000
   31       -2.638737   1.000000
   32       -2.585690   1.000000
   33       -2.462764   1.000000
   34       -2.332328   1.000000
   35       -2.253277   1.000000
   36       -2.062661   1.000000
   37       -1.918440   1.000000
   38       -1.733361   1.000000
   39       -1.554367   1.000000
   40       -1.503080   1.000000
   41       -1.380491   1.000000
   42       -1.135341   1.000000
   43       -0.997623   1.000000
   44       -0.849312   1.000000
   45       -0.686633   1.000000
   46       -0.558095   1.000000
   47       -0.434443   1.000000
   48       -0.287914   1.000000
   49       -0.113926   1.000000
   50       -0.025242   1.000000
   51        0.110312   1.000000
   52        0.267250   1.000000
   53        0.319289   1.000000
   54        0.399381   1.000000
   55        0.440276   1.000000
   56        0.573923   1.000000
   57        0.731504   1.000000
   58        0.808375   1.000000
   59        0.905426   1.000000
   60        0.969383   1.000000
   61        1.015292   1.000000
   62        1.123626   1.000000
   63        1.201755   1.000000
   64        1.411086   1.000000
   65        1.587031   1.000000
   66        1.646278   1.000000
   67        1.703950   1.000000
   68        1.872232   1.000000
   69        1.949208   1.000000
   70        2.056181   1.000000
   71        2.134075   1.000000
   72        2.302780   1.000000
   73        2.421448   1.000000
   74        2.554610   1.000000
   75        2.628331   1.000000
   76        2.758408   1.000000
   77        2.795692   1.000000
   78        2.843356   1.000000
   79        2.964387   1.000000
   80        2.990966   1.000000
   81        3.106423   1.000000
   82        3.181946   1.000000
   83        3.282525   1.000000
   84        3.363442   1.000000
   85        3.454282   1.000000
   86        3.579158   1.000000
   87        3.674728   1.000000
   88        3.738666   1.000000
   89        3.842173   1.000000
   90        3.912596   1.000000
   91        3.996614   1.000000
   92        4.125892   1.000000
   93        4.227734   1.000000
   94        4.369779   1.000000
   95        4.922687   1.000000
   96        5.035115   1.000000
   97        7.061916   1.000000
   98        7.373406  -0.043305
   99        7.446947   0.000000
  100        7.508008   0.000000
  101        7.724578   0.000000
  102        7.810604   0.000000
  103        8.033702   0.000000
  104        8.121406   0.000000
  105        8.422661   0.000000
  106        8.663088   0.000000
  107        9.164301   0.000000
  108        9.510636   0.000000
  109        9.618313   0.000000
  110        9.735569   0.000000
  111       10.012804   0.000000
  112       10.067304   0.000000
  113       10.192307   0.000000
  114       10.360268   0.000000
  115       10.506561   0.000000
  116       10.666062   0.000000
  117       10.794262   0.000000
  118       10.923240   0.000000
  119       11.106825   0.000000
  120       11.434944   0.000000
  121       11.514360   0.000000
  122       11.690124   0.000000
  123       11.848438   0.000000
  124       12.112726   0.000000
  125       12.287010   0.000000
  126       12.333588   0.000000
  127       12.492022   0.000000
  128       12.592844   0.000000
 
 -0.4000000E+00 -0.2775558E-16  0.3636364E+00  0.6060606E-02
    1      -11.679689   1.000000
    2      -11.118435   1.000000
    3      -10.995753   1.000000
    4      -10.869946   1.000000
    5      -10.760193   1.000000
    6      -10.361074   1.000000
    7       -9.204847   1.000000
    8       -8.944003   1.000000
    9       -8.899562   1.000000
   10       -8.601173   1.000000
   11       -8.428725   1.000000
   12       -8.299902   1.000000
   13       -7.953763   1.000000
   14       -7.011639   1.000000
   15       -6.876380   1.000000
   16       -6.082306   1.000000
   17       -5.875652   1.000000
   18       -5.560164   1.000000
   19       -5.426816   1.000000
   20       -5.268868   1.000000
   21       -5.160424   1.000000
   22       -5.120876   1.000000
   23       -4.708415   1.000000
   24       -4.156367   1.000000
   25       -4.097197   1.000000
   26       -3.609990   1.000000
   27       -3.331093   1.000000
   28       -3.218748   1.000000
   29       -2.956854   1.000000
   30       -2.762551   1.000000
   31       -2.571607   1.000000
   32       -2.481659   1.000000
   33       -2.245649   1.000000
   34       -2.190998   1.000000
   35       -2.134058   1.000000
   36       -1.898161   1.000000
   37       -1.751096   1.000000
   38       -1.662559   1.000000
   39       -1.583620   1.000000
   40       -1.513982   1.000000
   41       -1.298679   1.000000
   42       -1.206165   1.000000
   43       -1.011236   1.000000
   44       -0.836631   1.000000
   45       -0.775073   1.000000
   46       -0.617770   1.000000
   47       -0.500496   1.000000
   48       -0.366937   1.000000
   49       -0.230194   1.000000
   50       -0.141828   1.000000
   51        0.019806   1.000000
   52        0.080686   1.000000
   53        0.325086   1.000000
   54        0.407121   1.000000
   55        0.511431   1.000000
   56        0.593677   1.000000
   57        0.684790   1.000000
   58        0.774549   1.000000
   59        0.915118   1.000000
   60        0.999167   1.000000
   61        1.077648   1.000000
   62        1.141416   1.000000
   63        1.244443   1.000000
   64        1.340189   1.000000
   65        1.472243   1.000000
   66        1.615405   1.000000
   67        1.754432   1.000000
   68        1.910465   1.000000
   69        1.968665   1.000000
   70        2.105722   1.000000
   71        2.229341   1.000000
   72        2.275645   1.000000
   73        2.412365   1.000000
   74        2.512584   1.000000
   75        2.602810   1.000000
   76        2.736215   1.000000
   77        2.815545   1.000000
   78        2.900762   1.000000
   79        2.949208   1.000000
   80        3.027047   1.000000
   81        3.058673   1.000000
   82        3.141031   1.000000
   83        3.310419   1.000000
   84        3.347485   1.000000
   85        3.535308   1.000000
   86        3.575244   1.000000
   87        3.700286   1.000000
   88        3.781572   1.000000
   89        3.866814   1.000000
   90        3.937103   1.000000
   91        4.054195   1.000000
   92        4.085080   1.000000
   93        4.252865   1.000000
   94        4.366144   1.000000
   95        4.914574   1.000000
   96        5.055701   1.000000
   97        7.016836   1.000000
   98        7.399704  -0.050996
   99        7.488450   0.000000
  100        7.562254   0.000000
  101        7.720746   0.000000
  102        7.857177   0.000000
  103        7.968529   0.000000
  104        8.092241   0.000000
  105        8.380143   0.000000
  106        8.760494   0.000000
  107        9.192974   0.000000
  108        9.524791   0.000000
  109        9.622481   0.000000
  110        9.770202   0.000000
  111        9.815716   0.000000
  112        9.968499   0.000000
  113       10.158218   0.000000
  114       10.319265   0.000000
  115       10.545173   0.000000
  116       10.778037   0.000000
  117       10.850072   0.000000
  118       11.066248   0.000000
  119       11.166655   0.000000
  120       11.346820   0.000000
  121       11.498385   0.000000
  122       11.662981   0.000000
  123       11.752924   0.000000
  124       11.962440   0.000000
  125       12.210586   0.000000
  126       12.335948   0.000000
  127       12.390209   0.000000
  128       12.631452   0.000000
 
 -0.2000000E+00 -0.1387779E-16  0.3636364E+00  0.6060606E-02
    1      -11.678866   1.000000
    2      -11.124594   1.000000
    3      -10.979192   1.000000
    4      -10.887069   1.000000
    5      -10.748825   1.000000
    6      -10.367461   1.000000
    7       -9.159117   1.000000
    8       -9.006101   1.000000
    9       -8.919226   1.000000
   10       -8.630582   1.000000
   11       -8.479715   1.000000
   12       -8.202533   1.000000
   13       -7.865372   1.000000
   14       -7.040253   1.000000
   15       -6.902552   1.000000
   16       -6.174396   1.000000
   17       -5.927380   1.000000
   18       -5.559075   1.000000
   19       -5.343782   1.000000
   20       -5.221047   1.000000
   21       -5.063722   1.000000
   22       -5.030892   1.000000
   23       -4.575648   1.000000
   24       -4.218794   1.000000
   25       -4.096743   1.000000
   26       -3.772948   1.000000
   27       -3.593180   1.000000
   28       -3.373185   1.000000
   29       -3.219752   1.000000
   30       -2.969093   1.000000
   31       -2.809947   1.000000
   32       -2.402528   1.000000
   33       -2.135218   1.000000
   34       -2.000955   1.000000
   35       -1.967796   1.000000
   36       -1.751812   1.000000
   37       -1.550606   1.000000
   38       -1.401189   1.000000
   39       -1.367483   1.000000
   40       -1.297349   1.000000
   41       -1.116529   1.000000
   42       -1.035659   1.000000
   43       -0.931066   1.000000
   44       -0.890669   1.000000
   45       -0.822018   1.000000
   46       -0.620854   1.000000
   47       -0.455946   1.000000
   48       -0.399286   1.000000
   49       -0.330893   1.000000
   50       -0.173964   1.000000
   51       -0.044983   1.000000
   52        0.051844   1.000000
   53        0.222393   1.000000
   54        0.375976   1.000000
   55        0.424845   1.000000
   56        0.511501   1.000000
   57        0.556389   1.000000
   58        0.620313   1.000000
   59        0.797216   1.000000
   60        1.013190   1.000000
   61        1.105797   1.000000
   62        1.150272   1.000000
   63        1.203104   1.000000
   64        1.319138   1.000000
   65        1.394608   1.000000
   66        1.576055   1.000000
   67        1.670293   1.000000
   68        1.811614   1.000000
   69        1.920175   1.000000
   70        1.992246   1.000000
   71        2.167450   1.000000
   72        2.274408   1.000000
   73        2.355470   1.000000
   74        2.488620   1.000000
   75        2.604014   1.000000
   76        2.684684   1.000000
   77        2.750402   1.000000
   78        2.850274   1.000000
   79        2.955985   1.000000
   80        3.031559   1.000000
   81        3.082064   1.000000
   82        3.193175   1.000000
   83        3.271016   1.000000
   84        3.396393   1.000000
   85        3.487780   1.000000
   86        3.606707   1.000000
   87        3.705501   1.000000
   88        3.912026   1.000000
   89        3.960162   1.000000
   90        4.068604   1.000000
   91        4.224671   1.000000
   92        4.254060   1.000000
   93        4.374881   1.000000
   94        4.494014   1.000000
   95        4.932431   1.000000
   96        5.126808   1.000000
   97        7.043189   1.000000
   98        7.279769   0.678034
   99        7.490344   0.000000
  100        7.616362   0.000000
  101        7.705371   0.000000
  102        7.856923   0.000000
  103        7.970822   0.000000
  104        8.068732   0.000000
  105        8.291105   0.000000
  106        8.667814   0.000000
  107        9.173610   0.000000
  108        9.390949   0.000000
  109        9.513923   0.000000
  110        9.628541   0.000000
  111        9.734735   0.000000
  112        9.894332   0.000000
  113       10.254114   0.000000
  114       10.411377   0.000000
  115       10.761111   0.000000
  116       10.890670   0.000000
  117       10.971255   0.000000
  118       11.153715   0.000000
  119       11.193274   0.000000
  120       11.443898   0.000000
  121       11.689763   0.000000
  122       11.788791   0.000000
  123       11.854913   0.000000
  124       11.967813   0.000000
  125       12.177573   0.000000
  126       12.262918   0.000000
  127       12.402952   0.000000
  128       12.621493   0.000000
 
  0.0000000E+00  0.1666667E+00  0.3636364E+00  0.6060606E-02
    1      -11.697965   1.000000
    2      -11.088411   1.000000
    3      -10.939819   1.000000
    4      -10.896616   1.000000
    5      -10.784683   1.000000
    6      -10.367477   1.000000
    7       -9.181867   1.000000
    8       -9.026882   1.000000
    9       -8.944350   1.000000
   10       -8.598030   1.000000
   11       -8.450443   1.000000
   12       -8.119303   1.000000
   13       -7.987360   1.000000
   14       -7.048730   1.000000
   15       -6.850531   1.000000
   16       -6.222010   1.000000
   17       -5.978700   1.000000
   18       -5.576114   1.000000
   19       -5.294437   1.000000
   20       -5.203376   1.000000
   21       -5.044801   1.000000
   22       -4.891234   1.000000
   23       -4.656500   1.000000
   24       -4.280284   1.000000
   25       -4.020964   1.000000
   26       -3.604734   1.000000
   27       -3.442949   1.000000
   28       -3.250237   1.000000
   29       -3.119560   1.000000
   30       -3.024427   1.000000
   31       -2.950638   1.000000
   32       -2.571689   1.000000
   33       -2.416721   1.000000
   34       -2.235121   1.000000
   35       -2.093605   1.000000
   36       -1.934156   1.000000
   37       -1.623955   1.000000
   38       -1.530649   1.000000
   39       -1.342838   1.000000
   40       -1.238386   1.000000
   41       -1.154327   1.000000
   42       -1.048757   1.000000
   43       -0.914539   1.000000
   44       -0.760555   1.000000
   45       -0.664293   1.000000
   46       -0.536733   1.000000
   47       -0.436333   1.000000
   48       -0.222121   1.000000
   49       -0.160203   1.000000
   50       -0.104955   1.000000
   51        0.041519   1.000000
   52        0.100491   1.000000
   53        0.203930   1.000000
   54        0.307444   1.000000
   55        0.443143   1.000000
   56        0.585498   1.000000
   57        0.668919   1.000000
   58        0.752501   1.000000
   59        0.863632   1.000000
   60        0.991245   1.000000
   61        1.070760   1.000000
   62        1.124885   1.000000
   63        1.172708   1.000000
   64        1.287674   1.000000
   65        1.377587   1.000000
   66        1.460705   1.000000
   67        1.609173   1.000000
   68        1.745948   1.000000
   69        1.909094   1.000000
   70        2.048907   1.000000
   71        2.162492   1.000000
   72        2.300941   1.000000
   73        2.402579   1.000000
   74        2.500436   1.000000
   75        2.578375   1.000000
   76        2.654225   1.000000
   77        2.700814   1.000000
   78        2.812960   1.000000
   79        2.917139   1.000000
   80        3.037296   1.000000
   81        3.084848   1.000000
   82        3.163209   1.000000
   83        3.265237   1.000000
   84        3.339978   1.000000
   85        3.510843   1.000000
   86        3.588990   1.000000
   87        3.635930   1.000000
   88        3.834946   1.000000
   89        3.959613   1.000000
   90        4.191760   1.000000
   91        4.278021   1.000000
   92        4.337050   1.000000
   93        4.388639   1.000000
   94        4.516887   1.000000
   95        4.857884   1.000000
   96        5.072079   1.000000
   97        7.169921   1.000000
   98        7.303539   0.738852
   99        7.327645   0.000000
  100        7.462317   0.000000
  101        7.664141   0.000000
  102        7.886013   0.000000
  103        8.011589   0.000000
  104        8.079607   0.000000
  105        8.267822   0.000000
  106        8.634632   0.000000
  107        9.153858   0.000000
  108        9.339532   0.000000
  109        9.437662   0.000000
  110        9.635746   0.000000
  111        9.811166   0.000000
  112        9.868112   0.000000
  113       10.366234   0.000000
  114       10.414866   0.000000
  115       10.755816   0.000000
  116       10.870515   0.000000
  117       11.095773   0.000000
  118       11.105283   0.000000
  119       11.243463   0.000000
  120       11.379922   0.000000
  121       11.767468   0.000000
  122       11.841673   0.000000
  123       11.969084   0.000000
  124       12.048391   0.000000
  125       12.233161   0.000000
  126       12.290934   0.000000
  127       12.591157   0.000000
  128       12.702513   0.000000
 
  0.2000000E+00  0.1666667E+00  0.3636364E+00  0.6060606E-02
    1      -11.705349   1.000000
    2      -11.075919   1.000000
    3      -10.932564   1.000000
    4      -10.893109   1.000000
    5      -10.792037   1.000000
    6      -10.372395   1.000000
    7       -9.221823   1.000000
    8       -8.968746   1.000000
    9       -8.876161   1.000000
   10       -8.620150   1.000000
   11       -8.567910   1.000000
   12       -8.080001   1.000000
   13       -8.038259   1.000000
   14       -6.992936   1.000000
   15       -6.827791   1.000000
   16       -6.148638   1.000000
   17       -6.005501   1.000000
   18       -5.518140   1.000000
   19       -5.340640   1.000000
   20       -5.294574   1.000000
   21       -5.010862   1.000000
   22       -4.912018   1.000000
   23       -4.780498   1.000000
   24       -4.321022   1.000000
   25       -3.920156   1.000000
   26       -3.504005   1.000000
   27       -3.359461   1.000000
   28       -3.161289   1.000000
   29       -3.061044   1.000000
   30       -2.972015   1.000000
   31       -2.849485   1.000000
   32       -2.664556   1.000000
   33       -2.490926   1.000000
   34       -2.269979   1.000000
   35       -2.166819   1.000000
   36       -2.132104   1.000000
   37       -1.679090   1.000000
   38       -1.621766   1.000000
   39       -1.430541   1.000000
   40       -1.301463   1.000000
   41       -1.229811   1.000000
   42       -1.028388   1.000000
   43       -0.808093   1.000000
   44       -0.661353   1.000000
   45       -0.589552   1.000000
   46       -0.538676   1.000000
   47       -0.412399   1.000000
   48       -0.253604   1.000000
   49       -0.186861   1.000000
   50       -0.151392   1.000000
   51       -0.014336   1.000000
   52        0.124271   1.000000
   53        0.291776   1.000000
   54        0.369742   1.000000
   55        0.537746   1.000000
   56        0.589653   1.000000
   57        0.666905   1.000000
   58        0.766190   1.000000
   59        0.850343   1.000000
   60        0.963899   1.000000
   61        1.036534   1.000000
   62        1.122771   1.000000
   63        1.165802   1.000000
   64        1.210566   1.000000
   65        1.371138   1.000000
   66        1.520309   1.000000
   67        1.656558   1.000000
   68        1.854166   1.000000
   69        1.917999   1.000000
   70        2.097273   1.000000
   71        2.224388   1.000000
   72        2.307036   1.000000
   73        2.396874   1.000000
   74        2.475350   1.000000
   75        2.624484   1.000000
   76        2.662693   1.000000
   77        2.756304   1.000000
   78        2.889409   1.000000
   79        2.960992   1.000000
   80        3.002688   1.000000
   81        3.042048   1.000000
   82        3.184025   1.000000
   83        3.278386   1.000000
   84        3.313791   1.000000
   85        3.465105   1.000000
   86        3.576402   1.000000
   87        3.719641   1.000000
   88        3.825907   1.000000
   89        3.943201   1.000000
   90        4.137683   1.000000
   91        4.180348   1.000000
   92        4.257149   1.000000
   93        4.322425   1.000000
   94        4.437632   1.000000
   95        4.866592   1.000000
   96        5.010734   1.000000
   97        7.208158   1.000000
   98        7.297617   0.787556
   99        7.340441   0.000000
  100        7.401042   0.000000
  101        7.673601   0.000000
  102        7.882815   0.000000
  103        8.037491   0.000000
  104        8.107944   0.000000
  105        8.305824   0.000000
  106        8.579838   0.000000
  107        9.159589   0.000000
  108        9.304457   0.000000
  109        9.475696   0.000000
  110        9.723976   0.000000
  111        9.828947   0.000000
  112       10.011103   0.000000
  113       10.359398   0.000000
  114       10.440780   0.000000
  115       10.575513   0.000000
  116       10.871038   0.000000
  117       10.900608   0.000000
  118       11.127497   0.000000
  119       11.254524   0.000000
  120       11.395463   0.000000
  121       11.646247   0.000000
  122       11.743315   0.000000
  123       11.964300   0.000000
  124       12.022632   0.000000
  125       12.085888   0.000000
  126       12.292252   0.000000
  127       12.467126   0.000000
  128       12.728719   0.000000
 
  0.4000000E+00  0.1666667E+00  0.3636364E+00  0.6060606E-02
    1      -11.702314   1.000000
    2      -11.068264   1.000000
    3      -10.965121   1.000000
    4      -10.876816   1.000000
    5      -10.798781   1.000000
    6      -10.362778   1.000000
    7       -9.233487   1.000000
    8       -8.944479   1.000000
    9       -8.770913   1.000000
   10       -8.663599   1.000000
   11       -8.605477   1.000000
   12       -8.121003   1.000000
   13       -8.070965   1.000000
   14       -6.979538   1.000000
   15       -6.802938   1.000000
   16       -6.083709   1.000000
   17       -5.953757   1.000000
   18       -5.540780   1.000000
   19       -5.388178   1.000000
   20       -5.292996   1.000000
   21       -5.097437   1.000000
   22       -5.035847   1.000000
   23       -4.872014   1.000000
   24       -4.319293   1.000000
   25       -3.865387   1.000000
   26       -3.352631   1.000000
   27       -3.234966   1.000000
   28       -3.090489   1.000000
   29       -2.932861   1.000000
   30       -2.796221   1.000000
   31       -2.681057   1.000000
   32       -2.577827   1.000000
   33       -2.424617   1.000000
   34       -2.353063   1.000000
   35       -2.192647   1.000000
   36       -2.123145   1.000000
   37       -1.954877   1.000000
   38       -1.732700   1.000000
   39       -1.533062   1.000000
   40       -1.452194   1.000000
   41       -1.335017   1.000000
   42       -1.144044   1.000000
   43       -1.015712   1.000000
   44       -0.920626   1.000000
   45       -0.714087   1.000000
   46       -0.553552   1.000000
   47       -0.401058   1.000000
   48       -0.324674   1.000000
   49       -0.153158   1.000000
   50       -0.058256   1.000000
   51        0.077224   1.000000
   52        0.174539   1.000000
   53        0.330589   1.000000
   54        0.411121   1.000000
   55        0.463722   1.000000
   56        0.681707   1.000000
   57        0.758364   1.000000
   58        0.821928   1.000000
   59        0.901318   1.000000
   60        1.007126   1.000000
   61        1.069161   1.000000
   62        1.126053   1.000000
   63        1.262177   1.000000
   64        1.328235   1.000000
   65        1.442538   1.000000
   66        1.595142   1.000000
   67        1.747058   1.000000
   68        1.827594   1.000000
   69        1.945215   1.000000
   70        2.101747   1.000000
   71        2.212584   1.000000
   72        2.388901   1.000000
   73        2.434816   1.000000
   74        2.570667   1.000000
   75        2.633953   1.000000
   76        2.733094   1.000000
   77        2.812917   1.000000
   78        2.886093   1.000000
   79        2.942382   1.000000
   80        3.016732   1.000000
   81        3.124521   1.000000
   82        3.253771   1.000000
   83        3.299059   1.000000
   84        3.351736   1.000000
   85        3.447410   1.000000
   86        3.537043   1.000000
   87        3.618092   1.000000
   88        3.786642   1.000000
   89        3.854000   1.000000
   90        3.987948   1.000000
   91        4.059426   1.000000
   92        4.102742   1.000000
   93        4.173033   1.000000
   94        4.350556   1.000000
   95        4.843005   1.000000
   96        4.954057   1.000000
   97        7.100262   1.000000
   98        7.386561  -0.123876
   99        7.434137   0.000000
  100        7.462977   0.000000
  101        7.721379   0.000000
  102        7.809597   0.000000
  103        8.030411   0.000000
  104        8.137249   0.000000
  105        8.345323   0.000000
  106        8.717747   0.000000
  107        9.179509   0.000000
  108        9.378404   0.000000
  109        9.555199   0.000000
  110        9.765770   0.000000
  111        9.967240   0.000000
  112       10.176096   0.000000
  113       10.264950   0.000000
  114       10.375022   0.000000
  115       10.460922   0.000000
  116       10.611232   0.000000
  117       10.838597   0.000000
  118       10.980770   0.000000
  119       11.049658   0.000000
  120       11.377635   0.000000
  121       11.444628   0.000000
  122       11.634112   0.000000
  123       11.870055   0.000000
  124       12.052450   0.000000
  125       12.123736   0.000000
  126       12.222658   0.000000
  127       12.477043   0.000000
  128       12.733388   0.000000
 
 -0.4000000E+00  0.1666667E+00  0.3636364E+00  0.6060606E-02
    1      -11.692848   1.000000
    2      -11.078158   1.000000
    3      -10.980905   1.000000
    4      -10.885459   1.000000
    5      -10.789074   1.000000
    6      -10.352943   1.000000
    7       -9.213211   1.000000
    8       -8.978448   1.000000
    9       -8.834086   1.000000
   10       -8.607461   1.000000
   11       -8.514870   1.000000
   12       -8.141327   1.000000
   13       -8.083176   1.000000
   14       -7.010390   1.000000
   15       -6.823836   1.000000
   16       -6.106572   1.000000
   17       -5.925333   1.000000
   18       -5.583321   1.000000
   19       -5.368691   1.000000
   20       -5.237118   1.000000
   21       -5.164492   1.000000
   22       -5.075681   1.000000
   23       -4.824289   1.000000
   24       -4.267406   1.000000
   25       -3.958793   1.000000
   26       -3.392540   1.000000
   27       -3.189200   1.000000
   28       -3.153011   1.000000
   29       -2.923925   1.000000
   30       -2.742373   1.000000
   31       -2.657655   1.000000
   32       -2.457793   1.000000
   33       -2.373395   1.000000
   34       -2.262180   1.000000
   35       -2.143226   1.000000
   36       -2.014904   1.000000
   37       -1.838928   1.000000
   38       -1.763080   1.000000
   39       -1.610348   1.000000
   40       -1.553076   1.000000
   41       -1.320024   1.000000
   42       -1.250847   1.000000
   43       -1.118667   1.000000
   44       -0.948906   1.000000
   45       -0.800637   1.000000
   46       -0.587849   1.000000
   47       -0.428851   1.000000
   48       -0.334465   1.000000
   49       -0.198966   1.000000
   50       -0.150263   1.000000
   51       -0.043215   1.000000
   52        0.082908   1.000000
   53        0.304085   1.000000
   54        0.438267   1.000000
   55        0.554563   1.000000
   56        0.714633   1.000000
   57        0.792621   1.000000
   58        0.895330   1.000000
   59        0.943214   1.000000
   60        1.044689   1.000000
   61        1.090712   1.000000
   62        1.173761   1.000000
   63        1.308966   1.000000
   64        1.394187   1.000000
   65        1.528913   1.000000
   66        1.669350   1.000000
   67        1.784179   1.000000
   68        1.838719   1.000000
   69        2.004579   1.000000
   70        2.079968   1.000000
   71        2.232325   1.000000
   72        2.297259   1.000000
   73        2.434937   1.000000
   74        2.510641   1.000000
   75        2.582796   1.000000
   76        2.676690   1.000000
   77        2.781438   1.000000
   78        2.818467   1.000000
   79        2.907808   1.000000
   80        3.033664   1.000000
   81        3.115899   1.000000
   82        3.257972   1.000000
   83        3.300059   1.000000
   84        3.361624   1.000000
   85        3.455607   1.000000
   86        3.583510   1.000000
   87        3.627898   1.000000
   88        3.748454   1.000000
   89        3.862546   1.000000
   90        3.972625   1.000000
   91        4.060425   1.000000
   92        4.121048   1.000000
   93        4.194442   1.000000
   94        4.313785   1.000000
   95        4.832822   1.000000
   96        4.973043   1.000000
   97        7.068438   1.000000
   98        7.364399   0.066483
   99        7.442169   0.000000
  100        7.576240   0.000000
  101        7.711698   0.000000
  102        7.846136   0.000000
  103        7.983253   0.000000
  104        8.123473   0.000000
  105        8.332458   0.000000
  106        8.838418   0.000000
  107        9.176161   0.000000
  108        9.449937   0.000000
  109        9.631415   0.000000
  110        9.782424   0.000000
  111        9.887832   0.000000
  112       10.094693   0.000000
  113       10.161284   0.000000
  114       10.291017   0.000000
  115       10.470285   0.000000
  116       10.643727   0.000000
  117       10.962120   0.000000
  118       11.004492   0.000000
  119       11.139194   0.000000
  120       11.257088   0.000000
  121       11.429258   0.000000
  122       11.606620   0.000000
  123       11.831300   0.000000
  124       11.976238   0.000000
  125       12.161200   0.000000
  126       12.259031   0.000000
  127       12.443613   0.000000
  128       12.646161   0.000000
 
 -0.2000000E+00  0.1666667E+00  0.3636364E+00  0.6060606E-02
    1      -11.690019   1.000000
    2      -11.092768   1.000000
    3      -10.964280   1.000000
    4      -10.895210   1.000000
    5      -10.781925   1.000000
    6      -10.355784   1.000000
    7       -9.177454   1.000000
    8       -9.018091   1.000000
    9       -8.938670   1.000000
   10       -8.591271   1.000000
   11       -8.382027   1.000000
   12       -8.192502   1.000000
   13       -8.009213   1.000000
   14       -7.054265   1.000000
   15       -6.851753   1.000000
   16       -6.202592   1.000000
   17       -5.924776   1.000000
   18       -5.604510   1.000000
   19       -5.320524   1.000000
   20       -5.200265   1.000000
   21       -5.106625   1.000000
   22       -4.997467   1.000000
   23       -4.691808   1.000000
   24       -4.247500   1.000000
   25       -4.035872   1.000000
   26       -3.537824   1.000000
   27       -3.384018   1.000000
   28       -3.245956   1.000000
   29       -2.961144   1.000000
   30       -2.922523   1.000000
   31       -2.815263   1.000000
   32       -2.510033   1.000000
   33       -2.352025   1.000000
   34       -2.241289   1.000000
   35       -2.008933   1.000000
   36       -1.866725   1.000000
   37       -1.799812   1.000000
   38       -1.572799   1.000000
   39       -1.478974   1.000000
   40       -1.369735   1.000000
   41       -1.206918   1.000000
   42       -1.161110   1.000000
   43       -1.010763   1.000000
   44       -0.865741   1.000000
   45       -0.732958   1.000000
   46       -0.641061   1.000000
   47       -0.512057   1.000000
   48       -0.336770   1.000000
   49       -0.233574   1.000000
   50       -0.153346   1.000000
   51       -0.022924   1.000000
   52        0.132199   1.000000
   53        0.247494   1.000000
   54        0.407247   1.000000
   55        0.501187   1.000000
   56        0.589566   1.000000
   57        0.722042   1.000000
   58        0.890616   1.000000
   59        0.898739   1.000000
   60        0.975277   1.000000
   61        1.090628   1.000000
   62        1.109433   1.000000
   63        1.341209   1.000000
   64        1.399197   1.000000
   65        1.477614   1.000000
   66        1.592098   1.000000
   67        1.736760   1.000000
   68        1.772653   1.000000
   69        2.020161   1.000000
   70        2.151924   1.000000
   71        2.230195   1.000000
   72        2.252829   1.000000
   73        2.308263   1.000000
   74        2.478629   1.000000
   75        2.538633   1.000000
   76        2.578654   1.000000
   77        2.694689   1.000000
   78        2.779648   1.000000
   79        2.838694   1.000000
   80        3.048547   1.000000
   81        3.119353   1.000000
   82        3.203891   1.000000
   83        3.273639   1.000000
   84        3.348487   1.000000
   85        3.456385   1.000000
   86        3.633315   1.000000
   87        3.703513   1.000000
   88        3.772114   1.000000
   89        3.937708   1.000000
   90        4.026497   1.000000
   91        4.207407   1.000000
   92        4.270708   1.000000
   93        4.326768   1.000000
   94        4.463116   1.000000
   95        4.839481   1.000000
   96        5.041707   1.000000
   97        7.109557   1.000000
   98        7.315757   0.293942
   99        7.356427   0.000000
  100        7.593611   0.000000
  101        7.698889   0.000000
  102        7.875950   0.000000
  103        7.971907   0.000000
  104        8.094970   0.000000
  105        8.280275   0.000000
  106        8.799950   0.000000
  107        9.149140   0.000000
  108        9.430800   0.000000
  109        9.487594   0.000000
  110        9.704790   0.000000
  111        9.808129   0.000000
  112        9.924882   0.000000
  113       10.244881   0.000000
  114       10.380911   0.000000
  115       10.607351   0.000000
  116       10.738133   0.000000
  117       11.038426   0.000000
  118       11.083701   0.000000
  119       11.215922   0.000000
  120       11.436869   0.000000
  121       11.645266   0.000000
  122       11.758294   0.000000
  123       11.914752   0.000000
  124       11.973950   0.000000
  125       12.176290   0.000000
  126       12.275938   0.000000
  127       12.446396   0.000000
  128       12.606845   0.000000
 
  0.0000000E+00  0.3333333E+00  0.3636364E+00  0.6060606E-02
    1      -11.699680   1.000000
    2      -11.063830   1.000000
    3      -10.957898   1.000000
    4      -10.886864   1.000000
    5      -10.816308   1.000000
    6      -10.349379   1.000000
    7       -9.146058   1.000000
    8       -9.080138   1.000000
    9       -8.942153   1.000000
   10       -8.541907   1.000000
   11       -8.383384   1.000000
   12       -8.159846   1.000000
   13       -8.081900   1.000000
   14       -7.087297   1.000000
   15       -6.797629   1.000000
   16       -6.207153   1.000000
   17       -5.969194   1.000000
   18       -5.668268   1.000000
   19       -5.286446   1.000000
   20       -5.156203   1.000000
   21       -5.044172   1.000000
   22       -4.816698   1.000000
   23       -4.758297   1.000000
   24       -4.523024   1.000000
   25       -3.782015   1.000000
   26       -3.433704   1.000000
   27       -3.281130   1.000000
   28       -3.250553   1.000000
   29       -3.027130   1.000000
   30       -2.914055   1.000000
   31       -2.778531   1.000000
   32       -2.581792   1.000000
   33       -2.514293   1.000000
   34       -2.356536   1.000000
   35       -2.106756   1.000000
   36       -1.996226   1.000000
   37       -1.779848   1.000000
   38       -1.606329   1.000000
   39       -1.481615   1.000000
   40       -1.420030   1.000000
   41       -1.294933   1.000000
   42       -1.146401   1.000000
   43       -1.121329   1.000000
   44       -0.884123   1.000000
   45       -0.682195   1.000000
   46       -0.602235   1.000000
   47       -0.378799   1.000000
   48       -0.295551   1.000000
   49       -0.098944   1.000000
   50        0.030555   1.000000
   51        0.128235   1.000000
   52        0.202693   1.000000
   53        0.302737   1.000000
   54        0.393061   1.000000
   55        0.616927   1.000000
   56        0.676421   1.000000
   57        0.690623   1.000000
   58        0.792345   1.000000
   59        0.846788   1.000000
   60        0.955232   1.000000
   61        1.094620   1.000000
   62        1.125805   1.000000
   63        1.282658   1.000000
   64        1.330281   1.000000
   65        1.429037   1.000000
   66        1.576421   1.000000
   67        1.622490   1.000000
   68        1.820684   1.000000
   69        1.962320   1.000000
   70        2.034392   1.000000
   71        2.249091   1.000000
   72        2.260421   1.000000
   73        2.300977   1.000000
   74        2.421042   1.000000
   75        2.510622   1.000000
   76        2.572397   1.000000
   77        2.670401   1.000000
   78        2.723278   1.000000
   79        2.910724   1.000000
   80        3.044533   1.000000
   81        3.190269   1.000000
   82        3.249403   1.000000
   83        3.351179   1.000000
   84        3.425856   1.000000
   85        3.504360   1.000000
   86        3.586309   1.000000
   87        3.724274   1.000000
   88        3.792958   1.000000
   89        3.951414   1.000000
   90        4.057372   1.000000
   91        4.177559   1.000000
   92        4.364159   1.000000
   93        4.425378   1.000000
   94        4.522637   1.000000
   95        4.622051   1.000000
   96        4.833247   1.000000
   97        7.137042   1.000000
   98        7.276397   0.927315
   99        7.434205   0.000000
  100        7.493042   0.000000
  101        7.665090   0.000000
  102        7.892544   0.000000
  103        7.982825   0.000000
  104        8.091661   0.000000
  105        8.335795   0.000000
  106        8.798207   0.000000
  107        9.127478   0.000000
  108        9.344630   0.000000
  109        9.448837   0.000000
  110        9.642675   0.000000
  111        9.945466   0.000000
  112       10.030929   0.000000
  113       10.327559   0.000000
  114       10.472327   0.000000
  115       10.562200   0.000000
  116       10.653256   0.000000
  117       10.882212   0.000000
  118       11.104404   0.000000
  119       11.272916   0.000000
  120       11.351472   0.000000
  121       11.671746   0.000000
  122       11.802966   0.000000
  123       11.854229   0.000000
  124       12.056635   0.000000
  125       12.086394   0.000000
  126       12.317704   0.000000
  127       12.552400   0.000000
  128       12.653922   0.000000
 
  0.2000000E+00  0.3333333E+00  0.3636364E+00  0.6060606E-02
    1      -11.708521   1.000000
    2      -11.043310   1.000000
    3      -10.955813   1.000000
    4      -10.888197   1.000000
    5      -10.815390   1.000000
    6      -10.358854   1.000000
    7       -9.153446   1.000000
    8       -9.043344   1.000000
    9       -8.924721   1.000000
   10       -8.590180   1.000000
   11       -8.467870   1.000000
   12       -8.175009   1.000000
   13       -8.039150   1.000000
   14       -7.019733   1.000000
   15       -6.776811   1.000000
   16       -6.150487   1.000000
   17       -6.021087   1.000000
   18       -5.612647   1.000000
   19       -5.255796   1.000000
   20       -5.166452   1.000000
   21       -5.047414   1.000000
   22       -4.908025   1.000000
   23       -4.832062   1.000000
   24       -4.579780   1.000000
   25       -3.732103   1.000000
   26       -3.372774   1.000000
   27       -3.290148   1.000000
   28       -3.148686   1.000000
   29       -2.979221   1.000000
   30       -2.881688   1.000000
   31       -2.727620   1.000000
   32       -2.655233   1.000000
   33       -2.552383   1.000000
   34       -2.416229   1.000000
   35       -2.157462   1.000000
   36       -1.998762   1.000000
   37       -1.877946   1.000000
   38       -1.677855   1.000000
   39       -1.567445   1.000000
   40       -1.422198   1.000000
   41       -1.253230   1.000000
   42       -1.143000   1.000000
   43       -0.999769   1.000000
   44       -0.751843   1.000000
   45       -0.609718   1.000000
   46       -0.509391   1.000000
   47       -0.368617   1.000000
   48       -0.251377   1.000000
   49       -0.171016   1.000000
   50       -0.041286   1.000000
   51        0.025839   1.000000
   52        0.092889   1.000000
   53        0.296131   1.000000
   54        0.447875   1.000000
   55        0.519304   1.000000
   56        0.653808   1.000000
   57        0.738450   1.000000
   58        0.832158   1.000000
   59        0.886304   1.000000
   60        0.964311   1.000000
   61        1.052003   1.000000
   62        1.100471   1.000000
   63        1.183317   1.000000
   64        1.299665   1.000000
   65        1.427051   1.000000
   66        1.555563   1.000000
   67        1.629128   1.000000
   68        1.881777   1.000000
   69        2.013829   1.000000
   70        2.059013   1.000000
   71        2.204871   1.000000
   72        2.257487   1.000000
   73        2.317842   1.000000
   74        2.495617   1.000000
   75        2.578345   1.000000
   76        2.587895   1.000000
   77        2.727923   1.000000
   78        2.840172   1.000000
   79        3.009034   1.000000
   80        3.057230   1.000000
   81        3.156832   1.000000
   82        3.205473   1.000000
   83        3.375616   1.000000
   84        3.423167   1.000000
   85        3.513650   1.000000
   86        3.610552   1.000000
   87        3.763473   1.000000
   88        3.816232   1.000000
   89        3.916084   1.000000
   90        3.996258   1.000000
   91        4.148314   1.000000
   92        4.321497   1.000000
   93        4.360335   1.000000
   94        4.424507   1.000000
   95        4.632075   1.000000
   96        4.784167   1.000000
   97        7.191169   1.000000
   98        7.286650   0.924526
   99        7.404546   0.000000
  100        7.445718   0.000000
  101        7.691281   0.000000
  102        7.899656   0.000000
  103        8.008913   0.000000
  104        8.088022   0.000000
  105        8.353927   0.000000
  106        8.704205   0.000000
  107        9.100601   0.000000
  108        9.349326   0.000000
  109        9.452727   0.000000
  110        9.677960   0.000000
  111        9.939119   0.000000
  112       10.161252   0.000000
  113       10.354070   0.000000
  114       10.458487   0.000000
  115       10.548466   0.000000
  116       10.639466   0.000000
  117       10.773947   0.000000
  118       11.091464   0.000000
  119       11.196145   0.000000
  120       11.330642   0.000000
  121       11.507162   0.000000
  122       11.756963   0.000000
  123       11.833932   0.000000
  124       11.985119   0.000000
  125       12.083768   0.000000
  126       12.218566   0.000000
  127       12.400197   0.000000
  128       12.745762   0.000000
 
  0.4000000E+00  0.3333333E+00  0.3636364E+00  0.6060606E-02
    1      -11.707695   1.000000
    2      -11.035315   1.000000
    3      -10.966364   1.000000
    4      -10.881295   1.000000
    5      -10.830056   1.000000
    6      -10.349735   1.000000
    7       -9.173336   1.000000
    8       -8.994491   1.000000
    9       -8.830756   1.000000
   10       -8.649227   1.000000
   11       -8.583316   1.000000
   12       -8.206735   1.000000
   13       -7.987743   1.000000
   14       -6.975591   1.000000
   15       -6.751444   1.000000
   16       -6.102834   1.000000
   17       -6.015213   1.000000
   18       -5.607855   1.000000
   19       -5.279888   1.000000
   20       -5.258381   1.000000
   21       -5.074427   1.000000
   22       -4.965305   1.000000
   23       -4.881804   1.000000
   24       -4.570477   1.000000
   25       -3.686973   1.000000
   26       -3.444721   1.000000
   27       -3.230714   1.000000
   28       -3.012943   1.000000
   29       -2.923789   1.000000
   30       -2.789228   1.000000
   31       -2.679943   1.000000
   32       -2.608678   1.000000
   33       -2.527807   1.000000
   34       -2.368705   1.000000
   35       -2.264447   1.000000
   36       -2.017600   1.000000
   37       -1.908926   1.000000
   38       -1.754808   1.000000
   39       -1.466741   1.000000
   40       -1.353274   1.000000
   41       -1.307551   1.000000
   42       -1.126866   1.000000
   43       -0.917554   1.000000
   44       -0.839916   1.000000
   45       -0.697428   1.000000
   46       -0.621840   1.000000
   47       -0.434355   1.000000
   48       -0.312998   1.000000
   49       -0.143432   1.000000
   50       -0.120257   1.000000
   51        0.014719   1.000000
   52        0.032897   1.000000
   53        0.189676   1.000000
   54        0.323071   1.000000
   55        0.494177   1.000000
   56        0.619940   1.000000
   57        0.680261   1.000000
   58        0.774815   1.000000
   59        0.895276   1.000000
   60        0.945300   1.000000
   61        1.054798   1.000000
   62        1.150951   1.000000
   63        1.295558   1.000000
   64        1.340386   1.000000
   65        1.470240   1.000000
   66        1.576239   1.000000
   67        1.768017   1.000000
   68        1.849824   1.000000
   69        2.042316   1.000000
   70        2.153323   1.000000
   71        2.237889   1.000000
   72        2.370969   1.000000
   73        2.390717   1.000000
   74        2.552152   1.000000
   75        2.616469   1.000000
   76        2.728618   1.000000
   77        2.865387   1.000000
   78        2.959701   1.000000
   79        3.027958   1.000000
   80        3.060842   1.000000
   81        3.170219   1.000000
   82        3.264234   1.000000
   83        3.385561   1.000000
   84        3.443641   1.000000
   85        3.497430   1.000000
   86        3.547627   1.000000
   87        3.700255   1.000000
   88        3.798221   1.000000
   89        3.847399   1.000000
   90        3.970450   1.000000
   91        4.023218   1.000000
   92        4.116257   1.000000
   93        4.254501   1.000000
   94        4.363916   1.000000
   95        4.634122   1.000000
   96        4.726621   1.000000
   97        7.175910   1.000000
   98        7.294768   0.785329
   99        7.362229   0.000000
  100        7.552500   0.000000
  101        7.740560   0.000000
  102        7.837359   0.000000
  103        8.011510   0.000000
  104        8.102017   0.000000
  105        8.366712   0.000000
  106        8.799324   0.000000
  107        9.191098   0.000000
  108        9.376698   0.000000
  109        9.512584   0.000000
  110        9.808310   0.000000
  111        9.931011   0.000000
  112       10.169306   0.000000
  113       10.262972   0.000000
  114       10.383958   0.000000
  115       10.474122   0.000000
  116       10.642318   0.000000
  117       10.764538   0.000000
  118       10.935148   0.000000
  119       11.088676   0.000000
  120       11.225909   0.000000
  121       11.420999   0.000000
  122       11.593034   0.000000
  123       11.703326   0.000000
  124       11.874983   0.000000
  125       12.081475   0.000000
  126       12.194221   0.000000
  127       12.351317   0.000000
  128       12.706254   0.000000
 
 -0.4000000E+00  0.3333333E+00  0.3636364E+00  0.6060606E-02
    1      -11.698268   1.000000
    2      -11.056260   1.000000
    3      -10.964193   1.000000
    4      -10.887514   1.000000
    5      -10.832768   1.000000
    6      -10.335602   1.000000
    7       -9.179189   1.000000
    8       -9.012174   1.000000
    9       -8.778889   1.000000
   10       -8.643777   1.000000
   11       -8.582045   1.000000
   12       -8.212849   1.000000
   13       -7.979740   1.000000
   14       -7.008049   1.000000
   15       -6.768269   1.000000
   16       -6.109597   1.000000
   17       -6.003974   1.000000
   18       -5.656739   1.000000
   19       -5.275890   1.000000
   20       -5.235461   1.000000
   21       -5.136372   1.000000
   22       -4.974128   1.000000
   23       -4.840901   1.000000
   24       -4.503554   1.000000
   25       -3.713326   1.000000
   26       -3.429445   1.000000
   27       -3.255642   1.000000
   28       -3.050003   1.000000
   29       -2.958980   1.000000
   30       -2.749024   1.000000
   31       -2.716440   1.000000
   32       -2.609572   1.000000
   33       -2.562616   1.000000
   34       -2.293215   1.000000
   35       -1.995735   1.000000
   36       -1.925865   1.000000
   37       -1.830365   1.000000
   38       -1.745356   1.000000
   39       -1.461756   1.000000
   40       -1.391719   1.000000
   41       -1.283429   1.000000
   42       -1.126255   1.000000
   43       -1.016622   1.000000
   44       -0.965157   1.000000
   45       -0.791242   1.000000
   46       -0.757132   1.000000
   47       -0.528959   1.000000
   48       -0.373708   1.000000
   49       -0.250446   1.000000
   50       -0.152823   1.000000
   51       -0.025369   1.000000
   52        0.102003   1.000000
   53        0.281926   1.000000
   54        0.333510   1.000000
   55        0.511678   1.000000
   56        0.673140   1.000000
   57        0.708714   1.000000
   58        0.816276   1.000000
   59        0.871294   1.000000
   60        0.948367   1.000000
   61        0.993163   1.000000
   62        1.128419   1.000000
   63        1.307941   1.000000
   64        1.478837   1.000000
   65        1.535908   1.000000
   66        1.623296   1.000000
   67        1.766596   1.000000
   68        1.898851   1.000000
   69        2.085907   1.000000
   70        2.163378   1.000000
   71        2.250319   1.000000
   72        2.348318   1.000000
   73        2.424663   1.000000
   74        2.477022   1.000000
   75        2.592581   1.000000
   76        2.739187   1.000000
   77        2.869152   1.000000
   78        2.900890   1.000000
   79        3.006417   1.000000
   80        3.089875   1.000000
   81        3.201963   1.000000
   82        3.243917   1.000000
   83        3.307127   1.000000
   84        3.458551   1.000000
   85        3.499805   1.000000
   86        3.565794   1.000000
   87        3.662743   1.000000
   88        3.772051   1.000000
   89        3.891577   1.000000
   90        3.943700   1.000000
   91        4.028326   1.000000
   92        4.203771   1.000000
   93        4.218506   1.000000
   94        4.300548   1.000000
   95        4.629331   1.000000
   96        4.733342   1.000000
   97        7.139620   1.000000
   98        7.196228   1.123101
   99        7.461264   0.000000
  100        7.636213   0.000000
  101        7.723061   0.000000
  102        7.829338   0.000000
  103        7.974503   0.000000
  104        8.112150   0.000000
  105        8.368363   0.000000
  106        8.920096   0.000000
  107        9.229866   0.000000
  108        9.429869   0.000000
  109        9.585317   0.000000
  110        9.826734   0.000000
  111        9.922219   0.000000
  112       10.152751   0.000000
  113       10.236478   0.000000
  114       10.278249   0.000000
  115       10.432487   0.000000
  116       10.652238   0.000000
  117       10.731877   0.000000
  118       10.973780   0.000000
  119       11.118281   0.000000
  120       11.253804   0.000000
  121       11.323896   0.000000
  122       11.533994   0.000000
  123       11.721705   0.000000
  124       11.926196   0.000000
  125       12.018436   0.000000
  126       12.194110   0.000000
  127       12.371574   0.000000
  128       12.640181   0.000000
 
 -0.2000000E+00  0.3333333E+00  0.3636364E+00  0.6060606E-02
    1      -11.693091   1.000000
    2      -11.072852   1.000000
    3      -10.960843   1.000000
    4      -10.890656   1.000000
    5      -10.823713   1.000000
    6      -10.335603   1.000000
    7       -9.167970   1.000000
    8       -9.058932   1.000000
    9       -8.876734   1.000000
   10       -8.551893   1.000000
   11       -8.462167   1.000000
   12       -8.186450   1.000000
   13       -8.028857   1.000000
   14       -7.073192   1.000000
   15       -6.798581   1.000000
   16       -6.196959   1.000000
   17       -5.947029   1.000000
   18       -5.688550   1.000000
   19       -5.298463   1.000000
   20       -5.226245   1.000000
   21       -5.050627   1.000000
   22       -4.889518   1.000000
   23       -4.767041   1.000000
   24       -4.471860   1.000000
   25       -3.773846   1.000000
   26       -3.429610   1.000000
   27       -3.242359   1.000000
   28       -3.171910   1.000000
   29       -3.096280   1.000000
   30       -2.828394   1.000000
   31       -2.724798   1.000000
   32       -2.677188   1.000000
   33       -2.449439   1.000000
   34       -2.276394   1.000000
   35       -2.066993   1.000000
   36       -1.880107   1.000000
   37       -1.748658   1.000000
   38       -1.574106   1.000000
   39       -1.538993   1.000000
   40       -1.389735   1.000000
   41       -1.336810   1.000000
   42       -1.225007   1.000000
   43       -1.028848   1.000000
   44       -0.858563   1.000000
   45       -0.761971   1.000000
   46       -0.607481   1.000000
   47       -0.500142   1.000000
   48       -0.402236   1.000000
   49       -0.354105   1.000000
   50       -0.110337   1.000000
   51        0.052858   1.000000
   52        0.215335   1.000000
   53        0.238568   1.000000
   54        0.319776   1.000000
   55        0.456363   1.000000
   56        0.651064   1.000000
   57        0.751514   1.000000
   58        0.820657   1.000000
   59        0.930889   1.000000
   60        1.003206   1.000000
   61        1.137797   1.000000
   62        1.222882   1.000000
   63        1.331845   1.000000
   64        1.397613   1.000000
   65        1.556207   1.000000
   66        1.625359   1.000000
   67        1.709127   1.000000
   68        1.791962   1.000000
   69        2.103896   1.000000
   70        2.157007   1.000000
   71        2.261360   1.000000
   72        2.280730   1.000000
   73        2.336052   1.000000
   74        2.381657   1.000000
   75        2.469130   1.000000
   76        2.584718   1.000000
   77        2.700524   1.000000
   78        2.777586   1.000000
   79        2.896863   1.000000
   80        3.053438   1.000000
   81        3.206366   1.000000
   82        3.244565   1.000000
   83        3.329081   1.000000
   84        3.428323   1.000000
   85        3.498292   1.000000
   86        3.520539   1.000000
   87        3.787569   1.000000
   88        3.841983   1.000000
   89        3.964052   1.000000
   90        4.001253   1.000000
   91        4.065705   1.000000
   92        4.288303   1.000000
   93        4.336033   1.000000
   94        4.455398   1.000000
   95        4.630688   1.000000
   96        4.794316   1.000000
   97        7.126022   1.000000
   98        7.198054   1.161329
   99        7.452902   0.000000
  100        7.582721   0.000000
  101        7.707210   0.000000
  102        7.881892   0.000000
  103        7.961432   0.000000
  104        8.102374   0.000000
  105        8.348256   0.000000
  106        8.921224   0.000000
  107        9.193622   0.000000
  108        9.399298   0.000000
  109        9.544175   0.000000
  110        9.722394   0.000000
  111        9.910906   0.000000
  112       10.057231   0.000000
  113       10.224352   0.000000
  114       10.397753   0.000000
  115       10.524373   0.000000
  116       10.590408   0.000000
  117       10.794877   0.000000
  118       11.065462   0.000000
  119       11.197936   0.000000
  120       11.388988   0.000000
  121       11.494574   0.000000
  122       11.788905   0.000000
  123       11.896237   0.000000
  124       11.949057   0.000000
  125       12.048806   0.000000
  126       12.167506   0.000000
  127       12.405204   0.000000
  128       12.637529   0.000000
 
  0.0000000E+00  0.5000000E+00  0.3636364E+00  0.6060606E-02
    1      -11.689584   1.000000
    2      -11.084850   1.000000
    3      -10.974958   1.000000
    4      -10.878486   1.000000
    5      -10.810376   1.000000
    6      -10.342485   1.000000
    7       -9.134277   1.000000
    8       -9.084767   1.000000
    9       -8.886051   1.000000
   10       -8.497002   1.000000
   11       -8.442205   1.000000
   12       -8.302308   1.000000
   13       -7.972061   1.000000
   14       -7.119683   1.000000
   15       -6.798867   1.000000
   16       -6.158806   1.000000
   17       -5.941008   1.000000
   18       -5.700318   1.000000
   19       -5.292381   1.000000
   20       -5.247263   1.000000
   21       -4.966218   1.000000
   22       -4.869494   1.000000
   23       -4.687754   1.000000
   24       -4.598503   1.000000
   25       -3.769552   1.000000
   26       -3.487938   1.000000
   27       -3.313791   1.000000
   28       -3.244762   1.000000
   29       -3.069685   1.000000
   30       -2.857804   1.000000
   31       -2.759369   1.000000
   32       -2.473658   1.000000
   33       -2.304381   1.000000
   34       -2.238544   1.000000
   35       -2.111292   1.000000
   36       -1.998806   1.000000
   37       -1.757347   1.000000
   38       -1.638845   1.000000
   39       -1.595935   1.000000
   40       -1.453207   1.000000
   41       -1.411093   1.000000
   42       -1.253538   1.000000
   43       -1.176185   1.000000
   44       -0.843111   1.000000
   45       -0.647767   1.000000
   46       -0.554008   1.000000
   47       -0.414701   1.000000
   48       -0.335083   1.000000
   49       -0.141097   1.000000
   50       -0.019594   1.000000
   51        0.042335   1.000000
   52        0.259721   1.000000
   53        0.383271   1.000000
   54        0.485849   1.000000
   55        0.505475   1.000000
   56        0.627465   1.000000
   57        0.664942   1.000000
   58        0.749409   1.000000
   59        0.861814   1.000000
   60        0.991339   1.000000
   61        1.146501   1.000000
   62        1.235501   1.000000
   63        1.289892   1.000000
   64        1.373572   1.000000
   65        1.467897   1.000000
   66        1.635881   1.000000
   67        1.669179   1.000000
   68        1.799043   1.000000
   69        1.885109   1.000000
   70        2.068756   1.000000
   71        2.112576   1.000000
   72        2.242023   1.000000
   73        2.298916   1.000000
   74        2.392095   1.000000
   75        2.405791   1.000000
   76        2.579884   1.000000
   77        2.672889   1.000000
   78        2.794254   1.000000
   79        2.924477   1.000000
   80        3.020369   1.000000
   81        3.156702   1.000000
   82        3.279113   1.000000
   83        3.368617   1.000000
   84        3.481606   1.000000
   85        3.509063   1.000000
   86        3.625662   1.000000
   87        3.782735   1.000000
   88        3.936134   1.000000
   89        4.026384   1.000000
   90        4.084243   1.000000
   91        4.175995   1.000000
   92        4.313560   1.000000
   93        4.336262   1.000000
   94        4.479787   1.000000
   95        4.590678   1.000000
   96        4.664706   1.000000
   97        7.039523   1.000000
   98        7.399587  -0.057684
   99        7.464805   0.000000
  100        7.506190   0.000000
  101        7.677572   0.000000
  102        7.900228   0.000000
  103        7.988972   0.000000
  104        8.080546   0.000000
  105        8.444102   0.000000
  106        8.768783   0.000000
  107        9.215410   0.000000
  108        9.301148   0.000000
  109        9.487341   0.000000
  110        9.677865   0.000000
  111        9.930448   0.000000
  112       10.144239   0.000000
  113       10.240184   0.000000
  114       10.435897   0.000000
  115       10.515410   0.000000
  116       10.672872   0.000000
  117       10.758924   0.000000
  118       11.189904   0.000000
  119       11.328811   0.000000
  120       11.400624   0.000000
  121       11.555809   0.000000
  122       11.609669   0.000000
  123       11.766055   0.000000
  124       12.045513   0.000000
  125       12.129166   0.000000
  126       12.242807   0.000000
  127       12.464262   0.000000
  128       12.648167   0.000000
 
  0.2000000E+00  0.5000000E+00  0.3636364E+00  0.6060606E-02
    1      -11.697675   1.000000
    2      -11.080472   1.000000
    3      -10.954378   1.000000
    4      -10.880284   1.000000
    5      -10.811767   1.000000
    6      -10.352953   1.000000
    7       -9.120841   1.000000
    8       -9.061315   1.000000
    9       -8.926390   1.000000
   10       -8.525054   1.000000
   11       -8.420553   1.000000
   12       -8.307994   1.000000
   13       -8.013574   1.000000
   14       -7.065316   1.000000
   15       -6.786804   1.000000
   16       -6.119333   1.000000
   17       -5.961097   1.000000
   18       -5.640118   1.000000
   19       -5.267889   1.000000
   20       -5.185807   1.000000
   21       -5.067003   1.000000
   22       -4.959205   1.000000
   23       -4.778115   1.000000
   24       -4.660859   1.000000
   25       -3.676855   1.000000
   26       -3.361909   1.000000
   27       -3.240733   1.000000
   28       -3.098221   1.000000
   29       -3.012865   1.000000
   30       -2.823092   1.000000
   31       -2.702901   1.000000
   32       -2.562988   1.000000
   33       -2.360936   1.000000
   34       -2.306611   1.000000
   35       -2.146964   1.000000
   36       -2.115225   1.000000
   37       -1.929835   1.000000
   38       -1.868472   1.000000
   39       -1.603183   1.000000
   40       -1.520589   1.000000
   41       -1.331496   1.000000
   42       -1.195075   1.000000
   43       -1.092894   1.000000
   44       -0.835660   1.000000
   45       -0.615304   1.000000
   46       -0.508427   1.000000
   47       -0.382010   1.000000
   48       -0.270668   1.000000
   49       -0.188280   1.000000
   50       -0.086213   1.000000
   51        0.151266   1.000000
   52        0.243353   1.000000
   53        0.307096   1.000000
   54        0.400045   1.000000
   55        0.590483   1.000000
   56        0.629781   1.000000
   57        0.720929   1.000000
   58        0.810059   1.000000
   59        0.944990   1.000000
   60        0.990485   1.000000
   61        1.099263   1.000000
   62        1.196972   1.000000
   63        1.221697   1.000000
   64        1.412841   1.000000
   65        1.438130   1.000000
   66        1.570541   1.000000
   67        1.665186   1.000000
   68        1.789782   1.000000
   69        1.926452   1.000000
   70        2.096896   1.000000
   71        2.204106   1.000000
   72        2.215899   1.000000
   73        2.273527   1.000000
   74        2.429930   1.000000
   75        2.478790   1.000000
   76        2.660261   1.000000
   77        2.743458   1.000000
   78        2.841256   1.000000
   79        3.008060   1.000000
   80        3.059966   1.000000
   81        3.109870   1.000000
   82        3.178316   1.000000
   83        3.382865   1.000000
   84        3.477507   1.000000
   85        3.591487   1.000000
   86        3.668913   1.000000
   87        3.722123   1.000000
   88        3.882470   1.000000
   89        3.958600   1.000000
   90        4.051795   1.000000
   91        4.162238   1.000000
   92        4.250550   1.000000
   93        4.333964   1.000000
   94        4.440610   1.000000
   95        4.545741   1.000000
   96        4.580766   1.000000
   97        7.108249   1.000000
   98        7.374517  -0.168586
   99        7.390751   0.000000
  100        7.560854   0.000000
  101        7.691228   0.000000
  102        7.912244   0.000000
  103        7.995500   0.000000
  104        8.067235   0.000000
  105        8.454372   0.000000
  106        8.730711   0.000000
  107        9.129587   0.000000
  108        9.292587   0.000000
  109        9.523064   0.000000
  110        9.726304   0.000000
  111       10.030731   0.000000
  112       10.189106   0.000000
  113       10.245974   0.000000
  114       10.405465   0.000000
  115       10.565613   0.000000
  116       10.663102   0.000000
  117       10.776249   0.000000
  118       11.068283   0.000000
  119       11.095973   0.000000
  120       11.243753   0.000000
  121       11.516734   0.000000
  122       11.584838   0.000000
  123       11.798995   0.000000
  124       11.936683   0.000000
  125       12.137788   0.000000
  126       12.210162   0.000000
  127       12.415354   0.000000
  128       12.727681   0.000000
 
  0.4000000E+00  0.5000000E+00  0.3636364E+00  0.6060606E-02
    1      -11.698662   1.000000
    2      -11.074717   1.000000
    3      -10.956298   1.000000
    4      -10.869304   1.000000
    5      -10.832703   1.000000
    6      -10.342623   1.000000
    7       -9.094600   1.000000
    8       -9.058308   1.000000
    9       -8.872767   1.000000
   10       -8.636547   1.000000
   11       -8.514024   1.000000
   12       -8.283577   1.000000
   13       -7.944473   1.000000
   14       -6.996763   1.000000
   15       -6.762547   1.000000
   16       -6.123399   1.000000
   17       -5.955562   1.000000
   18       -5.631141   1.000000
   19       -5.331204   1.000000
   20       -5.209242   1.000000
   21       -5.070140   1.000000
   22       -4.980902   1.000000
   23       -4.790470   1.000000
   24       -4.697887   1.000000
   25       -3.672873   1.000000
   26       -3.454652   1.000000
   27       -3.245792   1.000000
   28       -3.000340   1.000000
   29       -2.958656   1.000000
   30       -2.825949   1.000000
   31       -2.748320   1.000000
   32       -2.595338   1.000000
   33       -2.430664   1.000000
   34       -2.284924   1.000000
   35       -2.203454   1.000000
   36       -2.078831   1.000000
   37       -1.864584   1.000000
   38       -1.703287   1.000000
   39       -1.499079   1.000000
   40       -1.336652   1.000000
   41       -1.195195   1.000000
   42       -1.086396   1.000000
   43       -1.013080   1.000000
   44       -0.812939   1.000000
   45       -0.672709   1.000000
   46       -0.504398   1.000000
   47       -0.440988   1.000000
   48       -0.305161   1.000000
   49       -0.190202   1.000000
   50       -0.165271   1.000000
   51       -0.045842   1.000000
   52        0.030415   1.000000
   53        0.201396   1.000000
   54        0.249392   1.000000
   55        0.472017   1.000000
   56        0.545302   1.000000
   57        0.687708   1.000000
   58        0.737140   1.000000
   59        0.776184   1.000000
   60        0.890351   1.000000
   61        0.995700   1.000000
   62        1.115617   1.000000
   63        1.202235   1.000000
   64        1.380327   1.000000
   65        1.508706   1.000000
   66        1.631667   1.000000
   67        1.779838   1.000000
   68        1.853817   1.000000
   69        2.033550   1.000000
   70        2.159568   1.000000
   71        2.254196   1.000000
   72        2.346149   1.000000
   73        2.420779   1.000000
   74        2.540272   1.000000
   75        2.652475   1.000000
   76        2.753782   1.000000
   77        2.907900   1.000000
   78        2.983215   1.000000
   79        3.059874   1.000000
   80        3.106396   1.000000
   81        3.128394   1.000000
   82        3.322822   1.000000
   83        3.393698   1.000000
   84        3.499734   1.000000
   85        3.544900   1.000000
   86        3.569051   1.000000
   87        3.686436   1.000000
   88        3.821757   1.000000
   89        3.913306   1.000000
   90        3.974864   1.000000
   91        4.091361   1.000000
   92        4.131405   1.000000
   93        4.272874   1.000000
   94        4.371074   1.000000
   95        4.477740   1.000000
   96        4.565433   1.000000
   97        7.144254   1.000000
   98        7.288950   0.740515
   99        7.343784   0.007088
  100        7.649914   0.000000
  101        7.743743   0.000000
  102        7.861167   0.000000
  103        7.996298   0.000000
  104        8.040743   0.000000
  105        8.458855   0.000000
  106        8.818647   0.000000
  107        9.245003   0.000000
  108        9.325661   0.000000
  109        9.633638   0.000000
  110        9.803854   0.000000
  111       10.013406   0.000000
  112       10.046258   0.000000
  113       10.230905   0.000000
  114       10.416218   0.000000
  115       10.460149   0.000000
  116       10.596376   0.000000
  117       10.841290   0.000000
  118       10.908834   0.000000
  119       11.101859   0.000000
  120       11.174814   0.000000
  121       11.334839   0.000000
  122       11.482522   0.000000
  123       11.724307   0.000000
  124       11.810136   0.000000
  125       12.056067   0.000000
  126       12.137595   0.000000
  127       12.266558   0.000000
  128       12.703731   0.000000
 
 -0.4000000E+00  0.5000000E+00  0.3636364E+00  0.6060606E-02
    1      -11.691228   1.000000
    2      -11.079151   1.000000
    3      -10.964390   1.000000
    4      -10.882842   1.000000
    5      -10.831487   1.000000
    6      -10.326603   1.000000
    7       -9.116447   1.000000
    8       -9.036984   1.000000
    9       -8.796702   1.000000
   10       -8.680159   1.000000
   11       -8.592192   1.000000
   12       -8.266426   1.000000
   13       -7.876303   1.000000
   14       -7.011413   1.000000
   15       -6.761842   1.000000
   16       -6.125563   1.000000
   17       -5.990389   1.000000
   18       -5.691519   1.000000
   19       -5.351636   1.000000
   20       -5.185576   1.000000
   21       -5.055143   1.000000
   22       -4.964097   1.000000
   23       -4.721887   1.000000
   24       -4.634494   1.000000
   25       -3.726057   1.000000
   26       -3.564668   1.000000
   27       -3.338510   1.000000
   28       -3.211413   1.000000
   29       -3.076544   1.000000
   30       -2.825076   1.000000
   31       -2.751755   1.000000
   32       -2.545675   1.000000
   33       -2.373027   1.000000
   34       -2.198974   1.000000
   35       -2.001155   1.000000
   36       -1.857383   1.000000
   37       -1.687862   1.000000
   38       -1.623914   1.000000
   39       -1.423407   1.000000
   40       -1.284311   1.000000
   41       -1.134757   1.000000
   42       -1.009252   1.000000
   43       -0.869568   1.000000
   44       -0.829647   1.000000
   45       -0.755946   1.000000
   46       -0.643591   1.000000
   47       -0.531809   1.000000
   48       -0.430427   1.000000
   49       -0.327841   1.000000
   50       -0.174331   1.000000
   51       -0.111089   1.000000
   52        0.062999   1.000000
   53        0.134208   1.000000
   54        0.269604   1.000000
   55        0.334213   1.000000
   56        0.424457   1.000000
   57        0.587183   1.000000
   58        0.698500   1.000000
   59        0.735098   1.000000
   60        0.846453   1.000000
   61        0.948381   1.000000
   62        1.073840   1.000000
   63        1.137032   1.000000
   64        1.466346   1.000000
   65        1.587313   1.000000
   66        1.658412   1.000000
   67        1.822207   1.000000
   68        1.889671   1.000000
   69        2.037394   1.000000
   70        2.148419   1.000000
   71        2.293334   1.000000
   72        2.346875   1.000000
   73        2.418314   1.000000
   74        2.542059   1.000000
   75        2.739232   1.000000
   76        2.798358   1.000000
   77        2.891853   1.000000
   78        3.029895   1.000000
   79        3.067282   1.000000
   80        3.167157   1.000000
   81        3.237578   1.000000
   82        3.287539   1.000000
   83        3.370394   1.000000
   84        3.490994   1.000000
   85        3.516578   1.000000
   86        3.578758   1.000000
   87        3.681873   1.000000
   88        3.807286   1.000000
   89        3.891297   1.000000
   90        4.020281   1.000000
   91        4.136224   1.000000
   92        4.170065   1.000000
   93        4.249573   1.000000
   94        4.344394   1.000000
   95        4.455348   1.000000
   96        4.597615   1.000000
   97        7.017381   1.000000
   98        7.295401   0.617316
   99        7.463840  -0.018729
  100        7.667970   0.000000
  101        7.734093   0.000000
  102        7.815881   0.000000
  103        7.952326   0.000000
  104        8.050238   0.000000
  105        8.458896   0.000000
  106        8.908252   0.000000
  107        9.316902   0.000000
  108        9.395174   0.000000
  109        9.651739   0.000000
  110        9.765015   0.000000
  111        9.966170   0.000000
  112       10.089457   0.000000
  113       10.198926   0.000000
  114       10.372641   0.000000
  115       10.424949   0.000000
  116       10.550519   0.000000
  117       10.878368   0.000000
  118       10.973149   0.000000
  119       11.115453   0.000000
  120       11.236363   0.000000
  121       11.283052   0.000000
  122       11.521912   0.000000
  123       11.600410   0.000000
  124       11.782170   0.000000
  125       11.971817   0.000000
  126       12.153547   0.000000
  127       12.259179   0.000000
  128       12.562996   0.000000
 
 -0.2000000E+00  0.5000000E+00  0.3636364E+00  0.6060606E-02
    1      -11.685450   1.000000
    2      -11.085639   1.000000
    3      -10.976636   1.000000
    4      -10.888394   1.000000
    5      -10.816652   1.000000
    6      -10.326945   1.000000
    7       -9.133018   1.000000
    8       -9.066284   1.000000
    9       -8.821080   1.000000
   10       -8.600829   1.000000
   11       -8.531574   1.000000
   12       -8.275289   1.000000
   13       -7.882867   1.000000
   14       -7.083688   1.000000
   15       -6.791071   1.000000
   16       -6.167512   1.000000
   17       -5.964746   1.000000
   18       -5.726417   1.000000
   19       -5.273844   1.000000
   20       -5.238053   1.000000
   21       -5.037717   1.000000
   22       -4.865958   1.000000
   23       -4.667379   1.000000
   24       -4.582324   1.000000
   25       -3.775809   1.000000
   26       -3.530206   1.000000
   27       -3.424963   1.000000
   28       -3.273886   1.000000
   29       -3.130277   1.000000
   30       -2.926884   1.000000
   31       -2.734414   1.000000
   32       -2.546392   1.000000
   33       -2.370976   1.000000
   34       -2.151971   1.000000
   35       -1.936058   1.000000
   36       -1.725034   1.000000
   37       -1.679005   1.000000
   38       -1.557926   1.000000
   39       -1.430014   1.000000
   40       -1.282632   1.000000
   41       -1.237837   1.000000
   42       -1.144571   1.000000
   43       -1.045513   1.000000
   44       -0.852427   1.000000
   45       -0.783085   1.000000
   46       -0.664878   1.000000
   47       -0.563841   1.000000
   48       -0.447429   1.000000
   49       -0.319325   1.000000
   50       -0.135196   1.000000
   51        0.032159   1.000000
   52        0.086318   1.000000
   53        0.213053   1.000000
   54        0.357510   1.000000
   55        0.499386   1.000000
   56        0.540457   1.000000
   57        0.660229   1.000000
   58        0.685851   1.000000
   59        0.747306   1.000000
   60        0.873686   1.000000
   61        1.078170   1.000000
   62        1.132108   1.000000
   63        1.227526   1.000000
   64        1.425803   1.000000
   65        1.588507   1.000000
   66        1.675529   1.000000
   67        1.716111   1.000000
   68        1.778541   1.000000
   69        2.022842   1.000000
   70        2.128307   1.000000
   71        2.210363   1.000000
   72        2.272228   1.000000
   73        2.369622   1.000000
   74        2.432263   1.000000
   75        2.524427   1.000000
   76        2.698946   1.000000
   77        2.770400   1.000000
   78        2.876556   1.000000
   79        3.011495   1.000000
   80        3.082583   1.000000
   81        3.204588   1.000000
   82        3.237961   1.000000
   83        3.350199   1.000000
   84        3.485812   1.000000
   85        3.554085   1.000000
   86        3.612519   1.000000
   87        3.767420   1.000000
   88        3.929711   1.000000
   89        4.014120   1.000000
   90        4.077114   1.000000
   91        4.156815   1.000000
   92        4.267017   1.000000
   93        4.314315   1.000000
   94        4.390762   1.000000
   95        4.525433   1.000000
   96        4.643572   1.000000
   97        6.988905   1.000000
   98        7.334131   0.261188
   99        7.505095   0.000000
  100        7.565900   0.000000
  101        7.708658   0.000000
  102        7.864150   0.000000
  103        7.958946   0.000000
  104        8.071961   0.000000
  105        8.448946   0.000000
  106        8.869137   0.000000
  107        9.294351   0.000000
  108        9.385983   0.000000
  109        9.567665   0.000000
  110        9.701071   0.000000
  111        9.907136   0.000000
  112       10.103827   0.000000
  113       10.230476   0.000000
  114       10.396512   0.000000
  115       10.475661   0.000000
  116       10.598179   0.000000
  117       10.825255   0.000000
  118       11.102319   0.000000
  119       11.194305   0.000000
  120       11.316834   0.000000
  121       11.442784   0.000000
  122       11.694552   0.000000
  123       11.720189   0.000000
  124       11.858995   0.000000
  125       11.991110   0.000000
  126       12.205917   0.000000
  127       12.359426   0.000000
  128       12.540010   0.000000
 
  0.0000000E+00 -0.3333333E+00  0.3636364E+00  0.6060606E-02
    1      -11.676809   1.000000
    2      -11.132161   1.000000
    3      -10.956346   1.000000
    4      -10.896085   1.000000
    5      -10.774113   1.000000
    6      -10.353292   1.000000
    7       -9.174449   1.000000
    8       -8.995890   1.000000
    9       -8.833929   1.000000
   10       -8.601692   1.000000
   11       -8.534519   1.000000
   12       -8.264162   1.000000
   13       -7.869822   1.000000
   14       -7.119039   1.000000
   15       -6.850270   1.000000
   16       -6.123934   1.000000
   17       -5.922070   1.000000
   18       -5.635859   1.000000
   19       -5.319479   1.000000
   20       -5.285457   1.000000
   21       -5.020967   1.000000
   22       -4.979341   1.000000
   23       -4.495782   1.000000
   24       -4.440127   1.000000
   25       -3.950015   1.000000
   26       -3.637689   1.000000
   27       -3.570435   1.000000
   28       -3.373222   1.000000
   29       -3.165207   1.000000
   30       -2.873483   1.000000
   31       -2.732090   1.000000
   32       -2.370850   1.000000
   33       -2.238448   1.000000
   34       -2.058153   1.000000
   35       -1.984547   1.000000
   36       -1.821502   1.000000
   37       -1.680515   1.000000
   38       -1.579353   1.000000
   39       -1.506046   1.000000
   40       -1.441040   1.000000
   41       -1.302273   1.000000
   42       -1.228255   1.000000
   43       -0.995323   1.000000
   44       -0.829050   1.000000
   45       -0.700940   1.000000
   46       -0.593534   1.000000
   47       -0.344631   1.000000
   48       -0.310768   1.000000
   49       -0.194104   1.000000
   50       -0.148261   1.000000
   51        0.063766   1.000000
   52        0.114641   1.000000
   53        0.266579   1.000000
   54        0.324300   1.000000
   55        0.545801   1.000000
   56        0.567153   1.000000
   57        0.683909   1.000000
   58        0.812343   1.000000
   59        0.863782   1.000000
   60        0.906670   1.000000
   61        1.047623   1.000000
   62        1.153672   1.000000
   63        1.269867   1.000000
   64        1.370010   1.000000
   65        1.470524   1.000000
   66        1.554205   1.000000
   67        1.599103   1.000000
   68        1.737489   1.000000
   69        1.865571   1.000000
   70        2.007759   1.000000
   71        2.051170   1.000000
   72        2.217521   1.000000
   73        2.300789   1.000000
   74        2.411440   1.000000
   75        2.519624   1.000000
   76        2.640465   1.000000
   77        2.694447   1.000000
   78        2.836220   1.000000
   79        2.982683   1.000000
   80        3.017575   1.000000
   81        3.153260   1.000000
   82        3.283443   1.000000
   83        3.400175   1.000000
   84        3.491293   1.000000
   85        3.554745   1.000000
   86        3.574506   1.000000
   87        3.744559   1.000000
   88        3.935276   1.000000
   89        3.961595   1.000000
   90        4.127029   1.000000
   91        4.218955   1.000000
   92        4.269375   1.000000
   93        4.399379   1.000000
   94        4.440689   1.000000
   95        4.722652   1.000000
   96        4.892566   1.000000
   97        7.020153   1.000000
   98        7.360398  -0.019490
   99        7.478140   0.000000
  100        7.563316   0.000000
  101        7.701744   0.000000
  102        7.853050   0.000000
  103        8.033860   0.000000
  104        8.081484   0.000000
  105        8.443992   0.000000
  106        8.619592   0.000000
  107        9.274198   0.000000
  108        9.374462   0.000000
  109        9.475653   0.000000
  110        9.649512   0.000000
  111        9.700813   0.000000
  112       10.076596   0.000000
  113       10.297652   0.000000
  114       10.430429   0.000000
  115       10.584118   0.000000
  116       10.849599   0.000000
  117       10.902527   0.000000
  118       11.225965   0.000000
  119       11.293138   0.000000
  120       11.461049   0.000000
  121       11.518091   0.000000
  122       11.712838   0.000000
  123       11.818679   0.000000
  124       11.985779   0.000000
  125       12.079620   0.000000
  126       12.159425   0.000000
  127       12.475855   0.000000
  128       12.675098   0.000000
 
  0.2000000E+00 -0.3333333E+00  0.3636364E+00  0.6060606E-02
    1      -11.682373   1.000000
    2      -11.135694   1.000000
    3      -10.938147   1.000000
    4      -10.885414   1.000000
    5      -10.784279   1.000000
    6      -10.360486   1.000000
    7       -9.184533   1.000000
    8       -8.980718   1.000000
    9       -8.885822   1.000000
   10       -8.495066   1.000000
   11       -8.474764   1.000000
   12       -8.348823   1.000000
   13       -7.967315   1.000000
   14       -7.084328   1.000000
   15       -6.844504   1.000000
   16       -6.073959   1.000000
   17       -5.894151   1.000000
   18       -5.577128   1.000000
   19       -5.330873   1.000000
   20       -5.299907   1.000000
   21       -5.134789   1.000000
   22       -5.080781   1.000000
   23       -4.583416   1.000000
   24       -4.501898   1.000000
   25       -3.820732   1.000000
   26       -3.488209   1.000000
   27       -3.269634   1.000000
   28       -3.146330   1.000000
   29       -3.033249   1.000000
   30       -2.787088   1.000000
   31       -2.641440   1.000000
   32       -2.478479   1.000000
   33       -2.400770   1.000000
   34       -2.271534   1.000000
   35       -2.140883   1.000000
   36       -2.015959   1.000000
   37       -1.881321   1.000000
   38       -1.798697   1.000000
   39       -1.659509   1.000000
   40       -1.494500   1.000000
   41       -1.428233   1.000000
   42       -1.228010   1.000000
   43       -0.964612   1.000000
   44       -0.874503   1.000000
   45       -0.602625   1.000000
   46       -0.395500   1.000000
   47       -0.303450   1.000000
   48       -0.194705   1.000000
   49       -0.141013   1.000000
   50       -0.116272   1.000000
   51       -0.029345   1.000000
   52        0.078867   1.000000
   53        0.271161   1.000000
   54        0.379920   1.000000
   55        0.557743   1.000000
   56        0.677227   1.000000
   57        0.772001   1.000000
   58        0.800223   1.000000
   59        0.926268   1.000000
   60        0.997615   1.000000
   61        1.118631   1.000000
   62        1.174407   1.000000
   63        1.287875   1.000000
   64        1.403192   1.000000
   65        1.464546   1.000000
   66        1.574881   1.000000
   67        1.628885   1.000000
   68        1.827006   1.000000
   69        1.926428   1.000000
   70        2.050047   1.000000
   71        2.145313   1.000000
   72        2.209859   1.000000
   73        2.274501   1.000000
   74        2.381976   1.000000
   75        2.472859   1.000000
   76        2.603602   1.000000
   77        2.726489   1.000000
   78        2.920530   1.000000
   79        2.961106   1.000000
   80        3.039381   1.000000
   81        3.084480   1.000000
   82        3.294813   1.000000
   83        3.391165   1.000000
   84        3.454313   1.000000
   85        3.537923   1.000000
   86        3.553825   1.000000
   87        3.672503   1.000000
   88        3.878831   1.000000
   89        3.955786   1.000000
   90        4.030028   1.000000
   91        4.140912   1.000000
   92        4.198701   1.000000
   93        4.367323   1.000000
   94        4.407423   1.000000
   95        4.689956   1.000000
   96        4.818494   1.000000
   97        7.091786   1.000000
   98        7.308577   0.309221
   99        7.414115   0.000000
  100        7.575748   0.000000
  101        7.752171   0.000000
  102        7.876820   0.000000
  103        8.041786   0.000000
  104        8.070858   0.000000
  105        8.481290   0.000000
  106        8.626121   0.000000
  107        9.222754   0.000000
  108        9.341567   0.000000
  109        9.542892   0.000000
  110        9.773335   0.000000
  111        9.839009   0.000000
  112       10.167260   0.000000
  113       10.210372   0.000000
  114       10.446017   0.000000
  115       10.489920   0.000000
  116       10.820393   0.000000
  117       10.864149   0.000000
  118       11.077021   0.000000
  119       11.170149   0.000000
  120       11.233878   0.000000
  121       11.525897   0.000000
  122       11.706278   0.000000
  123       11.846959   0.000000
  124       11.972039   0.000000
  125       12.057866   0.000000
  126       12.219580   0.000000
  127       12.573981   0.000000
  128       12.686910   0.000000
 
  0.4000000E+00 -0.3333333E+00  0.3636364E+00  0.6060606E-02
    1      -11.683038   1.000000
    2      -11.129287   1.000000
    3      -10.956799   1.000000
    4      -10.863922   1.000000
    5      -10.800572   1.000000
    6      -10.348206   1.000000
    7       -9.155874   1.000000
    8       -8.981230   1.000000
    9       -8.895600   1.000000
   10       -8.573907   1.000000
   11       -8.460931   1.000000
   12       -8.364619   1.000000
   13       -7.934027   1.000000
   14       -7.020648   1.000000
   15       -6.825985   1.000000
   16       -6.090125   1.000000
   17       -5.872303   1.000000
   18       -5.572330   1.000000
   19       -5.394205   1.000000
   20       -5.262347   1.000000
   21       -5.179523   1.000000
   22       -5.104823   1.000000
   23       -4.666125   1.000000
   24       -4.522182   1.000000
   25       -3.789873   1.000000
   26       -3.452866   1.000000
   27       -3.296391   1.000000
   28       -3.075966   1.000000
   29       -2.944939   1.000000
   30       -2.751176   1.000000
   31       -2.693047   1.000000
   32       -2.612038   1.000000
   33       -2.484166   1.000000
   34       -2.260470   1.000000
   35       -2.126279   1.000000
   36       -1.951067   1.000000
   37       -1.796759   1.000000
   38       -1.678914   1.000000
   39       -1.575797   1.000000
   40       -1.459088   1.000000
   41       -1.330586   1.000000
   42       -1.143734   1.000000
   43       -0.911225   1.000000
   44       -0.739556   1.000000
   45       -0.694080   1.000000
   46       -0.532068   1.000000
   47       -0.390257   1.000000
   48       -0.257927   1.000000
   49       -0.205063   1.000000
   50       -0.135975   1.000000
   51       -0.071260   1.000000
   52        0.110555   1.000000
   53        0.177345   1.000000
   54        0.337020   1.000000
   55        0.486560   1.000000
   56        0.537382   1.000000
   57        0.647909   1.000000
   58        0.688253   1.000000
   59        0.825682   1.000000
   60        0.897191   1.000000
   61        0.967708   1.000000
   62        1.121488   1.000000
   63        1.261404   1.000000
   64        1.346820   1.000000
   65        1.436367   1.000000
   66        1.617092   1.000000
   67        1.697166   1.000000
   68        1.876302   1.000000
   69        1.982829   1.000000
   70        2.134505   1.000000
   71        2.231358   1.000000
   72        2.358570   1.000000
   73        2.434358   1.000000
   74        2.582225   1.000000
   75        2.661354   1.000000
   76        2.763453   1.000000
   77        2.911003   1.000000
   78        2.997724   1.000000
   79        3.048570   1.000000
   80        3.082406   1.000000
   81        3.168017   1.000000
   82        3.269705   1.000000
   83        3.356762   1.000000
   84        3.486168   1.000000
   85        3.529811   1.000000
   86        3.584711   1.000000
   87        3.606916   1.000000
   88        3.754689   1.000000
   89        3.857918   1.000000
   90        3.962713   1.000000
   91        4.028262   1.000000
   92        4.139168   1.000000
   93        4.270789   1.000000
   94        4.346071   1.000000
   95        4.647304   1.000000
   96        4.756325   1.000000
   97        7.042764   1.000000
   98        7.286659   0.633209
   99        7.474695  -0.009066
  100        7.608737   0.000000
  101        7.765457   0.000000
  102        7.860405   0.000000
  103        8.006724   0.000000
  104        8.027027   0.000000
  105        8.509248   0.000000
  106        8.756752   0.000000
  107        9.284585   0.000000
  108        9.423600   0.000000
  109        9.639382   0.000000
  110        9.849693   0.000000
  111        9.925191   0.000000
  112       10.022722   0.000000
  113       10.211558   0.000000
  114       10.437399   0.000000
  115       10.513009   0.000000
  116       10.677242   0.000000
  117       10.768066   0.000000
  118       10.936990   0.000000
  119       11.026087   0.000000
  120       11.078664   0.000000
  121       11.503939   0.000000
  122       11.535691   0.000000
  123       11.798973   0.000000
  124       11.880420   0.000000
  125       12.065063   0.000000
  126       12.107100   0.000000
  127       12.423993   0.000000
  128       12.710809   0.000000
 
 -0.4000000E+00 -0.3333333E+00  0.3636364E+00  0.6060606E-02
    1      -11.677876   1.000000
    2      -11.123634   1.000000
    3      -10.969502   1.000000
    4      -10.887219   1.000000
    5      -10.789255   1.000000
    6      -10.334116   1.000000
    7       -9.109905   1.000000
    8       -9.019402   1.000000
    9       -8.830077   1.000000
   10       -8.694849   1.000000
   11       -8.558744   1.000000
   12       -8.275925   1.000000
   13       -7.835194   1.000000
   14       -7.017429   1.000000
   15       -6.817652   1.000000
   16       -6.121042   1.000000
   17       -5.922375   1.000000
   18       -5.634471   1.000000
   19       -5.423407   1.000000
   20       -5.196084   1.000000
   21       -5.096859   1.000000
   22       -5.048169   1.000000
   23       -4.628398   1.000000
   24       -4.470858   1.000000
   25       -3.897520   1.000000
   26       -3.652439   1.000000
   27       -3.505667   1.000000
   28       -3.341364   1.000000
   29       -3.058628   1.000000
   30       -2.875156   1.000000
   31       -2.773150   1.000000
   32       -2.375555   1.000000
   33       -2.274361   1.000000
   34       -2.022150   1.000000
   35       -1.948399   1.000000
   36       -1.848268   1.000000
   37       -1.671159   1.000000
   38       -1.517181   1.000000
   39       -1.342766   1.000000
   40       -1.245156   1.000000
   41       -1.087146   1.000000
   42       -1.042791   1.000000
   43       -0.875548   1.000000
   44       -0.803625   1.000000
   45       -0.735611   1.000000
   46       -0.633982   1.000000
   47       -0.487707   1.000000
   48       -0.322371   1.000000
   49       -0.226516   1.000000
   50       -0.166416   1.000000
   51       -0.099280   1.000000
   52       -0.022482   1.000000
   53        0.014714   1.000000
   54        0.125200   1.000000
   55        0.293879   1.000000
   56        0.379087   1.000000
   57        0.525701   1.000000
   58        0.572373   1.000000
   59        0.775194   1.000000
   60        0.854617   1.000000
   61        0.929610   1.000000
   62        1.029837   1.000000
   63        1.135032   1.000000
   64        1.416526   1.000000
   65        1.496981   1.000000
   66        1.646700   1.000000
   67        1.705425   1.000000
   68        1.795469   1.000000
   69        2.002339   1.000000
   70        2.094783   1.000000
   71        2.267101   1.000000
   72        2.399170   1.000000
   73        2.473814   1.000000
   74        2.627396   1.000000
   75        2.763450   1.000000
   76        2.831906   1.000000
   77        2.931231   1.000000
   78        3.049165   1.000000
   79        3.085485   1.000000
   80        3.162595   1.000000
   81        3.257240   1.000000
   82        3.331423   1.000000
   83        3.420024   1.000000
   84        3.468305   1.000000
   85        3.529539   1.000000
   86        3.547021   1.000000
   87        3.643109   1.000000
   88        3.771439   1.000000
   89        3.858447   1.000000
   90        3.945491   1.000000
   91        4.088607   1.000000
   92        4.183129   1.000000
   93        4.240544   1.000000
   94        4.374528   1.000000
   95        4.650532   1.000000
   96        4.781775   1.000000
   97        6.931704   1.000000
   98        7.449786  -0.118678
   99        7.494699  -0.005169
  100        7.622880   0.000000
  101        7.722927   0.000000
  102        7.797677   0.000000
  103        7.927188   0.000000
  104        8.026799   0.000000
  105        8.495825   0.000000
  106        8.828536   0.000000
  107        9.342366   0.000000
  108        9.433441   0.000000
  109        9.607745   0.000000
  110        9.752073   0.000000
  111        9.879934   0.000000
  112       10.048005   0.000000
  113       10.194271   0.000000
  114       10.454274   0.000000
  115       10.553924   0.000000
  116       10.685213   0.000000
  117       10.789502   0.000000
  118       10.992893   0.000000
  119       11.142159   0.000000
  120       11.232673   0.000000
  121       11.341623   0.000000
  122       11.525028   0.000000
  123       11.687367   0.000000
  124       11.783101   0.000000
  125       11.905583   0.000000
  126       11.986244   0.000000
  127       12.461434   0.000000
  128       12.555401   0.000000
 
 -0.2000000E+00 -0.3333333E+00  0.3636364E+00  0.6060606E-02
    1      -11.673933   1.000000
    2      -11.126293   1.000000
    3      -10.964723   1.000000
    4      -10.909248   1.000000
    5      -10.774204   1.000000
    6      -10.337628   1.000000
    7       -9.137437   1.000000
    8       -8.992701   1.000000
    9       -8.814609   1.000000
   10       -8.693523   1.000000
   11       -8.595976   1.000000
   12       -8.235002   1.000000
   13       -7.795580   1.000000
   14       -7.076690   1.000000
   15       -6.839260   1.000000
   16       -6.147718   1.000000
   17       -5.952782   1.000000
   18       -5.666459   1.000000
   19       -5.335107   1.000000
   20       -5.198956   1.000000
   21       -5.036346   1.000000
   22       -4.982587   1.000000
   23       -4.531365   1.000000
   24       -4.422534   1.000000
   25       -3.969071   1.000000
   26       -3.723651   1.000000
   27       -3.613914   1.000000
   28       -3.517936   1.000000
   29       -3.220687   1.000000
   30       -2.898742   1.000000
   31       -2.823476   1.000000
   32       -2.346285   1.000000
   33       -2.198913   1.000000
   34       -1.918472   1.000000
   35       -1.820087   1.000000
   36       -1.672097   1.000000
   37       -1.518581   1.000000
   38       -1.449505   1.000000
   39       -1.322915   1.000000
   40       -1.171595   1.000000
   41       -1.120053   1.000000
   42       -1.072093   1.000000
   43       -0.971937   1.000000
   44       -0.818983   1.000000
   45       -0.758680   1.000000
   46       -0.672596   1.000000
   47       -0.596533   1.000000
   48       -0.428142   1.000000
   49       -0.370883   1.000000
   50       -0.184307   1.000000
   51       -0.074728   1.000000
   52        0.032710   1.000000
   53        0.124654   1.000000
   54        0.274803   1.000000
   55        0.335800   1.000000
   56        0.482980   1.000000
   57        0.589094   1.000000
   58        0.659605   1.000000
   59        0.720752   1.000000
   60        0.863800   1.000000
   61        0.929306   1.000000
   62        1.005109   1.000000
   63        1.257416   1.000000
   64        1.352454   1.000000
   65        1.543756   1.000000
   66        1.601764   1.000000
   67        1.655019   1.000000
   68        1.738367   1.000000
   69        1.923443   1.000000
   70        1.934458   1.000000
   71        2.229095   1.000000
   72        2.309262   1.000000
   73        2.372951   1.000000
   74        2.453123   1.000000
   75        2.650636   1.000000
   76        2.763174   1.000000
   77        2.856786   1.000000
   78        2.932074   1.000000
   79        3.060636   1.000000
   80        3.141103   1.000000
   81        3.227567   1.000000
   82        3.311040   1.000000
   83        3.406568   1.000000
   84        3.453537   1.000000
   85        3.543941   1.000000
   86        3.626518   1.000000
   87        3.716492   1.000000
   88        3.897059   1.000000
   89        3.979540   1.000000
   90        4.081676   1.000000
   91        4.173317   1.000000
   92        4.258639   1.000000
   93        4.338407   1.000000
   94        4.421478   1.000000
   95        4.676392   1.000000
   96        4.859471   1.000000
   97        6.937983   1.000000
   98        7.436193  -0.092994
   99        7.529888   0.000000
  100        7.588073   0.000000
  101        7.677303   0.000000
  102        7.820522   0.000000
  103        7.946649   0.000000
  104        8.051614   0.000000
  105        8.454016   0.000000
  106        8.743004   0.000000
  107        9.314657   0.000000
  108        9.375077   0.000000
  109        9.529155   0.000000
  110        9.696096   0.000000
  111        9.739124   0.000000
  112       10.122092   0.000000
  113       10.206297   0.000000
  114       10.494907   0.000000
  115       10.578845   0.000000
  116       10.764699   0.000000
  117       10.892269   0.000000
  118       11.117320   0.000000
  119       11.181801   0.000000
  120       11.302367   0.000000
  121       11.554190   0.000000
  122       11.635857   0.000000
  123       11.768364   0.000000
  124       11.839331   0.000000
  125       11.902871   0.000000
  126       12.020054   0.000000
  127       12.473047   0.000000
  128       12.502879   0.000000
 
  0.0000000E+00 -0.1666667E+00  0.3636364E+00  0.6060606E-02
    1      -11.674732   1.000000
    2      -11.149707   1.000000
    3      -10.945545   1.000000
    4      -10.896859   1.000000
    5      -10.751370   1.000000
    6      -10.371674   1.000000
    7       -9.201684   1.000000
    8       -8.923961   1.000000
    9       -8.807193   1.000000
   10       -8.718583   1.000000
   11       -8.597393   1.000000
   12       -8.166123   1.000000
   13       -7.831844   1.000000
   14       -7.082540   1.000000
   15       -6.901117   1.000000
   16       -6.136973   1.000000
   17       -5.931133   1.000000
   18       -5.535738   1.000000
   19       -5.358564   1.000000
   20       -5.320901   1.000000
   21       -5.008221   1.000000
   22       -4.954430   1.000000
   23       -4.457691   1.000000
   24       -4.226776   1.000000
   25       -4.085719   1.000000
   26       -3.790506   1.000000
   27       -3.668360   1.000000
   28       -3.509807   1.000000
   29       -3.322336   1.000000
   30       -2.951752   1.000000
   31       -2.854619   1.000000
   32       -2.341660   1.000000
   33       -2.207560   1.000000
   34       -2.018342   1.000000
   35       -1.879241   1.000000
   36       -1.726860   1.000000
   37       -1.561929   1.000000
   38       -1.509723   1.000000
   39       -1.352305   1.000000
   40       -1.269251   1.000000
   41       -1.144479   1.000000
   42       -1.025403   1.000000
   43       -0.826121   1.000000
   44       -0.778124   1.000000
   45       -0.688663   1.000000
   46       -0.577275   1.000000
   47       -0.480496   1.000000
   48       -0.326604   1.000000
   49       -0.228438   1.000000
   50       -0.202944   1.000000
   51        0.004967   1.000000
   52        0.112561   1.000000
   53        0.166751   1.000000
   54        0.274935   1.000000
   55        0.422187   1.000000
   56        0.512115   1.000000
   57        0.563197   1.000000
   58        0.726624   1.000000
   59        0.873550   1.000000
   60        0.960245   1.000000
   61        1.022814   1.000000
   62        1.086353   1.000000
   63        1.213028   1.000000
   64        1.266781   1.000000
   65        1.353018   1.000000
   66        1.474103   1.000000
   67        1.585040   1.000000
   68        1.744571   1.000000
   69        1.912959   1.000000
   70        2.006494   1.000000
   71        2.019721   1.000000
   72        2.231657   1.000000
   73        2.272762   1.000000
   74        2.469144   1.000000
   75        2.592814   1.000000
   76        2.654916   1.000000
   77        2.788508   1.000000
   78        2.845509   1.000000
   79        2.959298   1.000000
   80        3.038669   1.000000
   81        3.094848   1.000000
   82        3.204761   1.000000
   83        3.300911   1.000000
   84        3.478905   1.000000
   85        3.567124   1.000000
   86        3.624520   1.000000
   87        3.656354   1.000000
   88        3.915809   1.000000
   89        4.037699   1.000000
   90        4.142438   1.000000
   91        4.245496   1.000000
   92        4.330138   1.000000
   93        4.393110   1.000000
   94        4.527601   1.000000
   95        4.898779   1.000000
   96        5.089559   1.000000
   97        7.052563   1.000000
   98        7.260861   0.785127
   99        7.465697   0.000000
  100        7.576586   0.000000
  101        7.753763   0.000000
  102        7.802256   0.000000
  103        8.039121   0.000000
  104        8.097639   0.000000
  105        8.352145   0.000000
  106        8.509399   0.000000
  107        9.220763   0.000000
  108        9.376614   0.000000
  109        9.492670   0.000000
  110        9.562167   0.000000
  111        9.707647   0.000000
  112        9.905258   0.000000
  113       10.327509   0.000000
  114       10.404921   0.000000
  115       10.890075   0.000000
  116       10.962851   0.000000
  117       11.012571   0.000000
  118       11.171793   0.000000
  119       11.288798   0.000000
  120       11.417911   0.000000
  121       11.576688   0.000000
  122       11.795764   0.000000
  123       11.921526   0.000000
  124       12.120845   0.000000
  125       12.157284   0.000000
  126       12.231275   0.000000
  127       12.494954   0.000000
  128       12.583741   0.000000
 
  0.2000000E+00 -0.1666667E+00  0.3636364E+00  0.6060606E-02
    1      -11.678566   1.000000
    2      -11.154272   1.000000
    3      -10.936545   1.000000
    4      -10.876777   1.000000
    5      -10.767529   1.000000
    6      -10.374116   1.000000
    7       -9.232571   1.000000
    8       -8.919524   1.000000
    9       -8.822003   1.000000
   10       -8.636199   1.000000
   11       -8.529175   1.000000
   12       -8.231999   1.000000
   13       -7.945064   1.000000
   14       -7.056721   1.000000
   15       -6.893535   1.000000
   16       -6.063201   1.000000
   17       -5.881582   1.000000
   18       -5.483377   1.000000
   19       -5.409855   1.000000
   20       -5.393474   1.000000
   21       -5.119974   1.000000
   22       -5.057313   1.000000
   23       -4.571052   1.000000
   24       -4.255620   1.000000
   25       -3.952569   1.000000
   26       -3.617515   1.000000
   27       -3.375790   1.000000
   28       -3.248427   1.000000
   29       -3.043924   1.000000
   30       -2.849931   1.000000
   31       -2.700824   1.000000
   32       -2.615835   1.000000
   33       -2.431907   1.000000
   34       -2.170241   1.000000
   35       -2.067407   1.000000
   36       -1.917161   1.000000
   37       -1.871831   1.000000
   38       -1.707875   1.000000
   39       -1.581923   1.000000
   40       -1.407473   1.000000
   41       -1.278022   1.000000
   42       -1.070933   1.000000
   43       -0.925238   1.000000
   44       -0.754242   1.000000
   45       -0.629275   1.000000
   46       -0.492818   1.000000
   47       -0.354313   1.000000
   48       -0.226236   1.000000
   49       -0.134727   1.000000
   50       -0.068623   1.000000
   51        0.076487   1.000000
   52        0.186695   1.000000
   53        0.224597   1.000000
   54        0.344093   1.000000
   55        0.415195   1.000000
   56        0.535554   1.000000
   57        0.702884   1.000000
   58        0.865264   1.000000
   59        0.900585   1.000000
   60        0.941972   1.000000
   61        1.032272   1.000000
   62        1.120591   1.000000
   63        1.207604   1.000000
   64        1.326329   1.000000
   65        1.481882   1.000000
   66        1.572531   1.000000
   67        1.675138   1.000000
   68        1.803772   1.000000
   69        1.943657   1.000000
   70        2.078264   1.000000
   71        2.142048   1.000000
   72        2.188559   1.000000
   73        2.351025   1.000000
   74        2.393128   1.000000
   75        2.528966   1.000000
   76        2.655934   1.000000
   77        2.755611   1.000000
   78        2.854005   1.000000
   79        2.919381   1.000000
   80        2.967747   1.000000
   81        3.065240   1.000000
   82        3.209114   1.000000
   83        3.261233   1.000000
   84        3.490939   1.000000
   85        3.533327   1.000000
   86        3.599828   1.000000
   87        3.652476   1.000000
   88        3.847624   1.000000
   89        3.914883   1.000000
   90        4.001214   1.000000
   91        4.148272   1.000000
   92        4.262947   1.000000
   93        4.342975   1.000000
   94        4.474671   1.000000
   95        4.879368   1.000000
   96        5.023068   1.000000
   97        7.117561   1.000000
   98        7.280040   0.781098
   99        7.356646   0.000000
  100        7.568719   0.000000
  101        7.768313   0.000000
  102        7.814579   0.000000
  103        8.066955   0.000000
  104        8.104050   0.000000
  105        8.433904   0.000000
  106        8.528640   0.000000
  107        9.184037   0.000000
  108        9.422873   0.000000
  109        9.571815   0.000000
  110        9.706978   0.000000
  111        9.834294   0.000000
  112        9.967180   0.000000
  113       10.265712   0.000000
  114       10.323746   0.000000
  115       10.754651   0.000000
  116       10.880520   0.000000
  117       10.960143   0.000000
  118       11.041485   0.000000
  119       11.255024   0.000000
  120       11.352129   0.000000
  121       11.573072   0.000000
  122       11.776592   0.000000
  123       11.853723   0.000000
  124       12.067204   0.000000
  125       12.178976   0.000000
  126       12.330806   0.000000
  127       12.579585   0.000000
  128       12.726620   0.000000
 
  0.4000000E+00 -0.1666667E+00  0.3636364E+00  0.6060606E-02
    1      -11.676744   1.000000
    2      -11.149229   1.000000
    3      -10.966906   1.000000
    4      -10.851973   1.000000
    5      -10.779529   1.000000
    6      -10.361044   1.000000
    7       -9.219031   1.000000
    8       -8.914047   1.000000
    9       -8.885722   1.000000
   10       -8.536107   1.000000
   11       -8.487981   1.000000
   12       -8.348206   1.000000
   13       -7.959933   1.000000
   14       -7.017717   1.000000
   15       -6.876419   1.000000
   16       -6.041534   1.000000
   17       -5.835833   1.000000
   18       -5.525604   1.000000
   19       -5.452891   1.000000
   20       -5.337328   1.000000
   21       -5.191051   1.000000
   22       -5.154334   1.000000
   23       -4.669175   1.000000
   24       -4.278262   1.000000
   25       -3.933709   1.000000
   26       -3.496993   1.000000
   27       -3.237813   1.000000
   28       -3.087851   1.000000
   29       -2.933032   1.000000
   30       -2.683362   1.000000
   31       -2.641401   1.000000
   32       -2.615056   1.000000
   33       -2.514202   1.000000
   34       -2.391077   1.000000
   35       -2.102476   1.000000
   36       -1.957566   1.000000
   37       -1.814783   1.000000
   38       -1.680881   1.000000
   39       -1.586683   1.000000
   40       -1.523761   1.000000
   41       -1.392436   1.000000
   42       -1.177290   1.000000
   43       -0.983764   1.000000
   44       -0.730601   1.000000
   45       -0.613112   1.000000
   46       -0.535670   1.000000
   47       -0.387115   1.000000
   48       -0.275229   1.000000
   49       -0.209200   1.000000
   50       -0.089428   1.000000
   51        0.106525   1.000000
   52        0.121695   1.000000
   53        0.265375   1.000000
   54        0.366233   1.000000
   55        0.401561   1.000000
   56        0.559695   1.000000
   57        0.652799   1.000000
   58        0.800993   1.000000
   59        0.827409   1.000000
   60        0.946286   1.000000
   61        1.043982   1.000000
   62        1.158983   1.000000
   63        1.180048   1.000000
   64        1.356953   1.000000
   65        1.495650   1.000000
   66        1.625580   1.000000
   67        1.718070   1.000000
   68        1.919706   1.000000
   69        2.007616   1.000000
   70        2.077223   1.000000
   71        2.143237   1.000000
   72        2.321563   1.000000
   73        2.376654   1.000000
   74        2.559928   1.000000
   75        2.605749   1.000000
   76        2.820189   1.000000
   77        2.879047   1.000000
   78        2.928333   1.000000
   79        3.000923   1.000000
   80        3.030009   1.000000
   81        3.103597   1.000000
   82        3.205315   1.000000
   83        3.308954   1.000000
   84        3.373946   1.000000
   85        3.504509   1.000000
   86        3.582598   1.000000
   87        3.661551   1.000000
   88        3.699579   1.000000
   89        3.846284   1.000000
   90        3.918022   1.000000
   91        3.990217   1.000000
   92        4.155631   1.000000
   93        4.239816   1.000000
   94        4.374010   1.000000
   95        4.839710   1.000000
   96        4.962488   1.000000
   97        7.028260   1.000000
   98        7.324665   0.075886
   99        7.488349   0.000000
  100        7.544588   0.000000
  101        7.768358   0.000000
  102        7.829176   0.000000
  103        8.022470   0.000000
  104        8.074657   0.000000
  105        8.495405   0.000000
  106        8.679922   0.000000
  107        9.232561   0.000000
  108        9.528728   0.000000
  109        9.670268   0.000000
  110        9.820593   0.000000
  111        9.924580   0.000000
  112       10.014912   0.000000
  113       10.122348   0.000000
  114       10.394970   0.000000
  115       10.573666   0.000000
  116       10.676166   0.000000
  117       10.772737   0.000000
  118       10.890259   0.000000
  119       11.064829   0.000000
  120       11.273470   0.000000
  121       11.546603   0.000000
  122       11.669180   0.000000
  123       11.782632   0.000000
  124       12.094282   0.000000
  125       12.195331   0.000000
  126       12.278963   0.000000
  127       12.486479   0.000000
  128       12.656210   0.000000
 
 -0.4000000E+00 -0.1666667E+00  0.3636364E+00  0.6060606E-02
    1      -11.671692   1.000000
    2      -11.141313   1.000000
    3      -10.987689   1.000000
    4      -10.872695   1.000000
    5      -10.761646   1.000000
    6      -10.351181   1.000000
    7       -9.162007   1.000000
    8       -8.975647   1.000000
    9       -8.878023   1.000000
   10       -8.626992   1.000000
   11       -8.498144   1.000000
   12       -8.304644   1.000000
   13       -7.861514   1.000000
   14       -7.014881   1.000000
   15       -6.876431   1.000000
   16       -6.085703   1.000000
   17       -5.883751   1.000000
   18       -5.565870   1.000000
   19       -5.445152   1.000000
   20       -5.268869   1.000000
   21       -5.129753   1.000000
   22       -5.110701   1.000000
   23       -4.623256   1.000000
   24       -4.254383   1.000000
   25       -4.052751   1.000000
   26       -3.718099   1.000000
   27       -3.441669   1.000000
   28       -3.311072   1.000000
   29       -3.090975   1.000000
   30       -2.857420   1.000000
   31       -2.659705   1.000000
   32       -2.369449   1.000000
   33       -2.224048   1.000000
   34       -2.167693   1.000000
   35       -1.982139   1.000000
   36       -1.758088   1.000000
   37       -1.617305   1.000000
   38       -1.502872   1.000000
   39       -1.392727   1.000000
   40       -1.299353   1.000000
   41       -1.258244   1.000000
   42       -1.186401   1.000000
   43       -0.969551   1.000000
   44       -0.777676   1.000000
   45       -0.690313   1.000000
   46       -0.613406   1.000000
   47       -0.558865   1.000000
   48       -0.472990   1.000000
   49       -0.299743   1.000000
   50       -0.113303   1.000000
   51       -0.044771   1.000000
   52        0.137600   1.000000
   53        0.191485   1.000000
   54        0.310950   1.000000
   55        0.364016   1.000000
   56        0.409488   1.000000
   57        0.589284   1.000000
   58        0.708999   1.000000
   59        0.790587   1.000000
   60        0.886508   1.000000
   61        0.981689   1.000000
   62        1.104185   1.000000
   63        1.212434   1.000000
   64        1.287003   1.000000
   65        1.413252   1.000000
   66        1.573401   1.000000
   67        1.640334   1.000000
   68        1.872781   1.000000
   69        2.003254   1.000000
   70        2.102593   1.000000
   71        2.224688   1.000000
   72        2.376220   1.000000
   73        2.467142   1.000000
   74        2.655711   1.000000
   75        2.691809   1.000000
   76        2.764024   1.000000
   77        2.894137   1.000000
   78        2.956371   1.000000
   79        3.007391   1.000000
   80        3.097787   1.000000
   81        3.175519   1.000000
   82        3.243495   1.000000
   83        3.364255   1.000000
   84        3.421767   1.000000
   85        3.524077   1.000000
   86        3.554482   1.000000
   87        3.655425   1.000000
   88        3.748732   1.000000
   89        3.865482   1.000000
   90        3.948771   1.000000
   91        4.070311   1.000000
   92        4.162558   1.000000
   93        4.246509   1.000000
   94        4.391234   1.000000
   95        4.839618   1.000000
   96        4.978931   1.000000
   97        6.952470   1.000000
   98        7.454428  -0.078053
   99        7.496565   0.000000
  100        7.593840   0.000000
  101        7.734100   0.000000
  102        7.815670   0.000000
  103        7.935553   0.000000
  104        8.054581   0.000000
  105        8.456432   0.000000
  106        8.756248   0.000000
  107        9.284706   0.000000
  108        9.487044   0.000000
  109        9.632811   0.000000
  110        9.699958   0.000000
  111        9.872239   0.000000
  112        9.967336   0.000000
  113       10.132638   0.000000
  114       10.438961   0.000000
  115       10.630550   0.000000
  116       10.766085   0.000000
  117       10.831231   0.000000
  118       10.999909   0.000000
  119       11.114232   0.000000
  120       11.330770   0.000000
  121       11.437683   0.000000
  122       11.538074   0.000000
  123       11.753649   0.000000
  124       11.945385   0.000000
  125       12.037958   0.000000
  126       12.097291   0.000000
  127       12.388135   0.000000
  128       12.701341   0.000000
 
 -0.2000000E+00 -0.1666667E+00  0.3636364E+00  0.6060606E-02
    1      -11.670386   1.000000
    2      -11.143514   1.000000
    3      -10.971273   1.000000
    4      -10.899208   1.000000
    5      -10.746853   1.000000
    6      -10.357865   1.000000
    7       -9.146046   1.000000
    8       -8.983697   1.000000
    9       -8.836902   1.000000
   10       -8.708493   1.000000
   11       -8.584821   1.000000
   12       -8.191732   1.000000
   13       -7.788759   1.000000
   14       -7.053029   1.000000
   15       -6.896206   1.000000
   16       -6.147741   1.000000
   17       -5.938542   1.000000
   18       -5.578374   1.000000
   19       -5.360470   1.000000
   20       -5.238076   1.000000
   21       -5.042769   1.000000
   22       -4.993601   1.000000
   23       -4.503547   1.000000
   24       -4.239900   1.000000
   25       -4.121128   1.000000
   26       -3.811963   1.000000
   27       -3.705596   1.000000
   28       -3.572131   1.000000
   29       -3.221828   1.000000
   30       -3.034145   1.000000
   31       -2.849790   1.000000
   32       -2.218941   1.000000
   33       -2.099766   1.000000
   34       -1.961072   1.000000
   35       -1.746246   1.000000
   36       -1.567244   1.000000
   37       -1.506151   1.000000
   38       -1.407721   1.000000
   39       -1.294111   1.000000
   40       -1.161823   1.000000
   41       -1.088322   1.000000
   42       -0.990084   1.000000
   43       -0.896774   1.000000
   44       -0.818995   1.000000
   45       -0.763373   1.000000
   46       -0.687659   1.000000
   47       -0.582647   1.000000
   48       -0.517123   1.000000
   49       -0.347947   1.000000
   50       -0.161384   1.000000
   51       -0.089787   1.000000
   52        0.027339   1.000000
   53        0.118166   1.000000
   54        0.226490   1.000000
   55        0.300570   1.000000
   56        0.455553   1.000000
   57        0.528420   1.000000
   58        0.599227   1.000000
   59        0.860637   1.000000
   60        0.923060   1.000000
   61        1.002616   1.000000
   62        1.096006   1.000000
   63        1.150176   1.000000
   64        1.234126   1.000000
   65        1.472068   1.000000
   66        1.559064   1.000000
   67        1.657784   1.000000
   68        1.748531   1.000000
   69        1.783705   1.000000
   70        1.958969   1.000000
   71        2.214064   1.000000
   72        2.295607   1.000000
   73        2.359246   1.000000
   74        2.441276   1.000000
   75        2.712659   1.000000
   76        2.742183   1.000000
   77        2.851747   1.000000
   78        2.920809   1.000000
   79        2.970961   1.000000
   80        3.148525   1.000000
   81        3.223000   1.000000
   82        3.259967   1.000000
   83        3.312605   1.000000
   84        3.451303   1.000000
   85        3.509359   1.000000
   86        3.605294   1.000000
   87        3.651255   1.000000
   88        3.917129   1.000000
   89        3.983007   1.000000
   90        4.128872   1.000000
   91        4.195856   1.000000
   92        4.277363   1.000000
   93        4.349231   1.000000
   94        4.490213   1.000000
   95        4.866116   1.000000
   96        5.054285   1.000000
   97        6.971645   1.000000
   98        7.331581   0.273871
   99        7.559996   0.000000
  100        7.626313   0.000000
  101        7.739307   0.000000
  102        7.782312   0.000000
  103        7.944040   0.000000
  104        8.059978   0.000000
  105        8.369063   0.000000
  106        8.649369   0.000000
  107        9.252080   0.000000
  108        9.345474   0.000000
  109        9.517082   0.000000
  110        9.632102   0.000000
  111        9.743799   0.000000
  112        9.972608   0.000000
  113       10.233178   0.000000
  114       10.481118   0.000000
  115       10.793817   0.000000
  116       10.883924   0.000000
  117       10.933677   0.000000
  118       11.138120   0.000000
  119       11.164131   0.000000
  120       11.331238   0.000000
  121       11.598521   0.000000
  122       11.717043   0.000000
  123       11.858590   0.000000
  124       11.909371   0.000000
  125       11.998350   0.000000
  126       12.120893   0.000000
  127       12.409626   0.000000
  128       12.553282   0.000000
 
  0.0000000E+00  0.0000000E+00  0.4545455E+00  0.6060606E-02
    1      -11.580733   1.000000
    2      -11.048160   1.000000
    3      -10.964637   1.000000
    4      -10.899754   1.000000
    5      -10.761663   1.000000
    6      -10.444146   1.000000
    7       -9.179744   1.000000
    8       -9.031819   1.000000
    9       -8.886177   1.000000
   10       -8.763603   1.000000
   11       -8.646461   1.000000
   12       -8.117523   1.000000
   13       -7.753424   1.000000
   14       -7.040866   1.000000
   15       -6.965804   1.000000
   16       -6.192788   1.000000
   17       -5.997884   1.000000
   18       -5.521195   1.000000
   19       -5.383637   1.000000
   20       -5.269537   1.000000
   21       -5.034715   1.000000
   22       -4.988052   1.000000
   23       -4.411613   1.000000
   24       -4.276296   1.000000
   25       -4.054305   1.000000
   26       -3.941240   1.000000
   27       -3.827341   1.000000
   28       -3.776862   1.000000
   29       -3.360998   1.000000
   30       -3.232558   1.000000
   31       -2.673689   1.000000
   32       -2.122608   1.000000
   33       -2.078162   1.000000
   34       -1.857470   1.000000
   35       -1.680177   1.000000
   36       -1.583366   1.000000
   37       -1.523059   1.000000
   38       -1.368399   1.000000
   39       -1.217648   1.000000
   40       -1.068563   1.000000
   41       -1.013131   1.000000
   42       -0.911686   1.000000
   43       -0.812803   1.000000
   44       -0.759159   1.000000
   45       -0.612458   1.000000
   46       -0.538369   1.000000
   47       -0.435916   1.000000
   48       -0.408573   1.000000
   49       -0.309184   1.000000
   50       -0.267051   1.000000
   51       -0.119530   1.000000
   52       -0.010223   1.000000
   53        0.071141   1.000000
   54        0.189603   1.000000
   55        0.350720   1.000000
   56        0.467986   1.000000
   57        0.557291   1.000000
   58        0.711772   1.000000
   59        0.807329   1.000000
   60        0.848888   1.000000
   61        1.159469   1.000000
   62        1.210637   1.000000
   63        1.236083   1.000000
   64        1.435086   1.000000
   65        1.487395   1.000000
   66        1.645336   1.000000
   67        1.729410   1.000000
   68        1.835308   1.000000
   69        1.948742   1.000000
   70        2.017050   1.000000
   71        2.120682   1.000000
   72        2.162524   1.000000
   73        2.318092   1.000000
   74        2.541856   1.000000
   75        2.587185   1.000000
   76        2.678032   1.000000
   77        2.721487   1.000000
   78        2.795613   1.000000
   79        2.852713   1.000000
   80        2.948750   1.000000
   81        2.976928   1.000000
   82        3.056345   1.000000
   83        3.129426   1.000000
   84        3.223952   1.000000
   85        3.308928   1.000000
   86        3.518119   1.000000
   87        3.807216   1.000000
   88        3.967505   1.000000
   89        4.085804   1.000000
   90        4.249064   1.000000
   91        4.288399   1.000000
   92        4.435214   1.000000
   93        4.489667   1.000000
   94        4.675268   1.000000
   95        5.079363   1.000000
   96        5.201904   1.000000
   97        6.954116   1.000000
   98        7.153332   1.031690
   99        7.382851   0.000000
  100        7.592842   0.000000
  101        7.711974   0.000000
  102        7.895164   0.000000
  103        8.038982   0.000000
  104        8.137739   0.000000
  105        8.182104   0.000000
  106        8.368010   0.000000
  107        9.101165   0.000000
  108        9.157169   0.000000
  109        9.388530   0.000000
  110        9.446122   0.000000
  111        9.602803   0.000000
  112        9.844436   0.000000
  113       10.211391   0.000000
  114       10.368902   0.000000
  115       10.760442   0.000000
  116       10.887005   0.000000
  117       10.919268   0.000000
  118       11.082311   0.000000
  119       11.258359   0.000000
  120       11.429601   0.000000
  121       11.614863   0.000000
  122       11.774654   0.000000
  123       11.937215   0.000000
  124       12.135006   0.000000
  125       12.151755   0.000000
  126       12.381827   0.000000
  127       12.482028   0.000000
  128       12.635638   0.000000
 
  0.2000000E+00  0.1387779E-16  0.4545455E+00  0.6060606E-02
    1      -11.583861   1.000000
    2      -11.045060   1.000000
    3      -10.957173   1.000000
    4      -10.905059   1.000000
    5      -10.766642   1.000000
    6      -10.436227   1.000000
    7       -9.254986   1.000000
    8       -8.948726   1.000000
    9       -8.889164   1.000000
   10       -8.732800   1.000000
   11       -8.621509   1.000000
   12       -8.157741   1.000000
   13       -7.840154   1.000000
   14       -7.022903   1.000000
   15       -6.942279   1.000000
   16       -6.160882   1.000000
   17       -5.930878   1.000000
   18       -5.496210   1.000000
   19       -5.449253   1.000000
   20       -5.342541   1.000000
   21       -5.120569   1.000000
   22       -5.085823   1.000000
   23       -4.496448   1.000000
   24       -4.195601   1.000000
   25       -4.070356   1.000000
   26       -3.768149   1.000000
   27       -3.639550   1.000000
   28       -3.536205   1.000000
   29       -3.130592   1.000000
   30       -3.102604   1.000000
   31       -2.667976   1.000000
   32       -2.483073   1.000000
   33       -2.283335   1.000000
   34       -1.968581   1.000000
   35       -1.894401   1.000000
   36       -1.695277   1.000000
   37       -1.675611   1.000000
   38       -1.526849   1.000000
   39       -1.308899   1.000000
   40       -1.247652   1.000000
   41       -1.081280   1.000000
   42       -1.017675   1.000000
   43       -0.812365   1.000000
   44       -0.664192   1.000000
   45       -0.570652   1.000000
   46       -0.488949   1.000000
   47       -0.435841   1.000000
   48       -0.320074   1.000000
   49       -0.236799   1.000000
   50       -0.163262   1.000000
   51        0.037807   1.000000
   52        0.149972   1.000000
   53        0.257834   1.000000
   54        0.355099   1.000000
   55        0.419299   1.000000
   56        0.481175   1.000000
   57        0.589473   1.000000
   58        0.680796   1.000000
   59        0.798220   1.000000
   60        0.907469   1.000000
   61        1.111561   1.000000
   62        1.207668   1.000000
   63        1.282949   1.000000
   64        1.404080   1.000000
   65        1.481699   1.000000
   66        1.679138   1.000000
   67        1.734245   1.000000
   68        1.908817   1.000000
   69        1.933537   1.000000
   70        2.047163   1.000000
   71        2.148769   1.000000
   72        2.254545   1.000000
   73        2.399366   1.000000
   74        2.472696   1.000000
   75        2.581600   1.000000
   76        2.671141   1.000000
   77        2.742641   1.000000
   78        2.793127   1.000000
   79        2.841745   1.000000
   80        2.939387   1.000000
   81        2.974849   1.000000
   82        3.052621   1.000000
   83        3.122833   1.000000
   84        3.157770   1.000000
   85        3.360991   1.000000
   86        3.589815   1.000000
   87        3.766502   1.000000
   88        3.872134   1.000000
   89        4.019754   1.000000
   90        4.093239   1.000000
   91        4.241895   1.000000
   92        4.351354   1.000000
   93        4.404959   1.000000
   94        4.592204   1.000000
   95        5.029365   1.000000
   96        5.184971   1.000000
   97        7.015442   1.000000
   98        7.254884   0.993068
   99        7.389727   0.000000
  100        7.471823   0.000000
  101        7.690555   0.000000
  102        7.864111   0.000000
  103        8.010499   0.000000
  104        8.112178   0.000000
  105        8.264193   0.000000
  106        8.378437   0.000000
  107        9.159059   0.000000
  108        9.233055   0.000000
  109        9.418491   0.000000
  110        9.573843   0.000000
  111        9.738315   0.000000
  112        9.829628   0.000000
  113       10.125150   0.000000
  114       10.300320   0.000000
  115       10.748417   0.000000
  116       10.778968   0.000000
  117       10.927900   0.000000
  118       11.034671   0.000000
  119       11.274543   0.000000
  120       11.431522   0.000000
  121       11.547061   0.000000
  122       11.820974   0.000000
  123       11.945150   0.000000
  124       12.034591   0.000000
  125       12.204410   0.000000
  126       12.362277   0.000000
  127       12.576904   0.000000
  128       12.655982   0.000000
 
  0.4000000E+00  0.2775558E-16  0.4545455E+00  0.6060606E-02
    1      -11.584284   1.000000
    2      -11.030875   1.000000
    3      -10.966952   1.000000
    4      -10.913816   1.000000
    5      -10.774181   1.000000
    6      -10.418723   1.000000
    7       -9.299735   1.000000
    8       -8.980825   1.000000
    9       -8.863694   1.000000
   10       -8.596570   1.000000
   11       -8.553105   1.000000
   12       -8.275784   1.000000
   13       -7.944942   1.000000
   14       -7.013681   1.000000
   15       -6.901822   1.000000
   16       -6.119513   1.000000
   17       -5.819512   1.000000
   18       -5.542957   1.000000
   19       -5.520732   1.000000
   20       -5.345233   1.000000
   21       -5.246208   1.000000
   22       -5.220334   1.000000
   23       -4.621344   1.000000
   24       -4.153869   1.000000
   25       -4.021007   1.000000
   26       -3.518801   1.000000
   27       -3.245586   1.000000
   28       -3.146026   1.000000
   29       -2.934399   1.000000
   30       -2.826567   1.000000
   31       -2.714585   1.000000
   32       -2.589586   1.000000
   33       -2.504209   1.000000
   34       -2.360842   1.000000
   35       -2.181163   1.000000
   36       -2.094196   1.000000
   37       -1.797185   1.000000
   38       -1.615591   1.000000
   39       -1.453787   1.000000
   40       -1.360869   1.000000
   41       -1.244808   1.000000
   42       -1.063396   1.000000
   43       -0.941112   1.000000
   44       -0.777789   1.000000
   45       -0.581630   1.000000
   46       -0.515015   1.000000
   47       -0.408879   1.000000
   48       -0.236122   1.000000
   49       -0.107221   1.000000
   50        0.106239   1.000000
   51        0.196034   1.000000
   52        0.337950   1.000000
   53        0.360336   1.000000
   54        0.394943   1.000000
   55        0.496287   1.000000
   56        0.553263   1.000000
   57        0.656802   1.000000
   58        0.811379   1.000000
   59        0.905455   1.000000
   60        1.012259   1.000000
   61        1.060106   1.000000
   62        1.207394   1.000000
   63        1.296456   1.000000
   64        1.395854   1.000000
   65        1.461400   1.000000
   66        1.690429   1.000000
   67        1.805746   1.000000
   68        1.888496   1.000000
   69        1.936827   1.000000
   70        2.056701   1.000000
   71        2.133423   1.000000
   72        2.269661   1.000000
   73        2.334470   1.000000
   74        2.489102   1.000000
   75        2.545546   1.000000
   76        2.717763   1.000000
   77        2.786071   1.000000
   78        2.861959   1.000000
   79        2.912755   1.000000
   80        2.940883   1.000000
   81        3.017454   1.000000
   82        3.111717   1.000000
   83        3.208997   1.000000
   84        3.298903   1.000000
   85        3.440169   1.000000
   86        3.553531   1.000000
   87        3.683732   1.000000
   88        3.759557   1.000000
   89        3.813753   1.000000
   90        3.932450   1.000000
   91        4.049604   1.000000
   92        4.230158   1.000000
   93        4.262452   1.000000
   94        4.474933   1.000000
   95        4.955968   1.000000
   96        5.160076   1.000000
   97        7.118688   1.000000
   98        7.266274   0.852000
   99        7.401033   0.000000
  100        7.487919   0.000000
  101        7.689501   0.000000
  102        7.791033   0.000000
  103        7.986631   0.000000
  104        8.039976   0.000000
  105        8.336742   0.000000
  106        8.483762   0.000000
  107        9.243955   0.000000
  108        9.367086   0.000000
  109        9.524319   0.000000
  110        9.658538   0.000000
  111        9.747257   0.000000
  112        9.956028   0.000000
  113       10.208454   0.000000
  114       10.271923   0.000000
  115       10.568998   0.000000
  116       10.589776   0.000000
  117       10.739276   0.000000
  118       10.914582   0.000000
  119       11.157109   0.000000
  120       11.432231   0.000000
  121       11.576087   0.000000
  122       11.704959   0.000000
  123       11.790227   0.000000
  124       12.115473   0.000000
  125       12.260800   0.000000
  126       12.377017   0.000000
  127       12.528802   0.000000
  128       12.765090   0.000000
 
 -0.4000000E+00 -0.2775558E-16  0.4545455E+00  0.6060606E-02
    1      -11.581455   1.000000
    2      -11.018904   1.000000
    3      -10.986422   1.000000
    4      -10.915398   1.000000
    5      -10.772579   1.000000
    6      -10.416171   1.000000
    7       -9.284604   1.000000
    8       -8.987962   1.000000
    9       -8.900787   1.000000
   10       -8.583702   1.000000
   11       -8.507697   1.000000
   12       -8.317025   1.000000
   13       -7.914573   1.000000
   14       -7.018656   1.000000
   15       -6.906818   1.000000
   16       -6.119169   1.000000
   17       -5.840929   1.000000
   18       -5.546965   1.000000
   19       -5.500833   1.000000
   20       -5.360301   1.000000
   21       -5.245604   1.000000
   22       -5.199320   1.000000
   23       -4.603073   1.000000
   24       -4.144245   1.000000
   25       -4.073923   1.000000
   26       -3.575229   1.000000
   27       -3.333549   1.000000
   28       -3.224863   1.000000
   29       -3.008780   1.000000
   30       -2.708298   1.000000
   31       -2.632855   1.000000
   32       -2.580650   1.000000
   33       -2.405000   1.000000
   34       -2.351130   1.000000
   35       -2.062236   1.000000
   36       -1.981406   1.000000
   37       -1.784883   1.000000
   38       -1.619779   1.000000
   39       -1.481766   1.000000
   40       -1.428526   1.000000
   41       -1.204015   1.000000
   42       -1.101992   1.000000
   43       -0.896538   1.000000
   44       -0.810210   1.000000
   45       -0.567651   1.000000
   46       -0.484493   1.000000
   47       -0.435934   1.000000
   48       -0.346557   1.000000
   49       -0.199585   1.000000
   50        0.111236   1.000000
   51        0.188495   1.000000
   52        0.211303   1.000000
   53        0.332869   1.000000
   54        0.416530   1.000000
   55        0.451176   1.000000
   56        0.658551   1.000000
   57        0.709377   1.000000
   58        0.830245   1.000000
   59        0.908993   1.000000
   60        0.962515   1.000000
   61        1.081480   1.000000
   62        1.158529   1.000000
   63        1.288740   1.000000
   64        1.342410   1.000000
   65        1.531388   1.000000
   66        1.692354   1.000000
   67        1.781999   1.000000
   68        1.901394   1.000000
   69        1.996062   1.000000
   70        2.025591   1.000000
   71        2.155687   1.000000
   72        2.227434   1.000000
   73        2.335977   1.000000
   74        2.473906   1.000000
   75        2.558644   1.000000
   76        2.698014   1.000000
   77        2.778964   1.000000
   78        2.871814   1.000000
   79        2.917993   1.000000
   80        2.965814   1.000000
   81        2.993074   1.000000
   82        3.155791   1.000000
   83        3.272433   1.000000
   84        3.303381   1.000000
   85        3.435721   1.000000
   86        3.535532   1.000000
   87        3.661345   1.000000
   88        3.786349   1.000000
   89        3.842207   1.000000
   90        3.934983   1.000000
   91        4.055711   1.000000
   92        4.217993   1.000000
   93        4.267782   1.000000
   94        4.485279   1.000000
   95        4.962007   1.000000
   96        5.158763   1.000000
   97        7.038513   1.000000
   98        7.383061  -0.090450
   99        7.395310   0.000000
  100        7.494038   0.000000
  101        7.679580   0.000000
  102        7.827235   0.000000
  103        7.986709   0.000000
  104        8.000076   0.000000
  105        8.316238   0.000000
  106        8.518125   0.000000
  107        9.247024   0.000000
  108        9.396452   0.000000
  109        9.498620   0.000000
  110        9.646756   0.000000
  111        9.737599   0.000000
  112        9.868728   0.000000
  113       10.184040   0.000000
  114       10.289444   0.000000
  115       10.536196   0.000000
  116       10.664624   0.000000
  117       10.779765   0.000000
  118       10.935646   0.000000
  119       11.122932   0.000000
  120       11.422937   0.000000
  121       11.569359   0.000000
  122       11.690073   0.000000
  123       11.763678   0.000000
  124       12.022226   0.000000
  125       12.262945   0.000000
  126       12.373562   0.000000
  127       12.564765   0.000000
  128       12.747764   0.000000
 
 -0.2000000E+00 -0.1387779E-16  0.4545455E+00  0.6060606E-02
    1      -11.579231   1.000000
    2      -11.035955   1.000000
    3      -10.977122   1.000000
    4      -10.908464   1.000000
    5      -10.764771   1.000000
    6      -10.431903   1.000000
    7       -9.214156   1.000000
    8       -8.996772   1.000000
    9       -8.948452   1.000000
   10       -8.653621   1.000000
   11       -8.618648   1.000000
   12       -8.184045   1.000000
   13       -7.797586   1.000000
   14       -7.032642   1.000000
   15       -6.949779   1.000000
   16       -6.165326   1.000000
   17       -5.953522   1.000000
   18       -5.528284   1.000000
   19       -5.417647   1.000000
   20       -5.308452   1.000000
   21       -5.106965   1.000000
   22       -5.090629   1.000000
   23       -4.470771   1.000000
   24       -4.251593   1.000000
   25       -4.062114   1.000000
   26       -3.854523   1.000000
   27       -3.695815   1.000000
   28       -3.602426   1.000000
   29       -3.208944   1.000000
   30       -3.075969   1.000000
   31       -2.651725   1.000000
   32       -2.326834   1.000000
   33       -2.106673   1.000000
   34       -1.893637   1.000000
   35       -1.763062   1.000000
   36       -1.640122   1.000000
   37       -1.575595   1.000000
   38       -1.470978   1.000000
   39       -1.401886   1.000000
   40       -1.233676   1.000000
   41       -1.136857   1.000000
   42       -0.959443   1.000000
   43       -0.852454   1.000000
   44       -0.779782   1.000000
   45       -0.650332   1.000000
   46       -0.574620   1.000000
   47       -0.467236   1.000000
   48       -0.387375   1.000000
   49       -0.293538   1.000000
   50       -0.153956   1.000000
   51       -0.020848   1.000000
   52        0.169400   1.000000
   53        0.236369   1.000000
   54        0.266164   1.000000
   55        0.408759   1.000000
   56        0.506473   1.000000
   57        0.562041   1.000000
   58        0.704423   1.000000
   59        0.786665   1.000000
   60        0.969707   1.000000
   61        1.154313   1.000000
   62        1.170598   1.000000
   63        1.302793   1.000000
   64        1.371804   1.000000
   65        1.564483   1.000000
   66        1.646208   1.000000
   67        1.744757   1.000000
   68        1.816973   1.000000
   69        1.970165   1.000000
   70        2.073227   1.000000
   71        2.110650   1.000000
   72        2.252547   1.000000
   73        2.339435   1.000000
   74        2.430851   1.000000
   75        2.565315   1.000000
   76        2.634034   1.000000
   77        2.758023   1.000000
   78        2.787375   1.000000
   79        2.902832   1.000000
   80        2.970435   1.000000
   81        3.034573   1.000000
   82        3.102266   1.000000
   83        3.183750   1.000000
   84        3.254168   1.000000
   85        3.332962   1.000000
   86        3.509947   1.000000
   87        3.773309   1.000000
   88        3.926085   1.000000
   89        4.004162   1.000000
   90        4.098665   1.000000
   91        4.256316   1.000000
   92        4.358499   1.000000
   93        4.399442   1.000000
   94        4.610300   1.000000
   95        5.037517   1.000000
   96        5.181297   1.000000
   97        6.960970   1.000000
   98        7.235917   0.916643
   99        7.424921   0.000000
  100        7.587922   0.000000
  101        7.694395   0.000000
  102        7.877920   0.000000
  103        8.023728   0.000000
  104        8.056570   0.000000
  105        8.216079   0.000000
  106        8.439445   0.000000
  107        9.152909   0.000000
  108        9.220004   0.000000
  109        9.432674   0.000000
  110        9.491591   0.000000
  111        9.703646   0.000000
  112        9.849980   0.000000
  113       10.148312   0.000000
  114       10.346904   0.000000
  115       10.693772   0.000000
  116       10.807808   0.000000
  117       10.849963   0.000000
  118       11.040781   0.000000
  119       11.218436   0.000000
  120       11.444829   0.000000
  121       11.603907   0.000000
  122       11.781624   0.000000
  123       11.890498   0.000000
  124       12.013108   0.000000
  125       12.169620   0.000000
  126       12.301549   0.000000
  127       12.424026   0.000000
  128       12.654549   0.000000
 
  0.0000000E+00  0.1666667E+00  0.4545455E+00  0.6060606E-02
    1      -11.586269   1.000000
    2      -11.053058   1.000000
    3      -10.939059   1.000000
    4      -10.904881   1.000000
    5      -10.771494   1.000000
    6      -10.435530   1.000000
    7       -9.185006   1.000000
    8       -9.047153   1.000000
    9       -8.989586   1.000000
   10       -8.634123   1.000000
   11       -8.597392   1.000000
   12       -8.139095   1.000000
   13       -7.827923   1.000000
   14       -7.060942   1.000000
   15       -6.910419   1.000000
   16       -6.196128   1.000000
   17       -6.035537   1.000000
   18       -5.566533   1.000000
   19       -5.372145   1.000000
   20       -5.269698   1.000000
   21       -5.054494   1.000000
   22       -4.971323   1.000000
   23       -4.496533   1.000000
   24       -4.236745   1.000000
   25       -4.107094   1.000000
   26       -3.834752   1.000000
   27       -3.674404   1.000000
   28       -3.551633   1.000000
   29       -3.232208   1.000000
   30       -3.118672   1.000000
   31       -2.787450   1.000000
   32       -2.339403   1.000000
   33       -2.125745   1.000000
   34       -1.992183   1.000000
   35       -1.869361   1.000000
   36       -1.724836   1.000000
   37       -1.539964   1.000000
   38       -1.430704   1.000000
   39       -1.305071   1.000000
   40       -1.177650   1.000000
   41       -1.085241   1.000000
   42       -0.939404   1.000000
   43       -0.866638   1.000000
   44       -0.753119   1.000000
   45       -0.646126   1.000000
   46       -0.536342   1.000000
   47       -0.425251   1.000000
   48       -0.329374   1.000000
   49       -0.229663   1.000000
   50       -0.135899   1.000000
   51        0.013663   1.000000
   52        0.028660   1.000000
   53        0.129807   1.000000
   54        0.279747   1.000000
   55        0.404183   1.000000
   56        0.480744   1.000000
   57        0.625709   1.000000
   58        0.722515   1.000000
   59        0.842471   1.000000
   60        0.980197   1.000000
   61        1.181915   1.000000
   62        1.250056   1.000000
   63        1.271329   1.000000
   64        1.367311   1.000000
   65        1.459785   1.000000
   66        1.621390   1.000000
   67        1.743997   1.000000
   68        1.869468   1.000000
   69        1.972623   1.000000
   70        2.062231   1.000000
   71        2.139731   1.000000
   72        2.197291   1.000000
   73        2.302725   1.000000
   74        2.510284   1.000000
   75        2.536996   1.000000
   76        2.627549   1.000000
   77        2.712760   1.000000
   78        2.824339   1.000000
   79        2.910481   1.000000
   80        2.944090   1.000000
   81        2.995182   1.000000
   82        3.060449   1.000000
   83        3.165533   1.000000
   84        3.210446   1.000000
   85        3.315579   1.000000
   86        3.527450   1.000000
   87        3.772055   1.000000
   88        3.899844   1.000000
   89        4.018451   1.000000
   90        4.222006   1.000000
   91        4.283892   1.000000
   92        4.375963   1.000000
   93        4.484320   1.000000
   94        4.630436   1.000000
   95        4.995749   1.000000
   96        5.115503   1.000000
   97        6.995708   1.000000
   98        7.235554   1.170951
   99        7.389064   0.000000
  100        7.564295   0.000000
  101        7.637682   0.000000
  102        7.859562   0.000000
  103        8.021449   0.000000
  104        8.083785   0.000000
  105        8.185536   0.000000
  106        8.472757   0.000000
  107        9.113258   0.000000
  108        9.247969   0.000000
  109        9.340295   0.000000
  110        9.510109   0.000000
  111        9.643199   0.000000
  112        9.835780   0.000000
  113       10.195542   0.000000
  114       10.348587   0.000000
  115       10.692980   0.000000
  116       10.783064   0.000000
  117       10.947674   0.000000
  118       11.053639   0.000000
  119       11.246359   0.000000
  120       11.437271   0.000000
  121       11.699989   0.000000
  122       11.721617   0.000000
  123       11.971477   0.000000
  124       12.125569   0.000000
  125       12.191705   0.000000
  126       12.350834   0.000000
  127       12.498279   0.000000
  128       12.603766   0.000000
 
  0.2000000E+00  0.1666667E+00  0.4545455E+00  0.6060606E-02
    1      -11.590665   1.000000
    2      -11.052686   1.000000
    3      -10.927221   1.000000
    4      -10.908892   1.000000
    5      -10.775497   1.000000
    6      -10.429462   1.000000
    7       -9.207312   1.000000
    8       -8.991374   1.000000
    9       -8.935563   1.000000
   10       -8.723378   1.000000
   11       -8.642500   1.000000
   12       -8.109196   1.000000
   13       -7.875481   1.000000
   14       -7.017196   1.000000
   15       -6.879543   1.000000
   16       -6.192269   1.000000
   17       -6.001560   1.000000
   18       -5.527425   1.000000
   19       -5.377453   1.000000
   20       -5.295716   1.000000
   21       -5.099554   1.000000
   22       -5.023271   1.000000
   23       -4.593707   1.000000
   24       -4.253484   1.000000
   25       -4.065946   1.000000
   26       -3.760762   1.000000
   27       -3.591174   1.000000
   28       -3.444217   1.000000
   29       -3.198278   1.000000
   30       -3.032552   1.000000
   31       -2.785551   1.000000
   32       -2.399218   1.000000
   33       -2.304215   1.000000
   34       -2.117393   1.000000
   35       -1.912672   1.000000
   36       -1.836039   1.000000
   37       -1.570954   1.000000
   38       -1.449782   1.000000
   39       -1.372607   1.000000
   40       -1.111097   1.000000
   41       -0.987386   1.000000
   42       -0.869002   1.000000
   43       -0.767838   1.000000
   44       -0.725822   1.000000
   45       -0.623894   1.000000
   46       -0.578342   1.000000
   47       -0.422628   1.000000
   48       -0.367039   1.000000
   49       -0.252166   1.000000
   50       -0.142839   1.000000
   51       -0.005595   1.000000
   52        0.073338   1.000000
   53        0.189709   1.000000
   54        0.240096   1.000000
   55        0.373576   1.000000
   56        0.445168   1.000000
   57        0.626113   1.000000
   58        0.723249   1.000000
   59        0.831520   1.000000
   60        0.909692   1.000000
   61        1.112107   1.000000
   62        1.201161   1.000000
   63        1.274328   1.000000
   64        1.391130   1.000000
   65        1.527965   1.000000
   66        1.656606   1.000000
   67        1.798143   1.000000
   68        1.930497   1.000000
   69        2.000370   1.000000
   70        2.115894   1.000000
   71        2.183826   1.000000
   72        2.342456   1.000000
   73        2.429673   1.000000
   74        2.570222   1.000000
   75        2.591333   1.000000
   76        2.658713   1.000000
   77        2.737242   1.000000
   78        2.822267   1.000000
   79        2.895659   1.000000
   80        2.941423   1.000000
   81        2.972819   1.000000
   82        3.023878   1.000000
   83        3.128613   1.000000
   84        3.134850   1.000000
   85        3.232818   1.000000
   86        3.616608   1.000000
   87        3.724702   1.000000
   88        3.860922   1.000000
   89        4.015221   1.000000
   90        4.161191   1.000000
   91        4.229922   1.000000
   92        4.268859   1.000000
   93        4.453013   1.000000
   94        4.572563   1.000000
   95        4.955255   1.000000
   96        5.100791   1.000000
   97        7.024807   1.000000
   98        7.315537   0.434849
   99        7.351614   0.000000
  100        7.455222   0.000000
  101        7.627315   0.000000
  102        7.875264   0.000000
  103        8.007821   0.000000
  104        8.131613   0.000000
  105        8.243696   0.000000
  106        8.455507   0.000000
  107        9.115651   0.000000
  108        9.259611   0.000000
  109        9.389279   0.000000
  110        9.611083   0.000000
  111        9.731006   0.000000
  112        9.839089   0.000000
  113       10.132580   0.000000
  114       10.371077   0.000000
  115       10.650018   0.000000
  116       10.751861   0.000000
  117       10.949017   0.000000
  118       10.982225   0.000000
  119       11.259883   0.000000
  120       11.357947   0.000000
  121       11.669159   0.000000
  122       11.771199   0.000000
  123       11.914445   0.000000
  124       12.029945   0.000000
  125       12.089580   0.000000
  126       12.277579   0.000000
  127       12.554257   0.000000
  128       12.714752   0.000000
 
  0.4000000E+00  0.1666667E+00  0.4545455E+00  0.6060606E-02
    1      -11.591415   1.000000
    2      -11.040253   1.000000
    3      -10.947316   1.000000
    4      -10.904841   1.000000
    5      -10.780261   1.000000
    6      -10.417244   1.000000
    7       -9.265747   1.000000
    8       -8.960745   1.000000
    9       -8.871905   1.000000
   10       -8.704366   1.000000
   11       -8.612921   1.000000
   12       -8.158966   1.000000
   13       -7.977949   1.000000
   14       -7.001624   1.000000
   15       -6.845149   1.000000
   16       -6.165819   1.000000
   17       -5.884856   1.000000
   18       -5.513952   1.000000
   19       -5.442627   1.000000
   20       -5.355468   1.000000
   21       -5.196122   1.000000
   22       -5.154562   1.000000
   23       -4.718535   1.000000
   24       -4.270690   1.000000
   25       -3.947549   1.000000
   26       -3.499865   1.000000
   27       -3.364202   1.000000
   28       -3.131550   1.000000
   29       -2.973185   1.000000
   30       -2.846699   1.000000
   31       -2.685544   1.000000
   32       -2.569695   1.000000
   33       -2.530512   1.000000
   34       -2.280857   1.000000
   35       -2.094365   1.000000
   36       -1.980245   1.000000
   37       -1.854896   1.000000
   38       -1.599918   1.000000
   39       -1.456197   1.000000
   40       -1.369291   1.000000
   41       -1.197293   1.000000
   42       -1.064876   1.000000
   43       -0.946732   1.000000
   44       -0.717448   1.000000
   45       -0.670451   1.000000
   46       -0.530856   1.000000
   47       -0.508136   1.000000
   48       -0.288368   1.000000
   49       -0.124050   1.000000
   50        0.042872   1.000000
   51        0.160164   1.000000
   52        0.262012   1.000000
   53        0.381202   1.000000
   54        0.436851   1.000000
   55        0.477767   1.000000
   56        0.552109   1.000000
   57        0.650936   1.000000
   58        0.803875   1.000000
   59        0.924742   1.000000
   60        0.970464   1.000000
   61        1.080994   1.000000
   62        1.184652   1.000000
   63        1.302993   1.000000
   64        1.356123   1.000000
   65        1.472361   1.000000
   66        1.757327   1.000000
   67        1.820259   1.000000
   68        1.890687   1.000000
   69        2.025920   1.000000
   70        2.103070   1.000000
   71        2.164119   1.000000
   72        2.313276   1.000000
   73        2.396832   1.000000
   74        2.574246   1.000000
   75        2.604604   1.000000
   76        2.738518   1.000000
   77        2.804282   1.000000
   78        2.858706   1.000000
   79        2.940726   1.000000
   80        2.961030   1.000000
   81        3.023350   1.000000
   82        3.078975   1.000000
   83        3.144880   1.000000
   84        3.204899   1.000000
   85        3.345417   1.000000
   86        3.603988   1.000000
   87        3.665242   1.000000
   88        3.767909   1.000000
   89        3.863007   1.000000
   90        3.968031   1.000000
   91        4.054990   1.000000
   92        4.171755   1.000000
   93        4.282587   1.000000
   94        4.459768   1.000000
   95        4.894622   1.000000
   96        5.080839   1.000000
   97        7.145967   1.000000
   98        7.269507   0.810383
   99        7.407856   0.000000
  100        7.458064   0.000000
  101        7.662161   0.000000
  102        7.825881   0.000000
  103        7.970765   0.000000
  104        8.091302   0.000000
  105        8.306728   0.000000
  106        8.515670   0.000000
  107        9.217184   0.000000
  108        9.302013   0.000000
  109        9.465481   0.000000
  110        9.683747   0.000000
  111        9.831880   0.000000
  112        9.961478   0.000000
  113       10.169056   0.000000
  114       10.330617   0.000000
  115       10.500818   0.000000
  116       10.579594   0.000000
  117       10.837885   0.000000
  118       10.940196   0.000000
  119       11.108023   0.000000
  120       11.383463   0.000000
  121       11.486853   0.000000
  122       11.611296   0.000000
  123       11.887169   0.000000
  124       12.001033   0.000000
  125       12.146015   0.000000
  126       12.296963   0.000000
  127       12.436787   0.000000
  128       12.840704   0.000000
 
 -0.4000000E+00  0.1666667E+00  0.4545455E+00  0.6060606E-02
    1      -11.587532   1.000000
    2      -11.027023   1.000000
    3      -10.969061   1.000000
    4      -10.909306   1.000000
    5      -10.776352   1.000000
    6      -10.416033   1.000000
    7       -9.283242   1.000000
    8       -9.020201   1.000000
    9       -8.864699   1.000000
   10       -8.591035   1.000000
   11       -8.531145   1.000000
   12       -8.245739   1.000000
   13       -7.998756   1.000000
   14       -7.022504   1.000000
   15       -6.866468   1.000000
   16       -6.130174   1.000000
   17       -5.883658   1.000000
   18       -5.534012   1.000000
   19       -5.460209   1.000000
   20       -5.385121   1.000000
   21       -5.222274   1.000000
   22       -5.174380   1.000000
   23       -4.701918   1.000000
   24       -4.239329   1.000000
   25       -3.966100   1.000000
   26       -3.452054   1.000000
   27       -3.195109   1.000000
   28       -3.093440   1.000000
   29       -2.947332   1.000000
   30       -2.777323   1.000000
   31       -2.557874   1.000000
   32       -2.527051   1.000000
   33       -2.433664   1.000000
   34       -2.296638   1.000000
   35       -2.156461   1.000000
   36       -2.080782   1.000000
   37       -2.020085   1.000000
   38       -1.731511   1.000000
   39       -1.682223   1.000000
   40       -1.540818   1.000000
   41       -1.236153   1.000000
   42       -1.075664   1.000000
   43       -0.926969   1.000000
   44       -0.785380   1.000000
   45       -0.632542   1.000000
   46       -0.569173   1.000000
   47       -0.430206   1.000000
   48       -0.278334   1.000000
   49       -0.118413   1.000000
   50        0.058036   1.000000
   51        0.114337   1.000000
   52        0.265577   1.000000
   53        0.333369   1.000000
   54        0.438727   1.000000
   55        0.620613   1.000000
   56        0.722578   1.000000
   57        0.834128   1.000000
   58        0.919371   1.000000
   59        1.025955   1.000000
   60        1.070062   1.000000
   61        1.148641   1.000000
   62        1.180771   1.000000
   63        1.286386   1.000000
   64        1.457926   1.000000
   65        1.571339   1.000000
   66        1.603191   1.000000
   67        1.695062   1.000000
   68        1.864654   1.000000
   69        1.933099   1.000000
   70        2.007365   1.000000
   71        2.159195   1.000000
   72        2.254412   1.000000
   73        2.307228   1.000000
   74        2.468032   1.000000
   75        2.550338   1.000000
   76        2.673783   1.000000
   77        2.816171   1.000000
   78        2.893091   1.000000
   79        2.908387   1.000000
   80        2.952089   1.000000
   81        3.020358   1.000000
   82        3.126463   1.000000
   83        3.241457   1.000000
   84        3.374128   1.000000
   85        3.439037   1.000000
   86        3.577996   1.000000
   87        3.663669   1.000000
   88        3.755609   1.000000
   89        3.787763   1.000000
   90        3.923000   1.000000
   91        4.031698   1.000000
   92        4.163201   1.000000
   93        4.245201   1.000000
   94        4.434079   1.000000
   95        4.900597   1.000000
   96        5.079138   1.000000
   97        7.099221   1.000000
   98        7.387148  -0.068870
   99        7.422736   0.000000
  100        7.499147   0.000000
  101        7.665361   0.000000
  102        7.789531   0.000000
  103        7.958497   0.000000
  104        8.032391   0.000000
  105        8.278585   0.000000
  106        8.562500   0.000000
  107        9.263979   0.000000
  108        9.339180   0.000000
  109        9.495081   0.000000
  110        9.681218   0.000000
  111        9.725547   0.000000
  112       10.001645   0.000000
  113       10.179999   0.000000
  114       10.300705   0.000000
  115       10.461880   0.000000
  116       10.566833   0.000000
  117       10.842022   0.000000
  118       10.962299   0.000000
  119       11.063248   0.000000
  120       11.278280   0.000000
  121       11.528681   0.000000
  122       11.698569   0.000000
  123       11.775924   0.000000
  124       12.016815   0.000000
  125       12.239652   0.000000
  126       12.341249   0.000000
  127       12.557236   0.000000
  128       12.767613   0.000000
 
 -0.2000000E+00  0.1666667E+00  0.4545455E+00  0.6060606E-02
    1      -11.584311   1.000000
    2      -11.037464   1.000000
    3      -10.965128   1.000000
    4      -10.904554   1.000000
    5      -10.772130   1.000000
    6      -10.427424   1.000000
    7       -9.249620   1.000000
    8       -9.043691   1.000000
    9       -8.933831   1.000000
   10       -8.606039   1.000000
   11       -8.479673   1.000000
   12       -8.240385   1.000000
   13       -7.901627   1.000000
   14       -7.058812   1.000000
   15       -6.905540   1.000000
   16       -6.151371   1.000000
   17       -5.975375   1.000000
   18       -5.560099   1.000000
   19       -5.423499   1.000000
   20       -5.369507   1.000000
   21       -5.109368   1.000000
   22       -5.071039   1.000000
   23       -4.564460   1.000000
   24       -4.207362   1.000000
   25       -4.074095   1.000000
   26       -3.693212   1.000000
   27       -3.491993   1.000000
   28       -3.310826   1.000000
   29       -3.048267   1.000000
   30       -2.916680   1.000000
   31       -2.763796   1.000000
   32       -2.397091   1.000000
   33       -2.203137   1.000000
   34       -2.088425   1.000000
   35       -1.962523   1.000000
   36       -1.888264   1.000000
   37       -1.810443   1.000000
   38       -1.650929   1.000000
   39       -1.558188   1.000000
   40       -1.321959   1.000000
   41       -1.223879   1.000000
   42       -0.957740   1.000000
   43       -0.883369   1.000000
   44       -0.811645   1.000000
   45       -0.658040   1.000000
   46       -0.552443   1.000000
   47       -0.425635   1.000000
   48       -0.344685   1.000000
   49       -0.257388   1.000000
   50       -0.112285   1.000000
   51        0.100871   1.000000
   52        0.201834   1.000000
   53        0.326785   1.000000
   54        0.403793   1.000000
   55        0.525434   1.000000
   56        0.648036   1.000000
   57        0.776183   1.000000
   58        0.857010   1.000000
   59        0.939367   1.000000
   60        1.087494   1.000000
   61        1.157895   1.000000
   62        1.257426   1.000000
   63        1.311772   1.000000
   64        1.343113   1.000000
   65        1.504564   1.000000
   66        1.639528   1.000000
   67        1.740871   1.000000
   68        1.833765   1.000000
   69        1.908842   1.000000
   70        2.023444   1.000000
   71        2.105685   1.000000
   72        2.257324   1.000000
   73        2.297232   1.000000
   74        2.370017   1.000000
   75        2.441198   1.000000
   76        2.623616   1.000000
   77        2.724274   1.000000
   78        2.830677   1.000000
   79        2.907822   1.000000
   80        2.939647   1.000000
   81        3.042044   1.000000
   82        3.116489   1.000000
   83        3.186859   1.000000
   84        3.299050   1.000000
   85        3.424018   1.000000
   86        3.547467   1.000000
   87        3.768047   1.000000
   88        3.855107   1.000000
   89        3.903215   1.000000
   90        4.031658   1.000000
   91        4.206286   1.000000
   92        4.311755   1.000000
   93        4.362625   1.000000
   94        4.557301   1.000000
   95        4.963691   1.000000
   96        5.098752   1.000000
   97        7.027897   1.000000
   98        7.297111   0.418842
   99        7.449162   0.000000
  100        7.586348   0.000000
  101        7.647039   0.000000
  102        7.835653   0.000000
  103        7.980508   0.000000
  104        8.014515   0.000000
  105        8.194179   0.000000
  106        8.526340   0.000000
  107        9.185790   0.000000
  108        9.304617   0.000000
  109        9.363635   0.000000
  110        9.618376   0.000000
  111        9.763836   0.000000
  112        9.847417   0.000000
  113       10.075617   0.000000
  114       10.293962   0.000000
  115       10.540267   0.000000
  116       10.734321   0.000000
  117       10.911708   0.000000
  118       11.047259   0.000000
  119       11.250239   0.000000
  120       11.472515   0.000000
  121       11.614560   0.000000
  122       11.717639   0.000000
  123       11.855683   0.000000
  124       12.039658   0.000000
  125       12.215539   0.000000
  126       12.354131   0.000000
  127       12.489848   0.000000
  128       12.615639   0.000000
 
  0.0000000E+00  0.3333333E+00  0.4545455E+00  0.6060606E-02
    1      -11.589944   1.000000
    2      -11.049742   1.000000
    3      -10.941155   1.000000
    4      -10.894243   1.000000
    5      -10.788619   1.000000
    6      -10.416719   1.000000
    7       -9.207005   1.000000
    8       -9.120540   1.000000
    9       -8.951699   1.000000
   10       -8.590616   1.000000
   11       -8.474551   1.000000
   12       -8.155232   1.000000
   13       -7.973365   1.000000
   14       -7.089213   1.000000
   15       -6.844944   1.000000
   16       -6.186454   1.000000
   17       -6.059920   1.000000
   18       -5.656788   1.000000
   19       -5.393104   1.000000
   20       -5.333110   1.000000
   21       -4.972452   1.000000
   22       -4.903084   1.000000
   23       -4.623347   1.000000
   24       -4.420644   1.000000
   25       -3.890448   1.000000
   26       -3.579681   1.000000
   27       -3.404195   1.000000
   28       -3.258206   1.000000
   29       -3.113423   1.000000
   30       -2.968972   1.000000
   31       -2.877084   1.000000
   32       -2.490889   1.000000
   33       -2.399197   1.000000
   34       -2.280685   1.000000
   35       -2.034735   1.000000
   36       -1.918693   1.000000
   37       -1.645653   1.000000
   38       -1.492929   1.000000
   39       -1.381433   1.000000
   40       -1.314835   1.000000
   41       -1.153781   1.000000
   42       -1.088668   1.000000
   43       -0.957406   1.000000
   44       -0.899526   1.000000
   45       -0.678924   1.000000
   46       -0.486835   1.000000
   47       -0.371252   1.000000
   48       -0.292689   1.000000
   49       -0.209768   1.000000
   50       -0.030237   1.000000
   51        0.068948   1.000000
   52        0.216773   1.000000
   53        0.308575   1.000000
   54        0.381761   1.000000
   55        0.506004   1.000000
   56        0.583410   1.000000
   57        0.806757   1.000000
   58        0.825105   1.000000
   59        0.942585   1.000000
   60        1.072900   1.000000
   61        1.174608   1.000000
   62        1.270189   1.000000
   63        1.320071   1.000000
   64        1.398927   1.000000
   65        1.480295   1.000000
   66        1.535231   1.000000
   67        1.637098   1.000000
   68        1.894065   1.000000
   69        1.969419   1.000000
   70        2.033950   1.000000
   71        2.196911   1.000000
   72        2.298568   1.000000
   73        2.397931   1.000000
   74        2.431555   1.000000
   75        2.491049   1.000000
   76        2.576210   1.000000
   77        2.666152   1.000000
   78        2.711659   1.000000
   79        2.838073   1.000000
   80        2.944626   1.000000
   81        2.983640   1.000000
   82        3.068297   1.000000
   83        3.287358   1.000000
   84        3.375110   1.000000
   85        3.481517   1.000000
   86        3.545651   1.000000
   87        3.685265   1.000000
   88        3.836888   1.000000
   89        3.966493   1.000000
   90        4.074523   1.000000
   91        4.241210   1.000000
   92        4.427700   1.000000
   93        4.461018   1.000000
   94        4.560775   1.000000
   95        4.775164   1.000000
   96        4.888329   1.000000
   97        7.094588   1.000000
   98        7.309643   0.481125
   99        7.379374   0.000000
  100        7.525631   0.000000
  101        7.603639   0.000000
  102        7.824220   0.000000
  103        7.970948   0.000000
  104        8.018447   0.000000
  105        8.211128   0.000000
  106        8.665217   0.000000
  107        9.115641   0.000000
  108        9.192831   0.000000
  109        9.471643   0.000000
  110        9.631822   0.000000
  111        9.754120   0.000000
  112        9.935916   0.000000
  113       10.134544   0.000000
  114       10.307177   0.000000
  115       10.431505   0.000000
  116       10.626587   0.000000
  117       10.834167   0.000000
  118       11.124493   0.000000
  119       11.280029   0.000000
  120       11.442983   0.000000
  121       11.657962   0.000000
  122       11.818027   0.000000
  123       11.943318   0.000000
  124       12.054117   0.000000
  125       12.096855   0.000000
  126       12.307929   0.000000
  127       12.593859   0.000000
  128       12.643181   0.000000
 
  0.2000000E+00  0.3333333E+00  0.4545455E+00  0.6060606E-02
    1      -11.595064   1.000000
    2      -11.054904   1.000000
    3      -10.925099   1.000000
    4      -10.893410   1.000000
    5      -10.791496   1.000000
    6      -10.415468   1.000000
    7       -9.151897   1.000000
    8       -9.086426   1.000000
    9       -8.982506   1.000000
   10       -8.638018   1.000000
   11       -8.594433   1.000000
   12       -8.106413   1.000000
   13       -7.974696   1.000000
   14       -7.032194   1.000000
   15       -6.811753   1.000000
   16       -6.184469   1.000000
   17       -6.063625   1.000000
   18       -5.616887   1.000000
   19       -5.341796   1.000000
   20       -5.225972   1.000000
   21       -5.067845   1.000000
   22       -4.971265   1.000000
   23       -4.723728   1.000000
   24       -4.482346   1.000000
   25       -3.868366   1.000000
   26       -3.602192   1.000000
   27       -3.404915   1.000000
   28       -3.220216   1.000000
   29       -3.111533   1.000000
   30       -2.936146   1.000000
   31       -2.822923   1.000000
   32       -2.579726   1.000000
   33       -2.379582   1.000000
   34       -2.237633   1.000000
   35       -2.019409   1.000000
   36       -1.861472   1.000000
   37       -1.694128   1.000000
   38       -1.588672   1.000000
   39       -1.421378   1.000000
   40       -1.299959   1.000000
   41       -1.152983   1.000000
   42       -1.038332   1.000000
   43       -0.913848   1.000000
   44       -0.651812   1.000000
   45       -0.548635   1.000000
   46       -0.479561   1.000000
   47       -0.451628   1.000000
   48       -0.306997   1.000000
   49       -0.204835   1.000000
   50       -0.127619   1.000000
   51       -0.028905   1.000000
   52        0.116968   1.000000
   53        0.175868   1.000000
   54        0.374045   1.000000
   55        0.481185   1.000000
   56        0.596615   1.000000
   57        0.731652   1.000000
   58        0.788938   1.000000
   59        0.855669   1.000000
   60        0.961975   1.000000
   61        1.141190   1.000000
   62        1.251015   1.000000
   63        1.323897   1.000000
   64        1.421400   1.000000
   65        1.560684   1.000000
   66        1.635315   1.000000
   67        1.709404   1.000000
   68        1.956016   1.000000
   69        2.033771   1.000000
   70        2.126753   1.000000
   71        2.197691   1.000000
   72        2.380229   1.000000
   73        2.436585   1.000000
   74        2.496378   1.000000
   75        2.578060   1.000000
   76        2.638624   1.000000
   77        2.690965   1.000000
   78        2.754276   1.000000
   79        2.883027   1.000000
   80        2.934037   1.000000
   81        2.949993   1.000000
   82        3.091927   1.000000
   83        3.246751   1.000000
   84        3.286348   1.000000
   85        3.411183   1.000000
   86        3.543098   1.000000
   87        3.641678   1.000000
   88        3.834793   1.000000
   89        3.992482   1.000000
   90        4.029018   1.000000
   91        4.192722   1.000000
   92        4.355793   1.000000
   93        4.472541   1.000000
   94        4.516955   1.000000
   95        4.742249   1.000000
   96        4.864859   1.000000
   97        7.117717   1.000000
   98        7.311779   0.216569
   99        7.408468   0.000000
  100        7.442933   0.000000
  101        7.613987   0.000000
  102        7.843984   0.000000
  103        7.994011   0.000000
  104        8.073067   0.000000
  105        8.250876   0.000000
  106        8.604144   0.000000
  107        9.081814   0.000000
  108        9.182192   0.000000
  109        9.500491   0.000000
  110        9.710210   0.000000
  111        9.816649   0.000000
  112        9.924774   0.000000
  113       10.122359   0.000000
  114       10.288940   0.000000
  115       10.484749   0.000000
  116       10.654211   0.000000
  117       10.828227   0.000000
  118       10.989643   0.000000
  119       11.250458   0.000000
  120       11.384775   0.000000
  121       11.576611   0.000000
  122       11.786293   0.000000
  123       11.883541   0.000000
  124       11.946389   0.000000
  125       12.002107   0.000000
  126       12.279058   0.000000
  127       12.469394   0.000000
  128       12.803257   0.000000
 
  0.4000000E+00  0.3333333E+00  0.4545455E+00  0.6060606E-02
    1      -11.596886   1.000000
    2      -11.052669   1.000000
    3      -10.937180   1.000000
    4      -10.878444   1.000000
    5      -10.799148   1.000000
    6      -10.408789   1.000000
    7       -9.186623   1.000000
    8       -8.992833   1.000000
    9       -8.937737   1.000000
   10       -8.705109   1.000000
   11       -8.652903   1.000000
   12       -8.090086   1.000000
   13       -8.034310   1.000000
   14       -6.990289   1.000000
   15       -6.774272   1.000000
   16       -6.191379   1.000000
   17       -5.971603   1.000000
   18       -5.571142   1.000000
   19       -5.329119   1.000000
   20       -5.271178   1.000000
   21       -5.147726   1.000000
   22       -5.079804   1.000000
   23       -4.829898   1.000000
   24       -4.525071   1.000000
   25       -3.779084   1.000000
   26       -3.521110   1.000000
   27       -3.271671   1.000000
   28       -3.140712   1.000000
   29       -3.014831   1.000000
   30       -2.782843   1.000000
   31       -2.631299   1.000000
   32       -2.558851   1.000000
   33       -2.468686   1.000000
   34       -2.336638   1.000000
   35       -2.147518   1.000000
   36       -2.015253   1.000000
   37       -1.863272   1.000000
   38       -1.654473   1.000000
   39       -1.529817   1.000000
   40       -1.280720   1.000000
   41       -1.168227   1.000000
   42       -0.962768   1.000000
   43       -0.869766   1.000000
   44       -0.793691   1.000000
   45       -0.694703   1.000000
   46       -0.621481   1.000000
   47       -0.516592   1.000000
   48       -0.367597   1.000000
   49       -0.110172   1.000000
   50       -0.061151   1.000000
   51        0.044932   1.000000
   52        0.089854   1.000000
   53        0.301729   1.000000
   54        0.359578   1.000000
   55        0.484935   1.000000
   56        0.555061   1.000000
   57        0.765484   1.000000
   58        0.820988   1.000000
   59        1.008100   1.000000
   60        1.076866   1.000000
   61        1.167127   1.000000
   62        1.217407   1.000000
   63        1.312640   1.000000
   64        1.423381   1.000000
   65        1.504219   1.000000
   66        1.695855   1.000000
   67        1.792161   1.000000
   68        1.953596   1.000000
   69        2.060788   1.000000
   70        2.124628   1.000000
   71        2.276328   1.000000
   72        2.336440   1.000000
   73        2.465881   1.000000
   74        2.572688   1.000000
   75        2.602039   1.000000
   76        2.703161   1.000000
   77        2.788309   1.000000
   78        2.876746   1.000000
   79        2.912929   1.000000
   80        2.969897   1.000000
   81        3.025185   1.000000
   82        3.100132   1.000000
   83        3.249156   1.000000
   84        3.296840   1.000000
   85        3.364885   1.000000
   86        3.532307   1.000000
   87        3.598312   1.000000
   88        3.776679   1.000000
   89        3.853744   1.000000
   90        3.915947   1.000000
   91        4.111489   1.000000
   92        4.194569   1.000000
   93        4.339183   1.000000
   94        4.461283   1.000000
   95        4.693673   1.000000
   96        4.860451   1.000000
   97        7.228705   1.000000
   98        7.306990   0.215548
   99        7.408604   0.000000
  100        7.429707   0.000000
  101        7.663443   0.000000
  102        7.822353   0.000000
  103        7.967021   0.000000
  104        8.094284   0.000000
  105        8.276510   0.000000
  106        8.622328   0.000000
  107        9.120280   0.000000
  108        9.209279   0.000000
  109        9.559774   0.000000
  110        9.797128   0.000000
  111        9.889266   0.000000
  112       10.023332   0.000000
  113       10.126747   0.000000
  114       10.215072   0.000000
  115       10.384439   0.000000
  116       10.692075   0.000000
  117       10.742910   0.000000
  118       10.961860   0.000000
  119       11.116274   0.000000
  120       11.292091   0.000000
  121       11.387013   0.000000
  122       11.574049   0.000000
  123       11.740152   0.000000
  124       11.937316   0.000000
  125       12.064469   0.000000
  126       12.249219   0.000000
  127       12.332378   0.000000
  128       12.776944   0.000000
 
 -0.4000000E+00  0.3333333E+00  0.4545455E+00  0.6060606E-02
    1      -11.592976   1.000000
    2      -11.043196   1.000000
    3      -10.958463   1.000000
    4      -10.878511   1.000000
    5      -10.797301   1.000000
    6      -10.406154   1.000000
    7       -9.231462   1.000000
    8       -9.038888   1.000000
    9       -8.865810   1.000000
   10       -8.651487   1.000000
   11       -8.605189   1.000000
   12       -8.113312   1.000000
   13       -8.074608   1.000000
   14       -7.013332   1.000000
   15       -6.796216   1.000000
   16       -6.160514   1.000000
   17       -5.970464   1.000000
   18       -5.590400   1.000000
   19       -5.364640   1.000000
   20       -5.302983   1.000000
   21       -5.169614   1.000000
   22       -5.100418   1.000000
   23       -4.802528   1.000000
   24       -4.486869   1.000000
   25       -3.746542   1.000000
   26       -3.412682   1.000000
   27       -3.186721   1.000000
   28       -3.094073   1.000000
   29       -2.956555   1.000000
   30       -2.792064   1.000000
   31       -2.640259   1.000000
   32       -2.477263   1.000000
   33       -2.448763   1.000000
   34       -2.336423   1.000000
   35       -2.201741   1.000000
   36       -2.075879   1.000000
   37       -1.842087   1.000000
   38       -1.788191   1.000000
   39       -1.604469   1.000000
   40       -1.461026   1.000000
   41       -1.230197   1.000000
   42       -1.174918   1.000000
   43       -1.023066   1.000000
   44       -0.825776   1.000000
   45       -0.719368   1.000000
   46       -0.560778   1.000000
   47       -0.433939   1.000000
   48       -0.221733   1.000000
   49       -0.076863   1.000000
   50        0.008512   1.000000
   51        0.066820   1.000000
   52        0.151484   1.000000
   53        0.258309   1.000000
   54        0.388033   1.000000
   55        0.561539   1.000000
   56        0.640260   1.000000
   57        0.856111   1.000000
   58        0.920885   1.000000
   59        1.025201   1.000000
   60        1.111889   1.000000
   61        1.179525   1.000000
   62        1.268327   1.000000
   63        1.379265   1.000000
   64        1.443285   1.000000
   65        1.514003   1.000000
   66        1.677745   1.000000
   67        1.767789   1.000000
   68        1.840724   1.000000
   69        2.023215   1.000000
   70        2.093079   1.000000
   71        2.182860   1.000000
   72        2.292859   1.000000
   73        2.403975   1.000000
   74        2.546599   1.000000
   75        2.572208   1.000000
   76        2.640022   1.000000
   77        2.777237   1.000000
   78        2.869968   1.000000
   79        2.922833   1.000000
   80        2.986033   1.000000
   81        3.063486   1.000000
   82        3.149961   1.000000
   83        3.289622   1.000000
   84        3.355397   1.000000
   85        3.407837   1.000000
   86        3.549637   1.000000
   87        3.624722   1.000000
   88        3.692930   1.000000
   89        3.835555   1.000000
   90        3.915529   1.000000
   91        4.124579   1.000000
   92        4.215210   1.000000
   93        4.276303   1.000000
   94        4.375499   1.000000
   95        4.697277   1.000000
   96        4.866693   1.000000
   97        7.186824   1.000000
   98        7.366207  -0.094662
   99        7.417714   0.000000
  100        7.482805   0.000000
  101        7.661312   0.000000
  102        7.781521   0.000000
  103        7.949408   0.000000
  104        8.063780   0.000000
  105        8.263814   0.000000
  106        8.676947   0.000000
  107        9.164050   0.000000
  108        9.244719   0.000000
  109        9.577462   0.000000
  110        9.756498   0.000000
  111        9.844522   0.000000
  112       10.084695   0.000000
  113       10.184812   0.000000
  114       10.234341   0.000000
  115       10.347331   0.000000
  116       10.644031   0.000000
  117       10.729796   0.000000
  118       10.986434   0.000000
  119       11.025046   0.000000
  120       11.183124   0.000000
  121       11.370804   0.000000
  122       11.553700   0.000000
  123       11.763584   0.000000
  124       12.012881   0.000000
  125       12.122182   0.000000
  126       12.274168   0.000000
  127       12.473604   0.000000
  128       12.750499   0.000000
 
 -0.2000000E+00  0.3333333E+00  0.4545455E+00  0.6060606E-02
    1      -11.588637   1.000000
    2      -11.038415   1.000000
    3      -10.969073   1.000000
    4      -10.880988   1.000000
    5      -10.792967   1.000000
    6      -10.411104   1.000000
    7       -9.243544   1.000000
    8       -9.103065   1.000000
    9       -8.889884   1.000000
   10       -8.576457   1.000000
   11       -8.496999   1.000000
   12       -8.149099   1.000000
   13       -8.045416   1.000000
   14       -7.071420   1.000000
   15       -6.839889   1.000000
   16       -6.150047   1.000000
   17       -6.033031   1.000000
   18       -5.638317   1.000000
   19       -5.408248   1.000000
   20       -5.381507   1.000000
   21       -5.031241   1.000000
   22       -4.984636   1.000000
   23       -4.680172   1.000000
   24       -4.420267   1.000000
   25       -3.827577   1.000000
   26       -3.424316   1.000000
   27       -3.310331   1.000000
   28       -3.154729   1.000000
   29       -2.990797   1.000000
   30       -2.951907   1.000000
   31       -2.722646   1.000000
   32       -2.512050   1.000000
   33       -2.448787   1.000000
   34       -2.229996   1.000000
   35       -2.130356   1.000000
   36       -1.993369   1.000000
   37       -1.803813   1.000000
   38       -1.753428   1.000000
   39       -1.580435   1.000000
   40       -1.392845   1.000000
   41       -1.274136   1.000000
   42       -1.037367   1.000000
   43       -0.902088   1.000000
   44       -0.786119   1.000000
   45       -0.652688   1.000000
   46       -0.550528   1.000000
   47       -0.434713   1.000000
   48       -0.384179   1.000000
   49       -0.299452   1.000000
   50       -0.031055   1.000000
   51        0.094403   1.000000
   52        0.277097   1.000000
   53        0.292439   1.000000
   54        0.464615   1.000000
   55        0.590972   1.000000
   56        0.748782   1.000000
   57        0.840767   1.000000
   58        0.964775   1.000000
   59        1.051973   1.000000
   60        1.073261   1.000000
   61        1.135903   1.000000
   62        1.231785   1.000000
   63        1.374425   1.000000
   64        1.446567   1.000000
   65        1.551526   1.000000
   66        1.610587   1.000000
   67        1.685791   1.000000
   68        1.788355   1.000000
   69        1.956884   1.000000
   70        2.111105   1.000000
   71        2.153104   1.000000
   72        2.289630   1.000000
   73        2.344077   1.000000
   74        2.404661   1.000000
   75        2.485423   1.000000
   76        2.535148   1.000000
   77        2.648242   1.000000
   78        2.793226   1.000000
   79        2.861321   1.000000
   80        2.961308   1.000000
   81        3.032702   1.000000
   82        3.123633   1.000000
   83        3.242026   1.000000
   84        3.412433   1.000000
   85        3.475898   1.000000
   86        3.586087   1.000000
   87        3.652848   1.000000
   88        3.858461   1.000000
   89        3.935686   1.000000
   90        3.980223   1.000000
   91        4.141041   1.000000
   92        4.322541   1.000000
   93        4.381698   1.000000
   94        4.481012   1.000000
   95        4.751924   1.000000
   96        4.882030   1.000000
   97        7.120969   1.000000
   98        7.323654   0.249652
   99        7.404288   0.000000
  100        7.556067   0.000000
  101        7.624396   0.000000
  102        7.802877   0.000000
  103        7.939127   0.000000
  104        8.023296   0.000000
  105        8.220800   0.000000
  106        8.695028   0.000000
  107        9.148768   0.000000
  108        9.219769   0.000000
  109        9.520081   0.000000
  110        9.752598   0.000000
  111        9.873831   0.000000
  112        9.942127   0.000000
  113       10.039249   0.000000
  114       10.244513   0.000000
  115       10.346884   0.000000
  116       10.638893   0.000000
  117       10.740332   0.000000
  118       11.118552   0.000000
  119       11.223415   0.000000
  120       11.425805   0.000000
  121       11.559203   0.000000
  122       11.681924   0.000000
  123       11.889929   0.000000
  124       11.990003   0.000000
  125       12.138266   0.000000
  126       12.282387   0.000000
  127       12.523811   0.000000
  128       12.669538   0.000000
 
  0.0000000E+00  0.5000000E+00  0.4545455E+00  0.6060606E-02
    1      -11.588246   1.000000
    2      -11.041548   1.000000
    3      -10.956743   1.000000
    4      -10.895921   1.000000
    5      -10.790194   1.000000
    6      -10.406787   1.000000
    7       -9.209638   1.000000
    8       -9.155812   1.000000
    9       -8.902463   1.000000
   10       -8.548598   1.000000
   11       -8.483671   1.000000
   12       -8.160232   1.000000
   13       -8.023953   1.000000
   14       -7.107570   1.000000
   15       -6.824597   1.000000
   16       -6.172585   1.000000
   17       -6.049015   1.000000
   18       -5.698908   1.000000
   19       -5.411858   1.000000
   20       -5.384392   1.000000
   21       -4.908559   1.000000
   22       -4.843616   1.000000
   23       -4.647437   1.000000
   24       -4.560546   1.000000
   25       -3.742350   1.000000
   26       -3.483140   1.000000
   27       -3.264236   1.000000
   28       -3.238888   1.000000
   29       -3.121322   1.000000
   30       -2.950650   1.000000
   31       -2.750405   1.000000
   32       -2.600632   1.000000
   33       -2.477283   1.000000
   34       -2.301027   1.000000
   35       -2.142033   1.000000
   36       -1.920573   1.000000
   37       -1.748650   1.000000
   38       -1.544015   1.000000
   39       -1.490964   1.000000
   40       -1.356340   1.000000
   41       -1.214943   1.000000
   42       -1.101435   1.000000
   43       -0.984009   1.000000
   44       -0.875494   1.000000
   45       -0.736116   1.000000
   46       -0.386419   1.000000
   47       -0.368824   1.000000
   48       -0.266464   1.000000
   49       -0.209022   1.000000
   50       -0.141086   1.000000
   51        0.001539   1.000000
   52        0.250694   1.000000
   53        0.375567   1.000000
   54        0.575302   1.000000
   55        0.625827   1.000000
   56        0.679880   1.000000
   57        0.793339   1.000000
   58        0.876715   1.000000
   59        0.960745   1.000000
   60        1.056853   1.000000
   61        1.127707   1.000000
   62        1.271859   1.000000
   63        1.320883   1.000000
   64        1.415524   1.000000
   65        1.480259   1.000000
   66        1.556677   1.000000
   67        1.720848   1.000000
   68        1.836612   1.000000
   69        1.951058   1.000000
   70        2.020146   1.000000
   71        2.228159   1.000000
   72        2.272300   1.000000
   73        2.357353   1.000000
   74        2.400172   1.000000
   75        2.459581   1.000000
   76        2.577118   1.000000
   77        2.634682   1.000000
   78        2.701388   1.000000
   79        2.888894   1.000000
   80        2.942669   1.000000
   81        2.991357   1.000000
   82        3.076648   1.000000
   83        3.231260   1.000000
   84        3.454268   1.000000
   85        3.499002   1.000000
   86        3.612321   1.000000
   87        3.715302   1.000000
   88        3.805220   1.000000
   89        4.054575   1.000000
   90        4.132861   1.000000
   91        4.195214   1.000000
   92        4.341432   1.000000
   93        4.491080   1.000000
   94        4.569381   1.000000
   95        4.626778   1.000000
   96        4.704289   1.000000
   97        7.133214   1.000000
   98        7.270390   0.873450
   99        7.441117   0.000000
  100        7.509944   0.000000
  101        7.607859   0.000000
  102        7.806993   0.000000
  103        7.939131   0.000000
  104        8.018574   0.000000
  105        8.256177   0.000000
  106        8.744757   0.000000
  107        9.082869   0.000000
  108        9.151820   0.000000
  109        9.591233   0.000000
  110        9.729899   0.000000
  111        9.849597   0.000000
  112        9.973161   0.000000
  113       10.088598   0.000000
  114       10.230663   0.000000
  115       10.337686   0.000000
  116       10.485835   0.000000
  117       10.794814   0.000000
  118       11.152520   0.000000
  119       11.340281   0.000000
  120       11.523958   0.000000
  121       11.614317   0.000000
  122       11.676867   0.000000
  123       11.810748   0.000000
  124       12.083889   0.000000
  125       12.186845   0.000000
  126       12.299622   0.000000
  127       12.566111   0.000000
  128       12.638806   0.000000
 
  0.2000000E+00  0.5000000E+00  0.4545455E+00  0.6060606E-02
    1      -11.592877   1.000000
    2      -11.051193   1.000000
    3      -10.933310   1.000000
    4      -10.898090   1.000000
    5      -10.792318   1.000000
    6      -10.408152   1.000000
    7       -9.183097   1.000000
    8       -9.121265   1.000000
    9       -8.940384   1.000000
   10       -8.580904   1.000000
   11       -8.519714   1.000000
   12       -8.133025   1.000000
   13       -8.065610   1.000000
   14       -7.061694   1.000000
   15       -6.803118   1.000000
   16       -6.162421   1.000000
   17       -6.039032   1.000000
   18       -5.653497   1.000000
   19       -5.376278   1.000000
   20       -5.293892   1.000000
   21       -5.015867   1.000000
   22       -4.938791   1.000000
   23       -4.711520   1.000000
   24       -4.647790   1.000000
   25       -3.694581   1.000000
   26       -3.404841   1.000000
   27       -3.305989   1.000000
   28       -3.154764   1.000000
   29       -2.985579   1.000000
   30       -2.852169   1.000000
   31       -2.740298   1.000000
   32       -2.604872   1.000000
   33       -2.483389   1.000000
   34       -2.325453   1.000000
   35       -2.088341   1.000000
   36       -1.911001   1.000000
   37       -1.834076   1.000000
   38       -1.781626   1.000000
   39       -1.602488   1.000000
   40       -1.491997   1.000000
   41       -1.331455   1.000000
   42       -1.067440   1.000000
   43       -0.948866   1.000000
   44       -0.851785   1.000000
   45       -0.519793   1.000000
   46       -0.428000   1.000000
   47       -0.359600   1.000000
   48       -0.282511   1.000000
   49       -0.161277   1.000000
   50       -0.085731   1.000000
   51        0.085085   1.000000
   52        0.194284   1.000000
   53        0.380336   1.000000
   54        0.440629   1.000000
   55        0.568660   1.000000
   56        0.652376   1.000000
   57        0.748548   1.000000
   58        0.888009   1.000000
   59        1.025715   1.000000
   60        1.118786   1.000000
   61        1.164017   1.000000
   62        1.218919   1.000000
   63        1.318053   1.000000
   64        1.469346   1.000000
   65        1.556890   1.000000
   66        1.612758   1.000000
   67        1.677371   1.000000
   68        1.899406   1.000000
   69        2.037054   1.000000
   70        2.051874   1.000000
   71        2.153205   1.000000
   72        2.256751   1.000000
   73        2.340354   1.000000
   74        2.450492   1.000000
   75        2.527174   1.000000
   76        2.569682   1.000000
   77        2.677109   1.000000
   78        2.759522   1.000000
   79        2.910149   1.000000
   80        2.956294   1.000000
   81        3.004176   1.000000
   82        3.109743   1.000000
   83        3.274967   1.000000
   84        3.365338   1.000000
   85        3.513545   1.000000
   86        3.595845   1.000000
   87        3.656782   1.000000
   88        3.729217   1.000000
   89        4.015094   1.000000
   90        4.082720   1.000000
   91        4.211036   1.000000
   92        4.285142   1.000000
   93        4.443321   1.000000
   94        4.512701   1.000000
   95        4.600901   1.000000
   96        4.675829   1.000000
   97        7.198967   1.000000
   98        7.297792   0.480479
   99        7.439243   0.000000
  100        7.475952   0.000000
  101        7.628098   0.000000
  102        7.821291   0.000000
  103        7.962593   0.000000
  104        8.020891   0.000000
  105        8.272085   0.000000
  106        8.686524   0.000000
  107        9.079187   0.000000
  108        9.113027   0.000000
  109        9.612534   0.000000
  110        9.787320   0.000000
  111        9.940293   0.000000
  112       10.031860   0.000000
  113       10.075329   0.000000
  114       10.181068   0.000000
  115       10.372873   0.000000
  116       10.513549   0.000000
  117       10.776528   0.000000
  118       11.034445   0.000000
  119       11.276579   0.000000
  120       11.378995   0.000000
  121       11.556041   0.000000
  122       11.579046   0.000000
  123       11.789477   0.000000
  124       11.989501   0.000000
  125       12.120359   0.000000
  126       12.291484   0.000000
  127       12.536819   0.000000
  128       12.781498   0.000000
 
  0.4000000E+00  0.5000000E+00  0.4545455E+00  0.6060606E-02
    1      -11.595481   1.000000
    2      -11.058844   1.000000
    3      -10.930475   1.000000
    4      -10.880906   1.000000
    5      -10.804719   1.000000
    6      -10.401956   1.000000
    7       -9.125418   1.000000
    8       -9.071221   1.000000
    9       -8.953334   1.000000
   10       -8.681780   1.000000
   11       -8.614901   1.000000
   12       -8.133917   1.000000
   13       -8.027483   1.000000
   14       -6.997792   1.000000
   15       -6.760126   1.000000
   16       -6.194359   1.000000
   17       -5.973643   1.000000
   18       -5.609036   1.000000
   19       -5.303570   1.000000
   20       -5.224235   1.000000
   21       -5.162740   1.000000
   22       -5.051427   1.000000
   23       -4.784055   1.000000
   24       -4.716468   1.000000
   25       -3.680853   1.000000
   26       -3.477483   1.000000
   27       -3.185015   1.000000
   28       -3.122005   1.000000
   29       -3.017881   1.000000
   30       -2.727464   1.000000
   31       -2.637423   1.000000
   32       -2.545051   1.000000
   33       -2.482634   1.000000
   34       -2.348593   1.000000
   35       -2.152399   1.000000
   36       -2.070398   1.000000
   37       -1.934722   1.000000
   38       -1.639402   1.000000
   39       -1.563564   1.000000
   40       -1.340229   1.000000
   41       -1.247654   1.000000
   42       -1.099336   1.000000
   43       -0.949527   1.000000
   44       -0.727407   1.000000
   45       -0.674697   1.000000
   46       -0.478689   1.000000
   47       -0.422165   1.000000
   48       -0.353796   1.000000
   49       -0.256213   1.000000
   50       -0.064647   1.000000
   51        0.077509   1.000000
   52        0.153237   1.000000
   53        0.221134   1.000000
   54        0.356707   1.000000
   55        0.411136   1.000000
   56        0.579903   1.000000
   57        0.739013   1.000000
   58        0.936724   1.000000
   59        1.047704   1.000000
   60        1.093964   1.000000
   61        1.201489   1.000000
   62        1.250282   1.000000
   63        1.365271   1.000000
   64        1.446625   1.000000
   65        1.488615   1.000000
   66        1.647899   1.000000
   67        1.822426   1.000000
   68        1.959786   1.000000
   69        2.056491   1.000000
   70        2.126995   1.000000
   71        2.266689   1.000000
   72        2.317327   1.000000
   73        2.444579   1.000000
   74        2.535211   1.000000
   75        2.566452   1.000000
   76        2.674634   1.000000
   77        2.801223   1.000000
   78        2.844659   1.000000
   79        2.903042   1.000000
   80        3.005120   1.000000
   81        3.083746   1.000000
   82        3.160091   1.000000
   83        3.242874   1.000000
   84        3.280817   1.000000
   85        3.483423   1.000000
   86        3.576052   1.000000
   87        3.602814   1.000000
   88        3.659615   1.000000
   89        3.884865   1.000000
   90        3.976435   1.000000
   91        4.162910   1.000000
   92        4.241763   1.000000
   93        4.349521   1.000000
   94        4.406397   1.000000
   95        4.591704   1.000000
   96        4.663423   1.000000
   97        7.275416   1.000000
   98        7.329964  -0.060840
   99        7.396482   0.000000
  100        7.463988   0.000000
  101        7.666771   0.000000
  102        7.809374   0.000000
  103        7.970966   0.000000
  104        8.041548   0.000000
  105        8.290417   0.000000
  106        8.686280   0.000000
  107        9.105079   0.000000
  108        9.139380   0.000000
  109        9.713286   0.000000
  110        9.819796   0.000000
  111        9.905774   0.000000
  112       10.023224   0.000000
  113       10.129649   0.000000
  114       10.228372   0.000000
  115       10.308692   0.000000
  116       10.573001   0.000000
  117       10.845093   0.000000
  118       10.961618   0.000000
  119       11.091715   0.000000
  120       11.159221   0.000000
  121       11.354193   0.000000
  122       11.484176   0.000000
  123       11.759885   0.000000
  124       11.865082   0.000000
  125       12.117809   0.000000
  126       12.145389   0.000000
  127       12.388934   0.000000
  128       12.742968   0.000000
 
 -0.4000000E+00  0.5000000E+00  0.4545455E+00  0.6060606E-02
    1      -11.592544   1.000000
    2      -11.054516   1.000000
    3      -10.951860   1.000000
    4      -10.865338   1.000000
    5      -10.812402   1.000000
    6      -10.397056   1.000000
    7       -9.137473   1.000000
    8       -9.069560   1.000000
    9       -8.912490   1.000000
   10       -8.691956   1.000000
   11       -8.650519   1.000000
   12       -8.152398   1.000000
   13       -7.975385   1.000000
   14       -7.003103   1.000000
   15       -6.759368   1.000000
   16       -6.186668   1.000000
   17       -6.001223   1.000000
   18       -5.637578   1.000000
   19       -5.299165   1.000000
   20       -5.247052   1.000000
   21       -5.145147   1.000000
   22       -5.042165   1.000000
   23       -4.753597   1.000000
   24       -4.674377   1.000000
   25       -3.707546   1.000000
   26       -3.557992   1.000000
   27       -3.229536   1.000000
   28       -3.119567   1.000000
   29       -3.024787   1.000000
   30       -2.805964   1.000000
   31       -2.720402   1.000000
   32       -2.605302   1.000000
   33       -2.396741   1.000000
   34       -2.224484   1.000000
   35       -2.150215   1.000000
   36       -1.945889   1.000000
   37       -1.814791   1.000000
   38       -1.673001   1.000000
   39       -1.490690   1.000000
   40       -1.330547   1.000000
   41       -1.118874   1.000000
   42       -0.982005   1.000000
   43       -0.895621   1.000000
   44       -0.824432   1.000000
   45       -0.677532   1.000000
   46       -0.631629   1.000000
   47       -0.519367   1.000000
   48       -0.400309   1.000000
   49       -0.183356   1.000000
   50       -0.079503   1.000000
   51       -0.012427   1.000000
   52        0.139435   1.000000
   53        0.257970   1.000000
   54        0.333612   1.000000
   55        0.416391   1.000000
   56        0.488133   1.000000
   57        0.652864   1.000000
   58        0.843980   1.000000
   59        0.997999   1.000000
   60        1.074901   1.000000
   61        1.147726   1.000000
   62        1.230246   1.000000
   63        1.317217   1.000000
   64        1.557592   1.000000
   65        1.594277   1.000000
   66        1.675202   1.000000
   67        1.879126   1.000000
   68        1.973324   1.000000
   69        2.059276   1.000000
   70        2.140422   1.000000
   71        2.252573   1.000000
   72        2.353375   1.000000
   73        2.418717   1.000000
   74        2.545945   1.000000
   75        2.605346   1.000000
   76        2.694290   1.000000
   77        2.808069   1.000000
   78        2.872740   1.000000
   79        2.912048   1.000000
   80        2.990578   1.000000
   81        3.028096   1.000000
   82        3.201807   1.000000
   83        3.257343   1.000000
   84        3.333699   1.000000
   85        3.433361   1.000000
   86        3.516635   1.000000
   87        3.592628   1.000000
   88        3.723225   1.000000
   89        3.880190   1.000000
   90        3.991659   1.000000
   91        4.178984   1.000000
   92        4.271509   1.000000
   93        4.327852   1.000000
   94        4.414254   1.000000
   95        4.567377   1.000000
   96        4.677787   1.000000
   97        7.164502   1.000000
   98        7.314729   0.175866
   99        7.434071   0.000000
  100        7.534197   0.000000
  101        7.662012   0.000000
  102        7.788472   0.000000
  103        7.957813   0.000000
  104        8.051292   0.000000
  105        8.290921   0.000000
  106        8.728245   0.000000
  107        9.125836   0.000000
  108        9.168424   0.000000
  109        9.730683   0.000000
  110        9.823769   0.000000
  111        9.944084   0.000000
  112       10.016912   0.000000
  113       10.098447   0.000000
  114       10.165853   0.000000
  115       10.250284   0.000000
  116       10.545270   0.000000
  117       10.897927   0.000000
  118       10.987411   0.000000
  119       11.135740   0.000000
  120       11.198747   0.000000
  121       11.286161   0.000000
  122       11.489745   0.000000
  123       11.738451   0.000000
  124       11.837370   0.000000
  125       12.094144   0.000000
  126       12.174789   0.000000
  127       12.357525   0.000000
  128       12.699504   0.000000
 
 -0.2000000E+00  0.5000000E+00  0.4545455E+00  0.6060606E-02
    1      -11.588041   1.000000
    2      -11.041410   1.000000
    3      -10.970208   1.000000
    4      -10.878385   1.000000
    5      -10.799912   1.000000
    6      -10.400105   1.000000
    7       -9.191350   1.000000
    8       -9.123190   1.000000
    9       -8.889314   1.000000
   10       -8.623236   1.000000
   11       -8.548909   1.000000
   12       -8.171657   1.000000
   13       -7.965303   1.000000
   14       -7.067596   1.000000
   15       -6.805144   1.000000
   16       -6.160287   1.000000
   17       -6.070194   1.000000
   18       -5.689724   1.000000
   19       -5.364870   1.000000
   20       -5.329123   1.000000
   21       -5.005748   1.000000
   22       -4.909314   1.000000
   23       -4.675895   1.000000
   24       -4.577018   1.000000
   25       -3.730317   1.000000
   26       -3.525727   1.000000
   27       -3.335304   1.000000
   28       -3.166205   1.000000
   29       -3.122729   1.000000
   30       -2.913611   1.000000
   31       -2.782255   1.000000
   32       -2.619092   1.000000
   33       -2.470483   1.000000
   34       -2.234711   1.000000
   35       -1.982980   1.000000
   36       -1.822154   1.000000
   37       -1.707974   1.000000
   38       -1.616250   1.000000
   39       -1.507327   1.000000
   40       -1.304911   1.000000
   41       -1.211727   1.000000
   42       -1.092871   1.000000
   43       -0.910145   1.000000
   44       -0.847359   1.000000
   45       -0.689618   1.000000
   46       -0.507123   1.000000
   47       -0.422237   1.000000
   48       -0.342110   1.000000
   49       -0.284305   1.000000
   50       -0.149503   1.000000
   51       -0.019957   1.000000
   52        0.189967   1.000000
   53        0.350440   1.000000
   54        0.428744   1.000000
   55        0.564974   1.000000
   56        0.597624   1.000000
   57        0.697408   1.000000
   58        0.789587   1.000000
   59        0.969420   1.000000
   60        1.028599   1.000000
   61        1.116202   1.000000
   62        1.257169   1.000000
   63        1.275452   1.000000
   64        1.542310   1.000000
   65        1.591521   1.000000
   66        1.653820   1.000000
   67        1.726800   1.000000
   68        1.893929   1.000000
   69        2.021069   1.000000
   70        2.158358   1.000000
   71        2.220341   1.000000
   72        2.345617   1.000000
   73        2.359497   1.000000
   74        2.465432   1.000000
   75        2.505786   1.000000
   76        2.577936   1.000000
   77        2.680050   1.000000
   78        2.783701   1.000000
   79        2.889560   1.000000
   80        2.975955   1.000000
   81        3.024105   1.000000
   82        3.101437   1.000000
   83        3.253535   1.000000
   84        3.337808   1.000000
   85        3.446504   1.000000
   86        3.618354   1.000000
   87        3.706684   1.000000
   88        3.797853   1.000000
   89        4.047542   1.000000
   90        4.073963   1.000000
   91        4.207998   1.000000
   92        4.312733   1.000000
   93        4.427077   1.000000
   94        4.541104   1.000000
   95        4.550946   1.000000
   96        4.692483   1.000000
   97        7.102528   1.000000
   98        7.276243   0.888692
   99        7.442054   0.000000
  100        7.528719   0.000000
  101        7.629359   0.000000
  102        7.789477   0.000000
  103        7.965372   0.000000
  104        8.039014   0.000000
  105        8.272687   0.000000
  106        8.758963   0.000000
  107        9.093534   0.000000
  108        9.186110   0.000000
  109        9.637198   0.000000
  110        9.756805   0.000000
  111        9.894952   0.000000
  112        9.986000   0.000000
  113       10.101826   0.000000
  114       10.200484   0.000000
  115       10.324131   0.000000
  116       10.481657   0.000000
  117       10.792823   0.000000
  118       11.059630   0.000000
  119       11.254200   0.000000
  120       11.405369   0.000000
  121       11.481464   0.000000
  122       11.710917   0.000000
  123       11.799901   0.000000
  124       11.903510   0.000000
  125       12.068759   0.000000
  126       12.328401   0.000000
  127       12.422877   0.000000
  128       12.602656   0.000000
 
  0.0000000E+00 -0.3333333E+00  0.4545455E+00  0.6060606E-02
    1      -11.582807   1.000000
    2      -11.027181   1.000000
    3      -10.987068   1.000000
    4      -10.899972   1.000000
    5      -10.775706   1.000000
    6      -10.415972   1.000000
    7       -9.217279   1.000000
    8       -9.092880   1.000000
    9       -8.899347   1.000000
   10       -8.616351   1.000000
   11       -8.519249   1.000000
   12       -8.224730   1.000000
   13       -7.872921   1.000000
   14       -7.105161   1.000000
   15       -6.864936   1.000000
   16       -6.170025   1.000000
   17       -6.016963   1.000000
   18       -5.640219   1.000000
   19       -5.392368   1.000000
   20       -5.379628   1.000000
   21       -4.978800   1.000000
   22       -4.963744   1.000000
   23       -4.524621   1.000000
   24       -4.391990   1.000000
   25       -3.961154   1.000000
   26       -3.667697   1.000000
   27       -3.484858   1.000000
   28       -3.438537   1.000000
   29       -3.174647   1.000000
   30       -2.907128   1.000000
   31       -2.773028   1.000000
   32       -2.463820   1.000000
   33       -2.191698   1.000000
   34       -2.152096   1.000000
   35       -1.977006   1.000000
   36       -1.807937   1.000000
   37       -1.667838   1.000000
   38       -1.502687   1.000000
   39       -1.445844   1.000000
   40       -1.286998   1.000000
   41       -1.217214   1.000000
   42       -1.092045   1.000000
   43       -0.920577   1.000000
   44       -0.853135   1.000000
   45       -0.742387   1.000000
   46       -0.398913   1.000000
   47       -0.379934   1.000000
   48       -0.319619   1.000000
   49       -0.203345   1.000000
   50       -0.122708   1.000000
   51        0.000652   1.000000
   52        0.224683   1.000000
   53        0.276239   1.000000
   54        0.416635   1.000000
   55        0.485136   1.000000
   56        0.631205   1.000000
   57        0.699848   1.000000
   58        0.804980   1.000000
   59        0.963742   1.000000
   60        1.045339   1.000000
   61        1.124254   1.000000
   62        1.199236   1.000000
   63        1.283477   1.000000
   64        1.355577   1.000000
   65        1.531671   1.000000
   66        1.633274   1.000000
   67        1.697152   1.000000
   68        1.846440   1.000000
   69        1.922452   1.000000
   70        2.053463   1.000000
   71        2.090182   1.000000
   72        2.181855   1.000000
   73        2.303511   1.000000
   74        2.433345   1.000000
   75        2.495436   1.000000
   76        2.602187   1.000000
   77        2.704454   1.000000
   78        2.826977   1.000000
   79        2.935160   1.000000
   80        2.953836   1.000000
   81        3.010937   1.000000
   82        3.102337   1.000000
   83        3.209366   1.000000
   84        3.324110   1.000000
   85        3.507850   1.000000
   86        3.570383   1.000000
   87        3.757295   1.000000
   88        3.895159   1.000000
   89        4.024852   1.000000
   90        4.135187   1.000000
   91        4.237770   1.000000
   92        4.303472   1.000000
   93        4.454812   1.000000
   94        4.551293   1.000000
   95        4.812471   1.000000
   96        4.915569   1.000000
   97        7.004770   1.000000
   98        7.346323   0.025825
   99        7.447533   0.000000
  100        7.530352   0.000000
  101        7.626174   0.000000
  102        7.786134   0.000000
  103        7.996859   0.000000
  104        8.043253   0.000000
  105        8.255069   0.000000
  106        8.579825   0.000000
  107        9.123799   0.000000
  108        9.253806   0.000000
  109        9.491985   0.000000
  110        9.595889   0.000000
  111        9.701776   0.000000
  112        9.997092   0.000000
  113       10.102838   0.000000
  114       10.290567   0.000000
  115       10.415511   0.000000
  116       10.668148   0.000000
  117       10.883281   0.000000
  118       11.165404   0.000000
  119       11.284105   0.000000
  120       11.468376   0.000000
  121       11.582832   0.000000
  122       11.696758   0.000000
  123       11.904595   0.000000
  124       12.056280   0.000000
  125       12.163998   0.000000
  126       12.189674   0.000000
  127       12.553806   0.000000
  128       12.668959   0.000000
 
  0.2000000E+00 -0.3333333E+00  0.4545455E+00  0.6060606E-02
    1      -11.586194   1.000000
    2      -11.038398   1.000000
    3      -10.964885   1.000000
    4      -10.903324   1.000000
    5      -10.777324   1.000000
    6      -10.415621   1.000000
    7       -9.244215   1.000000
    8       -9.081815   1.000000
    9       -8.894573   1.000000
   10       -8.543351   1.000000
   11       -8.488108   1.000000
   12       -8.275389   1.000000
   13       -7.977600   1.000000
   14       -7.079049   1.000000
   15       -6.856639   1.000000
   16       -6.141264   1.000000
   17       -5.958951   1.000000
   18       -5.587108   1.000000
   19       -5.426739   1.000000
   20       -5.390108   1.000000
   21       -5.098142   1.000000
   22       -5.056457   1.000000
   23       -4.602027   1.000000
   24       -4.445376   1.000000
   25       -3.844873   1.000000
   26       -3.517049   1.000000
   27       -3.242136   1.000000
   28       -3.171724   1.000000
   29       -3.011529   1.000000
   30       -2.830905   1.000000
   31       -2.720215   1.000000
   32       -2.436188   1.000000
   33       -2.361862   1.000000
   34       -2.184395   1.000000
   35       -2.109069   1.000000
   36       -2.068263   1.000000
   37       -1.909547   1.000000
   38       -1.848106   1.000000
   39       -1.745642   1.000000
   40       -1.496648   1.000000
   41       -1.286755   1.000000
   42       -1.064434   1.000000
   43       -0.902364   1.000000
   44       -0.784509   1.000000
   45       -0.527814   1.000000
   46       -0.381845   1.000000
   47       -0.333696   1.000000
   48       -0.281202   1.000000
   49       -0.199161   1.000000
   50       -0.093224   1.000000
   51        0.040512   1.000000
   52        0.224180   1.000000
   53        0.334999   1.000000
   54        0.504796   1.000000
   55        0.646249   1.000000
   56        0.688825   1.000000
   57        0.872204   1.000000
   58        0.950275   1.000000
   59        1.035236   1.000000
   60        1.098097   1.000000
   61        1.136232   1.000000
   62        1.234253   1.000000
   63        1.395291   1.000000
   64        1.424315   1.000000
   65        1.538805   1.000000
   66        1.601086   1.000000
   67        1.673323   1.000000
   68        1.769461   1.000000
   69        1.844310   1.000000
   70        1.955237   1.000000
   71        2.111492   1.000000
   72        2.226839   1.000000
   73        2.315838   1.000000
   74        2.368170   1.000000
   75        2.458762   1.000000
   76        2.567091   1.000000
   77        2.721611   1.000000
   78        2.853843   1.000000
   79        2.931624   1.000000
   80        2.968612   1.000000
   81        3.028442   1.000000
   82        3.123891   1.000000
   83        3.279986   1.000000
   84        3.410460   1.000000
   85        3.477766   1.000000
   86        3.486948   1.000000
   87        3.711915   1.000000
   88        3.862166   1.000000
   89        3.958325   1.000000
   90        4.065845   1.000000
   91        4.160829   1.000000
   92        4.198638   1.000000
   93        4.390715   1.000000
   94        4.471806   1.000000
   95        4.781543   1.000000
   96        4.892732   1.000000
   97        7.093771   1.000000
   98        7.394728  -0.125081
   99        7.448501   0.000000
  100        7.489404   0.000000
  101        7.657060   0.000000
  102        7.802096   0.000000
  103        7.962754   0.000000
  104        8.016561   0.000000
  105        8.270743   0.000000
  106        8.558157   0.000000
  107        9.161034   0.000000
  108        9.218659   0.000000
  109        9.511359   0.000000
  110        9.813184   0.000000
  111        9.887685   0.000000
  112        9.945597   0.000000
  113        9.998739   0.000000
  114       10.239430   0.000000
  115       10.320507   0.000000
  116       10.730404   0.000000
  117       10.817790   0.000000
  118       11.145666   0.000000
  119       11.243310   0.000000
  120       11.312756   0.000000
  121       11.521129   0.000000
  122       11.653682   0.000000
  123       11.846679   0.000000
  124       12.032906   0.000000
  125       12.133810   0.000000
  126       12.294076   0.000000
  127       12.677111   0.000000
  128       12.747449   0.000000
 
  0.4000000E+00 -0.3333333E+00  0.4545455E+00  0.6060606E-02
    1      -11.588529   1.000000
    2      -11.051126   1.000000
    3      -10.944497   1.000000
    4      -10.903972   1.000000
    5      -10.787459   1.000000
    6      -10.404412   1.000000
    7       -9.218865   1.000000
    8       -9.017853   1.000000
    9       -8.932787   1.000000
   10       -8.616415   1.000000
   11       -8.558667   1.000000
   12       -8.235809   1.000000
   13       -7.988671   1.000000
   14       -7.018525   1.000000
   15       -6.818854   1.000000
   16       -6.175274   1.000000
   17       -5.889397   1.000000
   18       -5.548511   1.000000
   19       -5.377205   1.000000
   20       -5.337123   1.000000
   21       -5.205495   1.000000
   22       -5.175244   1.000000
   23       -4.704445   1.000000
   24       -4.504591   1.000000
   25       -3.776552   1.000000
   26       -3.413025   1.000000
   27       -3.271480   1.000000
   28       -3.021233   1.000000
   29       -2.925643   1.000000
   30       -2.823789   1.000000
   31       -2.630459   1.000000
   32       -2.575148   1.000000
   33       -2.427866   1.000000
   34       -2.277578   1.000000
   35       -2.199535   1.000000
   36       -2.051753   1.000000
   37       -1.969880   1.000000
   38       -1.754647   1.000000
   39       -1.567147   1.000000
   40       -1.436067   1.000000
   41       -1.268812   1.000000
   42       -1.170886   1.000000
   43       -0.965327   1.000000
   44       -0.763966   1.000000
   45       -0.649137   1.000000
   46       -0.489584   1.000000
   47       -0.323527   1.000000
   48       -0.271715   1.000000
   49       -0.124110   1.000000
   50       -0.004045   1.000000
   51        0.099096   1.000000
   52        0.178017   1.000000
   53        0.276577   1.000000
   54        0.356589   1.000000
   55        0.549787   1.000000
   56        0.648868   1.000000
   57        0.815757   1.000000
   58        0.892232   1.000000
   59        0.994837   1.000000
   60        1.044158   1.000000
   61        1.122132   1.000000
   62        1.209875   1.000000
   63        1.308151   1.000000
   64        1.399537   1.000000
   65        1.497876   1.000000
   66        1.682545   1.000000
   67        1.795809   1.000000
   68        1.889530   1.000000
   69        1.968651   1.000000
   70        2.115390   1.000000
   71        2.203516   1.000000
   72        2.272963   1.000000
   73        2.426064   1.000000
   74        2.461511   1.000000
   75        2.566233   1.000000
   76        2.645526   1.000000
   77        2.826333   1.000000
   78        2.897992   1.000000
   79        2.929621   1.000000
   80        3.020437   1.000000
   81        3.077135   1.000000
   82        3.148029   1.000000
   83        3.300807   1.000000
   84        3.319740   1.000000
   85        3.396111   1.000000
   86        3.562894   1.000000
   87        3.614781   1.000000
   88        3.780581   1.000000
   89        3.890702   1.000000
   90        3.933799   1.000000
   91        4.090275   1.000000
   92        4.153239   1.000000
   93        4.291716   1.000000
   94        4.389975   1.000000
   95        4.729685   1.000000
   96        4.860426   1.000000
   97        7.174044   1.000000
   98        7.289580   0.501441
   99        7.450721   0.000000
  100        7.521868   0.000000
  101        7.689452   0.000000
  102        7.806705   0.000000
  103        7.960380   0.000000
  104        8.016358   0.000000
  105        8.309287   0.000000
  106        8.612947   0.000000
  107        9.192424   0.000000
  108        9.257613   0.000000
  109        9.596755   0.000000
  110        9.714682   0.000000
  111        9.879927   0.000000
  112       10.077617   0.000000
  113       10.126988   0.000000
  114       10.283462   0.000000
  115       10.375155   0.000000
  116       10.659289   0.000000
  117       10.784052   0.000000
  118       10.918127   0.000000
  119       11.034435   0.000000
  120       11.151816   0.000000
  121       11.450892   0.000000
  122       11.530678   0.000000
  123       11.766905   0.000000
  124       11.976970   0.000000
  125       12.133447   0.000000
  126       12.200336   0.000000
  127       12.478000   0.000000
  128       12.824825   0.000000
 
 -0.4000000E+00 -0.3333333E+00  0.4545455E+00  0.6060606E-02
    1      -11.586644   1.000000
    2      -11.050596   1.000000
    3      -10.961910   1.000000
    4      -10.887438   1.000000
    5      -10.794610   1.000000
    6      -10.398370   1.000000
    7       -9.152413   1.000000
    8       -9.029743   1.000000
    9       -8.918182   1.000000
   10       -8.736502   1.000000
   11       -8.627519   1.000000
   12       -8.184249   1.000000
   13       -7.902739   1.000000
   14       -7.006644   1.000000
   15       -6.799749   1.000000
   16       -6.201720   1.000000
   17       -5.934052   1.000000
   18       -5.584285   1.000000
   19       -5.355552   1.000000
   20       -5.295763   1.000000
   21       -5.151684   1.000000
   22       -5.126978   1.000000
   23       -4.684018   1.000000
   24       -4.483031   1.000000
   25       -3.870092   1.000000
   26       -3.666098   1.000000
   27       -3.371992   1.000000
   28       -3.223094   1.000000
   29       -3.064256   1.000000
   30       -2.876475   1.000000
   31       -2.700870   1.000000
   32       -2.489227   1.000000
   33       -2.341751   1.000000
   34       -2.163926   1.000000
   35       -2.041255   1.000000
   36       -1.912454   1.000000
   37       -1.769159   1.000000
   38       -1.543452   1.000000
   39       -1.414407   1.000000
   40       -1.211394   1.000000
   41       -1.035458   1.000000
   42       -1.001206   1.000000
   43       -0.909269   1.000000
   44       -0.788476   1.000000
   45       -0.656036   1.000000
   46       -0.556863   1.000000
   47       -0.456293   1.000000
   48       -0.357195   1.000000
   49       -0.243129   1.000000
   50       -0.143801   1.000000
   51       -0.011192   1.000000
   52        0.089247   1.000000
   53        0.212838   1.000000
   54        0.328091   1.000000
   55        0.369789   1.000000
   56        0.463355   1.000000
   57        0.594007   1.000000
   58        0.688322   1.000000
   59        0.861250   1.000000
   60        0.897651   1.000000
   61        1.109147   1.000000
   62        1.252725   1.000000
   63        1.316765   1.000000
   64        1.417537   1.000000
   65        1.601737   1.000000
   66        1.842017   1.000000
   67        1.854763   1.000000
   68        1.951639   1.000000
   69        2.014848   1.000000
   70        2.168531   1.000000
   71        2.210064   1.000000
   72        2.386454   1.000000
   73        2.448413   1.000000
   74        2.534255   1.000000
   75        2.674841   1.000000
   76        2.736971   1.000000
   77        2.810157   1.000000
   78        2.870540   1.000000
   79        2.935115   1.000000
   80        2.973116   1.000000
   81        3.042342   1.000000
   82        3.171662   1.000000
   83        3.213360   1.000000
   84        3.347925   1.000000
   85        3.396017   1.000000
   86        3.556129   1.000000
   87        3.641186   1.000000
   88        3.779379   1.000000
   89        3.877862   1.000000
   90        3.969169   1.000000
   91        4.105176   1.000000
   92        4.198483   1.000000
   93        4.335125   1.000000
   94        4.446817   1.000000
   95        4.739752   1.000000
   96        4.857476   1.000000
   97        7.018758   1.000000
   98        7.370553  -0.122930
   99        7.463626   0.000000
  100        7.526101   0.000000
  101        7.668232   0.000000
  102        7.804110   0.000000
  103        7.967712   0.000000
  104        8.033463   0.000000
  105        8.317314   0.000000
  106        8.642860   0.000000
  107        9.169728   0.000000
  108        9.267710   0.000000
  109        9.634671   0.000000
  110        9.735524   0.000000
  111        9.854476   0.000000
  112        9.973634   0.000000
  113       10.031028   0.000000
  114       10.304073   0.000000
  115       10.380913   0.000000
  116       10.707825   0.000000
  117       10.791889   0.000000
  118       10.966765   0.000000
  119       11.160128   0.000000
  120       11.255397   0.000000
  121       11.377078   0.000000
  122       11.556716   0.000000
  123       11.723759   0.000000
  124       11.874956   0.000000
  125       11.979200   0.000000
  126       12.137700   0.000000
  127       12.421988   0.000000
  128       12.665868   0.000000
 
 -0.2000000E+00 -0.3333333E+00  0.4545455E+00  0.6060606E-02
    1      -11.583090   1.000000
    2      -11.037794   1.000000
    3      -10.980876   1.000000
    4      -10.893492   1.000000
    5      -10.784096   1.000000
    6      -10.405586   1.000000
    7       -9.148925   1.000000
    8       -9.071076   1.000000
    9       -8.931156   1.000000
   10       -8.683983   1.000000
   11       -8.626900   1.000000
   12       -8.174724   1.000000
   13       -7.835491   1.000000
   14       -7.056379   1.000000
   15       -6.836391   1.000000
   16       -6.193398   1.000000
   17       -6.026845   1.000000
   18       -5.638167   1.000000
   19       -5.349113   1.000000
   20       -5.271949   1.000000
   21       -5.059078   1.000000
   22       -5.003622   1.000000
   23       -4.579131   1.000000
   24       -4.413528   1.000000
   25       -3.967266   1.000000
   26       -3.728848   1.000000
   27       -3.565699   1.000000
   28       -3.482253   1.000000
   29       -3.176989   1.000000
   30       -2.884983   1.000000
   31       -2.830343   1.000000
   32       -2.469696   1.000000
   33       -2.189286   1.000000
   34       -2.037300   1.000000
   35       -1.896884   1.000000
   36       -1.684128   1.000000
   37       -1.612031   1.000000
   38       -1.493214   1.000000
   39       -1.294780   1.000000
   40       -1.210033   1.000000
   41       -1.057202   1.000000
   42       -0.955987   1.000000
   43       -0.840894   1.000000
   44       -0.763713   1.000000
   45       -0.713344   1.000000
   46       -0.558677   1.000000
   47       -0.452700   1.000000
   48       -0.342744   1.000000
   49       -0.266596   1.000000
   50       -0.230550   1.000000
   51       -0.035110   1.000000
   52        0.074646   1.000000
   53        0.169336   1.000000
   54        0.227618   1.000000
   55        0.297485   1.000000
   56        0.437072   1.000000
   57        0.598202   1.000000
   58        0.717157   1.000000
   59        0.813603   1.000000
   60        0.892089   1.000000
   61        1.115371   1.000000
   62        1.258790   1.000000
   63        1.368852   1.000000
   64        1.417081   1.000000
   65        1.634040   1.000000
   66        1.667512   1.000000
   67        1.796102   1.000000
   68        1.966316   1.000000
   69        2.010732   1.000000
   70        2.092415   1.000000
   71        2.156513   1.000000
   72        2.304693   1.000000
   73        2.386987   1.000000
   74        2.512585   1.000000
   75        2.583580   1.000000
   76        2.653694   1.000000
   77        2.777183   1.000000
   78        2.845970   1.000000
   79        2.938025   1.000000
   80        2.962150   1.000000
   81        3.003224   1.000000
   82        3.096946   1.000000
   83        3.193522   1.000000
   84        3.348924   1.000000
   85        3.462541   1.000000
   86        3.555514   1.000000
   87        3.694550   1.000000
   88        3.863488   1.000000
   89        4.043319   1.000000
   90        4.116199   1.000000
   91        4.181064   1.000000
   92        4.298431   1.000000
   93        4.468067   1.000000
   94        4.493926   1.000000
   95        4.781153   1.000000
   96        4.883434   1.000000
   97        6.950122   1.000000
   98        7.388682  -0.130900
   99        7.433492   0.000000
  100        7.521666   0.000000
  101        7.625831   0.000000
  102        7.797050   0.000000
  103        7.988723   0.000000
  104        8.066072   0.000000
  105        8.286783   0.000000
  106        8.623704   0.000000
  107        9.122055   0.000000
  108        9.254403   0.000000
  109        9.519884   0.000000
  110        9.626899   0.000000
  111        9.758023   0.000000
  112        9.997911   0.000000
  113       10.079912   0.000000
  114       10.352706   0.000000
  115       10.454081   0.000000
  116       10.677080   0.000000
  117       10.869907   0.000000
  118       10.975381   0.000000
  119       11.210538   0.000000
  120       11.343219   0.000000
  121       11.601003   0.000000
  122       11.710928   0.000000
  123       11.840949   0.000000
  124       11.888483   0.000000
  125       11.977498   0.000000
  126       12.146912   0.000000
  127       12.489681   0.000000
  128       12.575930   0.000000
 
  0.0000000E+00 -0.1666667E+00  0.4545455E+00  0.6060606E-02
    1      -11.578968   1.000000
    2      -11.029722   1.000000
    3      -10.994049   1.000000
    4      -10.897409   1.000000
    5      -10.763771   1.000000
    6      -10.434560   1.000000
    7       -9.204600   1.000000
    8       -8.997493   1.000000
    9       -8.925809   1.000000
   10       -8.703717   1.000000
   11       -8.629592   1.000000
   12       -8.158785   1.000000
   13       -7.769842   1.000000
   14       -7.075783   1.000000
   15       -6.931370   1.000000
   16       -6.180765   1.000000
   17       -5.989498   1.000000
   18       -5.547797   1.000000
   19       -5.390125   1.000000
   20       -5.319595   1.000000
   21       -5.034218   1.000000
   22       -5.001985   1.000000
   23       -4.411455   1.000000
   24       -4.228269   1.000000
   25       -4.123840   1.000000
   26       -3.867848   1.000000
   27       -3.767400   1.000000
   28       -3.715505   1.000000
   29       -3.321217   1.000000
   30       -3.076800   1.000000
   31       -2.694838   1.000000
   32       -2.252294   1.000000
   33       -2.058234   1.000000
   34       -1.840005   1.000000
   35       -1.742195   1.000000
   36       -1.629834   1.000000
   37       -1.504178   1.000000
   38       -1.445681   1.000000
   39       -1.332524   1.000000
   40       -1.272975   1.000000
   41       -1.120398   1.000000
   42       -0.940695   1.000000
   43       -0.838019   1.000000
   44       -0.754312   1.000000
   45       -0.657083   1.000000
   46       -0.516596   1.000000
   47       -0.427456   1.000000
   48       -0.384551   1.000000
   49       -0.273930   1.000000
   50       -0.197655   1.000000
   51       -0.120136   1.000000
   52        0.066959   1.000000
   53        0.212593   1.000000
   54        0.314817   1.000000
   55        0.412316   1.000000
   56        0.457437   1.000000
   57        0.538073   1.000000
   58        0.730116   1.000000
   59        0.890239   1.000000
   60        0.999860   1.000000
   61        1.101680   1.000000
   62        1.184188   1.000000
   63        1.230449   1.000000
   64        1.370742   1.000000
   65        1.474189   1.000000
   66        1.672565   1.000000
   67        1.705649   1.000000
   68        1.804672   1.000000
   69        1.945486   1.000000
   70        2.001037   1.000000
   71        2.075947   1.000000
   72        2.167620   1.000000
   73        2.313656   1.000000
   74        2.531628   1.000000
   75        2.589819   1.000000
   76        2.646265   1.000000
   77        2.735506   1.000000
   78        2.847910   1.000000
   79        2.908674   1.000000
   80        2.967940   1.000000
   81        2.999511   1.000000
   82        3.025158   1.000000
   83        3.139215   1.000000
   84        3.236353   1.000000
   85        3.431162   1.000000
   86        3.542930   1.000000
   87        3.786770   1.000000
   88        3.931011   1.000000
   89        4.058675   1.000000
   90        4.200950   1.000000
   91        4.288573   1.000000
   92        4.372614   1.000000
   93        4.488604   1.000000
   94        4.634093   1.000000
   95        5.010087   1.000000
   96        5.120410   1.000000
   97        6.952579   1.000000
   98        7.212487   1.023408
   99        7.427040   0.000000
  100        7.573237   0.000000
  101        7.723600   0.000000
  102        7.826519   0.000000
  103        8.029070   0.000000
  104        8.109675   0.000000
  105        8.215099   0.000000
  106        8.415800   0.000000
  107        9.126080   0.000000
  108        9.207691   0.000000
  109        9.405669   0.000000
  110        9.480927   0.000000
  111        9.627031   0.000000
  112        9.893065   0.000000
  113       10.173016   0.000000
  114       10.335237   0.000000
  115       10.707982   0.000000
  116       10.789873   0.000000
  117       10.935794   0.000000
  118       11.112886   0.000000
  119       11.298160   0.000000
  120       11.390486   0.000000
  121       11.582824   0.000000
  122       11.703610   0.000000
  123       11.944045   0.000000
  124       12.112757   0.000000
  125       12.162244   0.000000
  126       12.352352   0.000000
  127       12.438077   0.000000
  128       12.621633   0.000000
 
  0.2000000E+00 -0.1666667E+00  0.4545455E+00  0.6060606E-02
    1      -11.581570   1.000000
    2      -11.031417   1.000000
    3      -10.982945   1.000000
    4      -10.902071   1.000000
    5      -10.767077   1.000000
    6      -10.429755   1.000000
    7       -9.268210   1.000000
    8       -9.012621   1.000000
    9       -8.882759   1.000000
   10       -8.609191   1.000000
   11       -8.546448   1.000000
   12       -8.256214   1.000000
   13       -7.880249   1.000000
   14       -7.061244   1.000000
   15       -6.922023   1.000000
   16       -6.132501   1.000000
   17       -5.911334   1.000000
   18       -5.506429   1.000000
   19       -5.450147   1.000000
   20       -5.421603   1.000000
   21       -5.143656   1.000000
   22       -5.117455   1.000000
   23       -4.505372   1.000000
   24       -4.209126   1.000000
   25       -4.048097   1.000000
   26       -3.711314   1.000000
   27       -3.461135   1.000000
   28       -3.381282   1.000000
   29       -3.038470   1.000000
   30       -2.914657   1.000000
   31       -2.654924   1.000000
   32       -2.510583   1.000000
   33       -2.303919   1.000000
   34       -2.066130   1.000000
   35       -1.971485   1.000000
   36       -1.876354   1.000000
   37       -1.834985   1.000000
   38       -1.661374   1.000000
   39       -1.563940   1.000000
   40       -1.339130   1.000000
   41       -1.232464   1.000000
   42       -1.024107   1.000000
   43       -0.931347   1.000000
   44       -0.656535   1.000000
   45       -0.543686   1.000000
   46       -0.452876   1.000000
   47       -0.347342   1.000000
   48       -0.307414   1.000000
   49       -0.224537   1.000000
   50       -0.152142   1.000000
   51        0.150483   1.000000
   52        0.252072   1.000000
   53        0.279639   1.000000
   54        0.394640   1.000000
   55        0.481820   1.000000
   56        0.600856   1.000000
   57        0.731238   1.000000
   58        0.849352   1.000000
   59        1.005643   1.000000
   60        1.086536   1.000000
   61        1.123160   1.000000
   62        1.179910   1.000000
   63        1.303330   1.000000
   64        1.371907   1.000000
   65        1.461918   1.000000
   66        1.632176   1.000000
   67        1.697925   1.000000
   68        1.770082   1.000000
   69        1.911244   1.000000
   70        1.958781   1.000000
   71        2.113245   1.000000
   72        2.221530   1.000000
   73        2.320139   1.000000
   74        2.402036   1.000000
   75        2.496194   1.000000
   76        2.584597   1.000000
   77        2.751574   1.000000
   78        2.889527   1.000000
   79        2.919233   1.000000
   80        2.954609   1.000000
   81        2.998942   1.000000
   82        3.096534   1.000000
   83        3.176879   1.000000
   84        3.224261   1.000000
   85        3.494681   1.000000
   86        3.580275   1.000000
   87        3.750919   1.000000
   88        3.843985   1.000000
   89        3.935685   1.000000
   90        4.016798   1.000000
   91        4.208936   1.000000
   92        4.315508   1.000000
   93        4.387329   1.000000
   94        4.549367   1.000000
   95        4.966977   1.000000
   96        5.098351   1.000000
   97        7.039820   1.000000
   98        7.296471   0.608056
   99        7.434814   0.000000
  100        7.502652   0.000000
  101        7.725970   0.000000
  102        7.794648   0.000000
  103        8.017243   0.000000
  104        8.044549   0.000000
  105        8.262699   0.000000
  106        8.416951   0.000000
  107        9.187289   0.000000
  108        9.303404   0.000000
  109        9.399229   0.000000
  110        9.660718   0.000000
  111        9.817635   0.000000
  112        9.854255   0.000000
  113       10.031863   0.000000
  114       10.239558   0.000000
  115       10.566735   0.000000
  116       10.801275   0.000000
  117       10.921582   0.000000
  118       11.083167   0.000000
  119       11.279318   0.000000
  120       11.420504   0.000000
  121       11.544006   0.000000
  122       11.761864   0.000000
  123       11.861542   0.000000
  124       12.053237   0.000000
  125       12.188264   0.000000
  126       12.343529   0.000000
  127       12.623768   0.000000
  128       12.698557   0.000000
 
  0.4000000E+00 -0.1666667E+00  0.4545455E+00  0.6060606E-02
    1      -11.582805   1.000000
    2      -11.034188   1.000000
    3      -10.972698   1.000000
    4      -10.909224   1.000000
    5      -10.776552   1.000000
    6      -10.412768   1.000000
    7       -9.282588   1.000000
    8       -9.001803   1.000000
    9       -8.889607   1.000000
   10       -8.548886   1.000000
   11       -8.506486   1.000000
   12       -8.340796   1.000000
   13       -7.952535   1.000000
   14       -7.024381   1.000000
   15       -6.887961   1.000000
   16       -6.127160   1.000000
   17       -5.821030   1.000000
   18       -5.518768   1.000000
   19       -5.483097   1.000000
   20       -5.390164   1.000000
   21       -5.250453   1.000000
   22       -5.238206   1.000000
   23       -4.620919   1.000000
   24       -4.249989   1.000000
   25       -3.949807   1.000000
   26       -3.482903   1.000000
   27       -3.186027   1.000000
   28       -3.068613   1.000000
   29       -2.917958   1.000000
   30       -2.820589   1.000000
   31       -2.683840   1.000000
   32       -2.613858   1.000000
   33       -2.454147   1.000000
   34       -2.378073   1.000000
   35       -2.167748   1.000000
   36       -2.047485   1.000000
   37       -1.921888   1.000000
   38       -1.688406   1.000000
   39       -1.555783   1.000000
   40       -1.469422   1.000000
   41       -1.334996   1.000000
   42       -1.053125   1.000000
   43       -0.828601   1.000000
   44       -0.756463   1.000000
   45       -0.561328   1.000000
   46       -0.469149   1.000000
   47       -0.352096   1.000000
   48       -0.316773   1.000000
   49       -0.220859   1.000000
   50        0.057092   1.000000
   51        0.220154   1.000000
   52        0.259519   1.000000
   53        0.311039   1.000000
   54        0.425050   1.000000
   55        0.540567   1.000000
   56        0.675217   1.000000
   57        0.777595   1.000000
   58        0.865534   1.000000
   59        0.963514   1.000000
   60        1.029760   1.000000
   61        1.098397   1.000000
   62        1.163261   1.000000
   63        1.270934   1.000000
   64        1.360443   1.000000
   65        1.450755   1.000000
   66        1.656885   1.000000
   67        1.798550   1.000000
   68        1.897335   1.000000
   69        1.957881   1.000000
   70        2.035394   1.000000
   71        2.132071   1.000000
   72        2.233222   1.000000
   73        2.339712   1.000000
   74        2.486921   1.000000
   75        2.540917   1.000000
   76        2.659216   1.000000
   77        2.864528   1.000000
   78        2.895768   1.000000
   79        2.927352   1.000000
   80        2.977123   1.000000
   81        3.014318   1.000000
   82        3.152002   1.000000
   83        3.222173   1.000000
   84        3.346359   1.000000
   85        3.451469   1.000000
   86        3.538952   1.000000
   87        3.648853   1.000000
   88        3.784461   1.000000
   89        3.829369   1.000000
   90        3.932599   1.000000
   91        3.999526   1.000000
   92        4.203531   1.000000
   93        4.267547   1.000000
   94        4.458557   1.000000
   95        4.897522   1.000000
   96        5.069454   1.000000
   97        7.122854   1.000000
   98        7.268072   0.865519
   99        7.420098   0.000000
  100        7.518961   0.000000
  101        7.706232   0.000000
  102        7.801122   0.000000
  103        7.980664   0.000000
  104        8.006349   0.000000
  105        8.329008   0.000000
  106        8.523315   0.000000
  107        9.268799   0.000000
  108        9.369685   0.000000
  109        9.531590   0.000000
  110        9.659188   0.000000
  111        9.768759   0.000000
  112        9.991825   0.000000
  113       10.206797   0.000000
  114       10.286726   0.000000
  115       10.468768   0.000000
  116       10.611799   0.000000
  117       10.715142   0.000000
  118       10.928084   0.000000
  119       11.133857   0.000000
  120       11.298213   0.000000
  121       11.567304   0.000000
  122       11.669874   0.000000
  123       11.824723   0.000000
  124       12.021290   0.000000
  125       12.183412   0.000000
  126       12.341146   0.000000
  127       12.568037   0.000000
  128       12.804310   0.000000
 
 -0.4000000E+00 -0.1666667E+00  0.4545455E+00  0.6060606E-02
    1      -11.581002   1.000000
    2      -11.032021   1.000000
    3      -10.984772   1.000000
    4      -10.902990   1.000000
    5      -10.779649   1.000000
    6      -10.407662   1.000000
    7       -9.236864   1.000000
    8       -8.956867   1.000000
    9       -8.938502   1.000000
   10       -8.664409   1.000000
   11       -8.589171   1.000000
   12       -8.238656   1.000000
   13       -7.879431   1.000000
   14       -7.014277   1.000000
   15       -6.874918   1.000000
   16       -6.164941   1.000000
   17       -5.859719   1.000000
   18       -5.523561   1.000000
   19       -5.455390   1.000000
   20       -5.356242   1.000000
   21       -5.214465   1.000000
   22       -5.184156   1.000000
   23       -4.597519   1.000000
   24       -4.247494   1.000000
   25       -4.028788   1.000000
   26       -3.631921   1.000000
   27       -3.460406   1.000000
   28       -3.318320   1.000000
   29       -3.041301   1.000000
   30       -2.783915   1.000000
   31       -2.714372   1.000000
   32       -2.548146   1.000000
   33       -2.390749   1.000000
   34       -2.161028   1.000000
   35       -1.970750   1.000000
   36       -1.826301   1.000000
   37       -1.655995   1.000000
   38       -1.561496   1.000000
   39       -1.451062   1.000000
   40       -1.266791   1.000000
   41       -1.175726   1.000000
   42       -1.098385   1.000000
   43       -0.908361   1.000000
   44       -0.810168   1.000000
   45       -0.650214   1.000000
   46       -0.482298   1.000000
   47       -0.410358   1.000000
   48       -0.286362   1.000000
   49       -0.193491   1.000000
   50        0.002300   1.000000
   51        0.123200   1.000000
   52        0.191389   1.000000
   53        0.258818   1.000000
   54        0.286931   1.000000
   55        0.378646   1.000000
   56        0.487254   1.000000
   57        0.554486   1.000000
   58        0.769220   1.000000
   59        0.830531   1.000000
   60        0.920068   1.000000
   61        1.021692   1.000000
   62        1.174507   1.000000
   63        1.274803   1.000000
   64        1.348058   1.000000
   65        1.555844   1.000000
   66        1.752366   1.000000
   67        1.840801   1.000000
   68        1.925721   1.000000
   69        2.016063   1.000000
   70        2.115645   1.000000
   71        2.177286   1.000000
   72        2.333866   1.000000
   73        2.447385   1.000000
   74        2.487624   1.000000
   75        2.663555   1.000000
   76        2.701951   1.000000
   77        2.833697   1.000000
   78        2.873709   1.000000
   79        2.926811   1.000000
   80        2.983205   1.000000
   81        3.028770   1.000000
   82        3.122291   1.000000
   83        3.189708   1.000000
   84        3.281488   1.000000
   85        3.395789   1.000000
   86        3.582074   1.000000
   87        3.688018   1.000000
   88        3.775966   1.000000
   89        3.860418   1.000000
   90        3.945314   1.000000
   91        4.124424   1.000000
   92        4.207178   1.000000
   93        4.285605   1.000000
   94        4.494173   1.000000
   95        4.902760   1.000000
   96        5.070819   1.000000
   97        6.991378   1.000000
   98        7.375031  -0.086556
   99        7.433356   0.000000
  100        7.487538   0.000000
  101        7.677582   0.000000
  102        7.840428   0.000000
  103        7.979953   0.000000
  104        8.020434   0.000000
  105        8.324698   0.000000
  106        8.557770   0.000000
  107        9.233356   0.000000
  108        9.331839   0.000000
  109        9.559278   0.000000
  110        9.649927   0.000000
  111        9.788245   0.000000
  112        9.844772   0.000000
  113       10.133607   0.000000
  114       10.360894   0.000000
  115       10.558033   0.000000
  116       10.663246   0.000000
  117       10.807259   0.000000
  118       10.919460   0.000000
  119       11.100488   0.000000
  120       11.378573   0.000000
  121       11.499606   0.000000
  122       11.568006   0.000000
  123       11.821700   0.000000
  124       12.006233   0.000000
  125       12.061854   0.000000
  126       12.214229   0.000000
  127       12.492688   0.000000
  128       12.716636   0.000000
 
 -0.2000000E+00 -0.1666667E+00  0.4545455E+00  0.6060606E-02
    1      -11.578609   1.000000
    2      -11.031213   1.000000
    3      -10.992832   1.000000
    4      -10.900455   1.000000
    5      -10.770277   1.000000
    6      -10.421122   1.000000
    7       -9.160882   1.000000
    8       -9.037992   1.000000
    9       -8.878841   1.000000
   10       -8.775659   1.000000
   11       -8.640287   1.000000
   12       -8.153995   1.000000
   13       -7.774581   1.000000
   14       -7.039939   1.000000
   15       -6.909068   1.000000
   16       -6.191968   1.000000
   17       -5.971594   1.000000
   18       -5.548129   1.000000
   19       -5.383823   1.000000
   20       -5.284427   1.000000
   21       -5.091444   1.000000
   22       -5.053951   1.000000
   23       -4.470021   1.000000
   24       -4.242862   1.000000
   25       -4.121251   1.000000
   26       -3.871697   1.000000
   27       -3.749898   1.000000
   28       -3.665291   1.000000
   29       -3.201144   1.000000
   30       -3.108672   1.000000
   31       -2.727208   1.000000
   32       -2.201787   1.000000
   33       -2.132105   1.000000
   34       -1.877342   1.000000
   35       -1.763489   1.000000
   36       -1.587389   1.000000
   37       -1.539525   1.000000
   38       -1.416365   1.000000
   39       -1.310979   1.000000
   40       -1.100075   1.000000
   41       -0.977604   1.000000
   42       -0.903533   1.000000
   43       -0.842781   1.000000
   44       -0.763680   1.000000
   45       -0.615089   1.000000
   46       -0.569101   1.000000
   47       -0.514941   1.000000
   48       -0.457242   1.000000
   49       -0.297569   1.000000
   50       -0.125816   1.000000
   51       -0.111575   1.000000
   52        0.022922   1.000000
   53        0.083453   1.000000
   54        0.185248   1.000000
   55        0.319768   1.000000
   56        0.384950   1.000000
   57        0.473209   1.000000
   58        0.633166   1.000000
   59        0.754697   1.000000
   60        0.962901   1.000000
   61        1.072544   1.000000
   62        1.221971   1.000000
   63        1.308110   1.000000
   64        1.387255   1.000000
   65        1.613223   1.000000
   66        1.688722   1.000000
   67        1.810066   1.000000
   68        1.847153   1.000000
   69        1.978031   1.000000
   70        2.081828   1.000000
   71        2.132097   1.000000
   72        2.270867   1.000000
   73        2.378921   1.000000
   74        2.504617   1.000000
   75        2.625471   1.000000
   76        2.678199   1.000000
   77        2.794851   1.000000
   78        2.886069   1.000000
   79        2.902049   1.000000
   80        2.957649   1.000000
   81        3.010875   1.000000
   82        3.073428   1.000000
   83        3.161128   1.000000
   84        3.268798   1.000000
   85        3.350540   1.000000
   86        3.549380   1.000000
   87        3.764459   1.000000
   88        3.884543   1.000000
   89        4.040717   1.000000
   90        4.137846   1.000000
   91        4.267690   1.000000
   92        4.304019   1.000000
   93        4.440412   1.000000
   94        4.600664   1.000000
   95        4.972374   1.000000
   96        5.097358   1.000000
   97        6.914602   1.000000
   98        7.296850   0.497584
   99        7.416011   0.000000
  100        7.559018   0.000000
  101        7.682998   0.000000
  102        7.846680   0.000000
  103        8.013618   0.000000
  104        8.085850   0.000000
  105        8.255206   0.000000
  106        8.490408   0.000000
  107        9.135534   0.000000
  108        9.211040   0.000000
  109        9.464561   0.000000
  110        9.520656   0.000000
  111        9.710912   0.000000
  112        9.892688   0.000000
  113       10.135006   0.000000
  114       10.406085   0.000000
  115       10.701836   0.000000
  116       10.739027   0.000000
  117       10.856475   0.000000
  118       11.018741   0.000000
  119       11.204459   0.000000
  120       11.347819   0.000000
  121       11.597188   0.000000
  122       11.720735   0.000000
  123       11.934229   0.000000
  124       11.943574   0.000000
  125       12.023466   0.000000
  126       12.203766   0.000000
  127       12.411295   0.000000
  128       12.606911   0.000000
