 120 120   0   0
  0.6544514E+01  0.1036812E-08  0.9757790E-09  0.1010176E-08  0.5000000E-15
  1.000000000000000E-004
  CAR 
 unknown system                          
     16.82787957    -13.69089036  301      5.67349692      1.00000000
    -13.691  0.0000E+00  0.0000E+00
    -13.589  0.0000E+00  0.0000E+00
    -13.487  0.0000E+00  0.0000E+00
    -13.386  0.0000E+00  0.0000E+00
    -13.284  0.0000E+00  0.0000E+00
    -13.182  0.0000E+00  0.0000E+00
    -13.081  0.0000E+00  0.0000E+00
    -12.979  0.0000E+00  0.0000E+00
    -12.877  0.0000E+00  0.0000E+00
    -12.775  0.0000E+00  0.0000E+00
    -12.674  0.0000E+00  0.0000E+00
    -12.572  0.0000E+00  0.0000E+00
    -12.470  0.0000E+00  0.0000E+00
    -12.368  0.0000E+00  0.0000E+00
    -12.267  0.0000E+00  0.0000E+00
    -12.165  0.0000E+00  0.0000E+00
    -12.063  0.0000E+00  0.0000E+00
    -11.961  0.0000E+00  0.0000E+00
    -11.860  0.0000E+00  0.0000E+00
    -11.758  0.0000E+00  0.0000E+00
    -11.656  0.1594E+00  0.3637E-02
    -11.555  0.1936E-01  0.1993E-01
    -11.453  0.2032E+00  0.3514E-01
    -11.351  0.1598E+00  0.5967E-01
    -11.249  0.0000E+00  0.6000E-01
    -11.148  0.0000E+00  0.6000E-01
    -11.046  0.0000E+00  0.6000E-01
    -10.944  0.0000E+00  0.6000E-01
    -10.842  0.0000E+00  0.6000E-01
    -10.741  0.0000E+00  0.6000E-01
    -10.639  0.0000E+00  0.6000E-01
    -10.537  0.0000E+00  0.6000E-01
    -10.436  0.0000E+00  0.6000E-01
    -10.334  0.0000E+00  0.6000E-01
    -10.232  0.0000E+00  0.6000E-01
    -10.130  0.0000E+00  0.6000E-01
    -10.029  0.1831E-01  0.6016E-01
     -9.927  0.1471E+00  0.6805E-01
     -9.825  0.8173E-01  0.8109E-01
     -9.723  0.8073E-01  0.9927E-01
     -9.622  0.1046E+00  0.1105E+00
     -9.520  0.2009E+00  0.1266E+00
     -9.418  0.2553E+00  0.1488E+00
     -9.317  0.2897E+00  0.1680E+00
     -9.215  0.2298E+00  0.1969E+00
     -9.113  0.4951E-02  0.2200E+00
     -9.011  0.0000E+00  0.2200E+00
     -8.910  0.1124E-01  0.2203E+00
     -8.808  0.5447E-01  0.2232E+00
     -8.706  0.1717E+00  0.2337E+00
     -8.604  0.2367E+00  0.2542E+00
     -8.503  0.9794E-01  0.2699E+00
     -8.401  0.9903E-01  0.2797E+00
     -8.299  0.1045E+00  0.2891E+00
     -8.198  0.7937E-01  0.3017E+00
     -8.096  0.2103E+00  0.3154E+00
     -7.994  0.1917E+00  0.3293E+00
     -7.892  0.1013E+00  0.3442E+00
     -7.791  0.1111E+00  0.3560E+00
     -7.689  0.1786E+00  0.3700E+00
     -7.587  0.1960E-01  0.3795E+00
     -7.485  0.1691E+00  0.3880E+00
     -7.384  0.1851E+00  0.4048E+00
     -7.282  0.1227E+00  0.4222E+00
     -7.180  0.1984E+00  0.4386E+00
     -7.078  0.1749E+00  0.4471E+00
     -6.977  0.8776E-01  0.4568E+00
     -6.875  0.1005E+00  0.4682E+00
     -6.773  0.5718E-01  0.4760E+00
     -6.672  0.5633E-02  0.4800E+00
     -6.570  0.0000E+00  0.4800E+00
     -6.468  0.0000E+00  0.4800E+00
     -6.366  0.0000E+00  0.4800E+00
     -6.265  0.0000E+00  0.4800E+00
     -6.163  0.1268E-01  0.4802E+00
     -6.061  0.6870E-01  0.4838E+00
     -5.959  0.1829E+00  0.4960E+00
     -5.858  0.1797E+00  0.5143E+00
     -5.756  0.1928E+00  0.5315E+00
     -5.654  0.1667E+00  0.5484E+00
     -5.553  0.2222E+00  0.5641E+00
     -5.451  0.1965E+00  0.5850E+00
     -5.349  0.2435E+00  0.6081E+00
     -5.247  0.2341E+00  0.6340E+00
     -5.146  0.2321E+00  0.6607E+00
     -5.044  0.2441E+00  0.6847E+00
     -4.942  0.2297E+00  0.7080E+00
     -4.840  0.2303E+00  0.7314E+00
     -4.739  0.2277E+00  0.7519E+00
     -4.637  0.1592E+00  0.7744E+00
     -4.535  0.2081E+00  0.7971E+00
     -4.434  0.2383E+00  0.8224E+00
     -4.332  0.2231E+00  0.8469E+00
     -4.230  0.1713E+00  0.8627E+00
     -4.128  0.1836E+00  0.8792E+00
     -4.027  0.2826E+00  0.9005E+00
     -3.925  0.1946E+00  0.9247E+00
     -3.823  0.1228E+00  0.9403E+00
     -3.721  0.6508E-01  0.9496E+00
     -3.620  0.3795E-01  0.9549E+00
     -3.518  0.2400E-01  0.9578E+00
     -3.416  0.1158E-01  0.9598E+00
     -3.315  0.2001E-01  0.9607E+00
     -3.213  0.4001E-01  0.9636E+00
     -3.111  0.6504E-01  0.9687E+00
     -3.009  0.1070E+00  0.9773E+00
     -2.908  0.1548E+00  0.9907E+00
     -2.806  0.1956E+00  0.1007E+01
     -2.704  0.2142E+00  0.1030E+01
     -2.602  0.2294E+00  0.1053E+01
     -2.501  0.2587E+00  0.1077E+01
     -2.399  0.2537E+00  0.1103E+01
     -2.297  0.2806E+00  0.1130E+01
     -2.195  0.2500E+00  0.1155E+01
     -2.094  0.2709E+00  0.1180E+01
     -1.992  0.2481E+00  0.1206E+01
     -1.890  0.2286E+00  0.1230E+01
     -1.789  0.2324E+00  0.1255E+01
     -1.687  0.2274E+00  0.1278E+01
     -1.585  0.2338E+00  0.1302E+01
     -1.483  0.2499E+00  0.1327E+01
     -1.382  0.2693E+00  0.1353E+01
     -1.280  0.2665E+00  0.1380E+01
     -1.178  0.2775E+00  0.1408E+01
     -1.076  0.2838E+00  0.1437E+01
     -0.975  0.2771E+00  0.1464E+01
     -0.873  0.2891E+00  0.1493E+01
     -0.771  0.2885E+00  0.1522E+01
     -0.670  0.2869E+00  0.1550E+01
     -0.568  0.3121E+00  0.1581E+01
     -0.466  0.3082E+00  0.1613E+01
     -0.364  0.2918E+00  0.1644E+01
     -0.263  0.3113E+00  0.1674E+01
     -0.161  0.3326E+00  0.1706E+01
     -0.059  0.3169E+00  0.1741E+01
      0.043  0.3303E+00  0.1772E+01
      0.144  0.3221E+00  0.1804E+01
      0.246  0.3191E+00  0.1837E+01
      0.348  0.3070E+00  0.1867E+01
      0.449  0.3299E+00  0.1902E+01
      0.551  0.3315E+00  0.1934E+01
      0.653  0.3098E+00  0.1966E+01
      0.755  0.3229E+00  0.1999E+01
      0.856  0.3377E+00  0.2033E+01
      0.958  0.3581E+00  0.2068E+01
      1.060  0.3020E+00  0.2102E+01
      1.162  0.3031E+00  0.2134E+01
      1.263  0.2881E+00  0.2164E+01
      1.365  0.3029E+00  0.2194E+01
      1.467  0.2616E+00  0.2224E+01
      1.568  0.2520E+00  0.2252E+01
      1.670  0.2862E+00  0.2280E+01
      1.772  0.2634E+00  0.2308E+01
      1.874  0.2484E+00  0.2334E+01
      1.975  0.2615E+00  0.2360E+01
      2.077  0.2463E+00  0.2386E+01
      2.179  0.2814E+00  0.2411E+01
      2.281  0.2554E+00  0.2437E+01
      2.382  0.2513E+00  0.2463E+01
      2.484  0.2784E+00  0.2490E+01
      2.586  0.3426E+00  0.2528E+01
      2.688  0.3716E+00  0.2566E+01
      2.789  0.4493E+00  0.2608E+01
      2.891  0.4515E+00  0.2653E+01
      2.993  0.4341E+00  0.2698E+01
      3.094  0.4581E+00  0.2744E+01
      3.196  0.4786E+00  0.2793E+01
      3.298  0.4845E+00  0.2842E+01
      3.400  0.4986E+00  0.2892E+01
      3.501  0.5120E+00  0.2944E+01
      3.603  0.5155E+00  0.2994E+01
      3.705  0.5078E+00  0.3047E+01
      3.807  0.4567E+00  0.3093E+01
      3.908  0.4532E+00  0.3140E+01
      4.010  0.4829E+00  0.3183E+01
      4.112  0.3835E+00  0.3222E+01
      4.213  0.3542E+00  0.3260E+01
      4.315  0.3536E+00  0.3295E+01
      4.417  0.3388E+00  0.3330E+01
      4.519  0.3280E+00  0.3365E+01
      4.620  0.4060E+00  0.3401E+01
      4.722  0.3336E+00  0.3437E+01
      4.824  0.3361E+00  0.3474E+01
      4.926  0.3741E+00  0.3512E+01
      5.027  0.4241E+00  0.3550E+01
      5.129  0.4277E+00  0.3591E+01
      5.231  0.3891E+00  0.3631E+01
      5.332  0.4319E+00  0.3673E+01
      5.434  0.3729E+00  0.3712E+01
      5.536  0.3190E+00  0.3747E+01
      5.638  0.3187E+00  0.3779E+01
      5.739  0.2420E+00  0.3808E+01
      5.841  0.1495E+00  0.3826E+01
      5.943  0.7734E-01  0.3837E+01
      6.045  0.0000E+00  0.3840E+01
      6.146  0.0000E+00  0.3840E+01
      6.248  0.0000E+00  0.3840E+01
      6.350  0.0000E+00  0.3840E+01
      6.451  0.0000E+00  0.3840E+01
      6.553  0.0000E+00  0.3840E+01
      6.655  0.0000E+00  0.3840E+01
      6.757  0.0000E+00  0.3840E+01
      6.858  0.0000E+00  0.3840E+01
      6.960  0.0000E+00  0.3840E+01
      7.062  0.0000E+00  0.3840E+01
      7.164  0.0000E+00  0.3840E+01
      7.265  0.0000E+00  0.3840E+01
      7.367  0.0000E+00  0.3840E+01
      7.469  0.1733E-01  0.3840E+01
      7.571  0.1657E+00  0.3850E+01
      7.672  0.1825E+00  0.3867E+01
      7.774  0.1450E+00  0.3884E+01
      7.876  0.8545E-01  0.3899E+01
      7.977  0.4716E-01  0.3902E+01
      8.079  0.1253E+00  0.3910E+01
      8.181  0.1813E+00  0.3922E+01
      8.283  0.2668E+00  0.3940E+01
      8.384  0.7574E-01  0.3959E+01
      8.486  0.0000E+00  0.3960E+01
      8.588  0.0000E+00  0.3960E+01
      8.690  0.0000E+00  0.3960E+01
      8.791  0.0000E+00  0.3960E+01
      8.893  0.0000E+00  0.3960E+01
      8.995  0.0000E+00  0.3960E+01
      9.096  0.1790E-01  0.3961E+01
      9.198  0.4031E-01  0.3964E+01
      9.300  0.6965E-01  0.3969E+01
      9.402  0.8227E-01  0.3977E+01
      9.503  0.1639E+00  0.3988E+01
      9.605  0.1143E+00  0.4005E+01
      9.707  0.1606E+00  0.4020E+01
      9.809  0.1528E+00  0.4037E+01
      9.910  0.1580E+00  0.4052E+01
     10.012  0.1788E+00  0.4070E+01
     10.114  0.2030E+00  0.4089E+01
     10.215  0.1873E+00  0.4110E+01
     10.317  0.1839E+00  0.4129E+01
     10.419  0.2205E+00  0.4150E+01
     10.521  0.2342E+00  0.4173E+01
     10.622  0.2721E+00  0.4200E+01
     10.724  0.2581E+00  0.4229E+01
     10.826  0.2519E+00  0.4256E+01
     10.928  0.2259E+00  0.4281E+01
     11.029  0.2124E+00  0.4301E+01
     11.131  0.2252E+00  0.4324E+01
     11.233  0.2042E+00  0.4347E+01
     11.335  0.1650E+00  0.4366E+01
     11.436  0.1595E+00  0.4383E+01
     11.538  0.1985E+00  0.4400E+01
     11.640  0.2239E+00  0.4421E+01
     11.741  0.2181E+00  0.4443E+01
     11.843  0.2151E+00  0.4465E+01
     11.945  0.2184E+00  0.4486E+01
     12.047  0.2396E+00  0.4510E+01
     12.148  0.2427E+00  0.4535E+01
     12.250  0.2383E+00  0.4560E+01
     12.352  0.2523E+00  0.4585E+01
     12.454  0.2303E+00  0.4610E+01
     12.555  0.2524E+00  0.4635E+01
     12.657  0.2580E+00  0.4661E+01
     12.759  0.2731E+00  0.4688E+01
     12.860  0.2573E+00  0.4715E+01
     12.962  0.2633E+00  0.4741E+01
     13.064  0.2814E+00  0.4770E+01
     13.166  0.2769E+00  0.4799E+01
     13.267  0.2341E+00  0.4825E+01
     13.369  0.2514E+00  0.4849E+01
     13.471  0.2555E+00  0.4873E+01
     13.573  0.2766E+00  0.4900E+01
     13.674  0.2496E+00  0.4925E+01
     13.776  0.1945E+00  0.4951E+01
     13.878  0.1689E+00  0.4968E+01
     13.979  0.2034E+00  0.4987E+01
     14.081  0.1840E+00  0.5007E+01
     14.183  0.2291E+00  0.5029E+01
     14.285  0.2441E+00  0.5054E+01
     14.386  0.2354E+00  0.5080E+01
     14.488  0.1679E+00  0.5101E+01
     14.590  0.8253E-01  0.5113E+01
     14.692  0.3150E-01  0.5118E+01
     14.793  0.2692E-02  0.5120E+01
     14.895  0.0000E+00  0.5120E+01
     14.997  0.0000E+00  0.5120E+01
     15.098  0.0000E+00  0.5120E+01
     15.200  0.0000E+00  0.5120E+01
     15.302  0.0000E+00  0.5120E+01
     15.404  0.0000E+00  0.5120E+01
     15.505  0.0000E+00  0.5120E+01
     15.607  0.0000E+00  0.5120E+01
     15.709  0.0000E+00  0.5120E+01
     15.811  0.0000E+00  0.5120E+01
     15.912  0.0000E+00  0.5120E+01
     16.014  0.0000E+00  0.5120E+01
     16.116  0.0000E+00  0.5120E+01
     16.218  0.0000E+00  0.5120E+01
     16.319  0.0000E+00  0.5120E+01
     16.421  0.0000E+00  0.5120E+01
     16.523  0.0000E+00  0.5120E+01
     16.624  0.0000E+00  0.5120E+01
     16.726  0.0000E+00  0.5120E+01
     16.828  0.0000E+00  0.5120E+01
