       N       E                     dE             d eps       ncg     rms          rms(c)
DAV:   1     0.810413555229E+03    0.81041E+03   -0.15857E+05 57344   0.113E+03
DAV:   2    -0.852803288031E+03   -0.16632E+04   -0.15880E+04 74880   0.233E+02
DAV:   3    -0.912068271751E+03   -0.59265E+02   -0.58592E+02 71680   0.437E+01
DAV:   4    -0.912832850123E+03   -0.76458E+00   -0.76358E+00 71680   0.546E+00
DAV:   5    -0.912846575116E+03   -0.13725E-01   -0.13725E-01 71680   0.700E-01    0.456E+01
DAV:   6    -0.852533712154E+03    0.60313E+02   -0.88768E+01 71488   0.167E+01    0.241E+01
DAV:   7    -0.840878753838E+03    0.11655E+02   -0.32784E+01 71680   0.101E+01    0.986E+00
DAV:   8    -0.840214318367E+03    0.66444E+00   -0.30965E+00 71616   0.345E+00    0.318E+00
DAV:   9    -0.840222676677E+03   -0.83583E-02   -0.59152E-01 71744   0.137E+00    0.100E+00
DAV:  10    -0.840219185251E+03    0.34914E-02   -0.10758E-01 72192   0.528E-01    0.522E-01
DAV:  11    -0.840220110750E+03   -0.92550E-03   -0.19508E-02 71680   0.252E-01    0.207E-01
DAV:  12    -0.840221112876E+03   -0.10021E-02   -0.32291E-03 71680   0.112E-01    0.724E-02
DAV:  13    -0.840221209928E+03   -0.97051E-04   -0.39696E-04 71680   0.408E-02    0.318E-02
DAV:  14    -0.840221280999E+03   -0.71071E-04   -0.15656E-04 71680   0.247E-02    0.143E-02
DAV:  15    -0.840221281403E+03   -0.40464E-06   -0.26489E-05 71680   0.923E-03    0.872E-03
DAV:  16    -0.840221284675E+03   -0.32712E-05   -0.16113E-05 71872   0.644E-03    0.485E-03
DAV:  17    -0.840221286031E+03   -0.13566E-05   -0.56494E-06 71936   0.356E-03    0.318E-03
DAV:  18    -0.840221285509E+03    0.52182E-06   -0.38051E-06 71936   0.154E-03    0.225E-03
DAV:  19    -0.840221285844E+03   -0.33479E-06   -0.25090E-07 71936   0.806E-04    0.139E-03
DAV:  20    -0.840221286008E+03   -0.16407E-06   -0.84803E-07 71680   0.507E-04    0.278E-03
DAV:  21    -0.840221285991E+03    0.17186E-07   -0.58894E-07 57664   0.331E-04    0.111E-03
DAV:  22    -0.840221286031E+03   -0.40112E-07   -0.39321E-08 50176   0.165E-04    0.221E-03
DAV:  23    -0.840221285996E+03    0.35063E-07   -0.43681E-07 50112   0.126E-04    0.109E-03
DAV:  24    -0.840221286013E+03   -0.17193E-07   -0.14167E-09 49984   0.612E-05    0.102E-03
DAV:  25    -0.840221286026E+03   -0.12536E-07   -0.23181E-09 49920   0.573E-05    0.900E-04
DAV:  26    -0.840221286036E+03   -0.96552E-08   -0.12563E-07 49792   0.596E-05    0.254E-03
DAV:  27    -0.840221286012E+03    0.23821E-07   -0.32911E-07 49792   0.111E-04    0.103E-03
DAV:  28    -0.840221286020E+03   -0.81345E-08   -0.89590E-10 49792   0.491E-05
   1 F= -.84022129E+03 E0= -.84022129E+03  d E =0.000000E+00
       N       E                     dE             d eps       ncg     rms          rms(c)
DAV:   1    -0.840221286024E+03   -0.12806E-07   -0.42457E-10 49792   0.241E-05    0.924E-04
DAV:   2    -0.840221286426E+03   -0.40186E-06   -0.34107E-06 71808   0.810E-04    0.367E-03
DAV:   3    -0.840221286047E+03    0.37896E-06   -0.29638E-07 73984   0.683E-04    0.271E-03
DAV:   4    -0.840221286032E+03    0.15520E-07   -0.30713E-08 51008   0.175E-04    0.172E-04
DAV:   5    -0.840221286035E+03   -0.35361E-08   -0.23213E-09 49664   0.698E-05    0.751E-04
DAV:   6    -0.840221286030E+03    0.52605E-08   -0.24613E-08 49472   0.264E-05
   2 F= -.84022129E+03 E0= -.84022129E+03  d E =0.000000E+00
       N       E                     dE             d eps       ncg     rms          rms(c)
DAV:   1    -0.840221286034E+03    0.15061E-08   -0.13600E-08 49600   0.248E-05    0.173E-03
DAV:   2    -0.840221285412E+03    0.62164E-06   -0.60232E-06 72320   0.152E-03    0.320E-03
DAV:   3    -0.840221285926E+03   -0.51360E-06   -0.75375E-07 83008   0.112E-03    0.170E-03
DAV:   4    -0.840221285977E+03   -0.51390E-07   -0.64151E-08 62208   0.331E-04    0.124E-03
DAV:   5    -0.840221286004E+03   -0.27125E-07   -0.10758E-08 49728   0.150E-04    0.105E-03
DAV:   6    -0.840221286028E+03   -0.24062E-07   -0.53285E-09 46656   0.905E-05    0.833E-04
DAV:   7    -0.840221286045E+03   -0.16145E-07   -0.29632E-07 49216   0.929E-05    0.263E-03
DAV:   8    -0.840221286017E+03    0.27947E-07   -0.19907E-07 46912   0.117E-04    0.965E-04
DAV:   9    -0.840221286010E+03    0.65847E-08   -0.18854E-09 48832   0.619E-05
   3 F= -.84022129E+03 E0= -.84022129E+03  d E =0.000000E+00
       N       E                     dE             d eps       ncg     rms          rms(c)
DAV:   1    -0.840221286022E+03   -0.50568E-08   -0.12588E-09 46400   0.446E-05    0.958E-04
DAV:   2    -0.840221286440E+03   -0.41804E-06   -0.35192E-06 72064   0.842E-04    0.369E-03
DAV:   3    -0.840221286045E+03    0.39426E-06   -0.31613E-07 73920   0.706E-04    0.270E-03
DAV:   4    -0.840221286029E+03    0.16706E-07   -0.65111E-08 51584   0.181E-04    0.813E-04
DAV:   5    -0.840221286037E+03   -0.81782E-08   -0.36966E-08 47424   0.733E-05    0.237E-03
DAV:   6    -0.840221286025E+03    0.12296E-07   -0.12704E-07 46976   0.495E-05    0.936E-04
DAV:   7    -0.840221286029E+03   -0.41618E-08   -0.61785E-10 46528   0.350E-05
   4 F= -.84022129E+03 E0= -.84022129E+03  d E =0.000000E+00
       N       E                     dE             d eps       ncg     rms          rms(c)
DAV:   1    -0.840221286030E+03   -0.51732E-08   -0.13645E-10 46720   0.128E-05    0.804E-04
DAV:   2    -0.840221286372E+03   -0.34223E-06   -0.28928E-06 68928   0.703E-04    0.354E-03
DAV:   3    -0.840221286046E+03    0.32652E-06   -0.23072E-07 70464   0.601E-04    0.269E-03
DAV:   4    -0.840221286034E+03    0.11991E-07   -0.12941E-08 48000   0.150E-04    0.225E-03
DAV:   5    -0.840221286019E+03    0.14661E-07   -0.18233E-07 46528   0.826E-05    0.973E-04
DAV:   6    -0.840221286026E+03   -0.69558E-08   -0.54931E-10 43648   0.428E-05
   5 F= -.84022129E+03 E0= -.84022129E+03  d E =0.000000E+00
       N       E                     dE             d eps       ncg     rms          rms(c)
DAV:   1    -0.840221286030E+03   -0.10899E-07   -0.98019E-10 45440   0.237E-05    0.776E-04
DAV:   2    -0.840221286358E+03   -0.32844E-06   -0.27631E-06 68288   0.679E-04    0.350E-03
DAV:   3    -0.840221286044E+03    0.31396E-06   -0.21668E-07 69760   0.582E-04    0.268E-03
DAV:   4    -0.840221286033E+03    0.11278E-07   -0.12416E-08 48064   0.144E-04    0.218E-03
DAV:   5    -0.840221286018E+03    0.15330E-07   -0.20238E-07 45312   0.853E-05    0.986E-04
DAV:   6    -0.840221286024E+03   -0.66429E-08   -0.61264E-10 42496   0.441E-05
   6 F= -.84022129E+03 E0= -.84022129E+03  d E =0.000000E+00
       N       E                     dE             d eps       ncg     rms          rms(c)
DAV:   1    -0.840221286029E+03   -0.11663E-07   -0.86253E-10 44096   0.259E-05    0.828E-04
DAV:   2    -0.840221286383E+03   -0.35374E-06   -0.30014E-06 69440   0.725E-04    0.357E-03
DAV:   3    -0.840221286046E+03    0.33667E-06   -0.24332E-07 70464   0.617E-04    0.270E-03
DAV:   4    -0.840221286033E+03    0.13344E-07   -0.13942E-08 48960   0.155E-04    0.222E-03
DAV:   5    -0.840221286018E+03    0.15199E-07   -0.20199E-07 44352   0.882E-05    0.984E-04
DAV:   6    -0.840221286024E+03   -0.59299E-08   -0.55813E-10 41792   0.444E-05
   7 F= -.84022129E+03 E0= -.84022129E+03  d E =0.000000E+00
       N       E                     dE             d eps       ncg     rms          rms(c)
DAV:   1    -0.840221286029E+03   -0.11176E-07   -0.85556E-10 42432   0.258E-05    0.832E-04
DAV:   2    -0.840221286384E+03   -0.35548E-06   -0.30217E-06 69312   0.729E-04    0.357E-03
DAV:   3    -0.840221286046E+03    0.33888E-06   -0.24563E-07 69888   0.620E-04    0.270E-03
DAV:   4    -0.840221286033E+03    0.12769E-07   -0.14150E-08 49152   0.156E-04    0.221E-03
DAV:   5    -0.840221286017E+03    0.15571E-07   -0.20315E-07 42816   0.888E-05    0.985E-04
DAV:   6    -0.840221286024E+03   -0.63374E-08   -0.57811E-10 39936   0.447E-05
   8 F= -.84022129E+03 E0= -.84022129E+03  d E =0.000000E+00
       N       E                     dE             d eps       ncg     rms          rms(c)
DAV:   1    -0.840221286029E+03   -0.11612E-07   -0.84885E-10 40640   0.259E-05    0.832E-04
DAV:   2    -0.840221286384E+03   -0.35544E-06   -0.30232E-06 69696   0.729E-04    0.357E-03
DAV:   3    -0.840221286046E+03    0.33798E-06   -0.24580E-07 69760   0.621E-04    0.270E-03
DAV:   4    -0.840221286033E+03    0.13148E-07   -0.14140E-08 49024   0.156E-04    0.222E-03
DAV:   5    -0.840221286018E+03    0.15112E-07   -0.20211E-07 41920   0.886E-05    0.984E-04
DAV:   6    -0.840221286024E+03   -0.62355E-08   -0.56599E-10 38848   0.445E-05
   9 F= -.84022129E+03 E0= -.84022129E+03  d E =0.000000E+00
       N       E                     dE             d eps       ncg     rms          rms(c)
DAV:   1    -0.840221286029E+03   -0.10899E-07   -0.84508E-10 39616   0.258E-05    0.831E-04
DAV:   2    -0.840221286385E+03   -0.35554E-06   -0.30164E-06 69504   0.728E-04    0.357E-03
DAV:   3    -0.840221286046E+03    0.33850E-06   -0.24501E-07 69632   0.620E-04    0.270E-03
DAV:   4    -0.840221286033E+03    0.12966E-07   -0.14103E-08 49024   0.156E-04    0.222E-03
DAV:   5    -0.840221286018E+03    0.15301E-07   -0.20263E-07 40704   0.886E-05    0.985E-04
DAV:   6    -0.840221286024E+03   -0.64829E-08   -0.57451E-10 37632   0.446E-05
  10 F= -.84022129E+03 E0= -.84022129E+03  d E =0.000000E+00
       N       E                     dE             d eps       ncg     rms          rms(c)
DAV:   1    -0.840221286029E+03   -0.11576E-07   -0.83942E-10 38272   0.259E-05    0.831E-04
DAV:   2    -0.840221286384E+03   -0.35502E-06   -0.30192E-06 69504   0.729E-04    0.357E-03
DAV:   3    -0.840221286046E+03    0.33840E-06   -0.24534E-07 69440   0.620E-04    0.270E-03
DAV:   4    -0.840221286033E+03    0.12646E-07   -0.14121E-08 48960   0.156E-04    0.222E-03
DAV:   5    -0.840221286017E+03    0.16145E-07   -0.20252E-07 39872   0.886E-05    0.985E-04
DAV:   6    -0.840221286024E+03   -0.63446E-08   -0.56193E-10 36800   0.446E-05
  11 F= -.84022129E+03 E0= -.84022129E+03  d E =0.000000E+00
       N       E                     dE             d eps       ncg     rms          rms(c)
DAV:   1    -0.840221286029E+03   -0.12238E-07   -0.84427E-10 37056   0.259E-05    0.831E-04
DAV:   2    -0.840221286384E+03   -0.35480E-06   -0.30184E-06 69376   0.728E-04    0.357E-03
DAV:   3    -0.840221286046E+03    0.33818E-06   -0.24524E-07 69184   0.620E-04    0.270E-03
DAV:   4    -0.840221286034E+03    0.12456E-07   -0.14091E-08 48704   0.156E-04    0.222E-03
DAV:   5    -0.840221286017E+03    0.16269E-07   -0.20267E-07 39040   0.886E-05    0.985E-04
DAV:   6    -0.840221286024E+03   -0.63010E-08   -0.58130E-10 35328   0.446E-05
  12 F= -.84022129E+03 E0= -.84022129E+03  d E =0.000000E+00
       N       E                     dE             d eps       ncg     rms          rms(c)
DAV:   1    -0.840221286029E+03   -0.11503E-07   -0.84660E-10 35776   0.259E-05    0.831E-04
DAV:   2    -0.840221286385E+03   -0.35580E-06   -0.30195E-06 69376   0.729E-04    0.357E-03
DAV:   3    -0.840221286046E+03    0.33819E-06   -0.24537E-07 69184   0.620E-04    0.270E-03
DAV:   4    -0.840221286033E+03    0.13548E-07   -0.14110E-08 49024   0.156E-04    0.222E-03
DAV:   5    -0.840221286018E+03    0.15199E-07   -0.20276E-07 38016   0.887E-05    0.985E-04
DAV:   6    -0.840221286024E+03   -0.64247E-08   -0.57833E-10 35200   0.446E-05
  13 F= -.84022129E+03 E0= -.84022129E+03  d E =0.000000E+00
       N       E                     dE             d eps       ncg     rms          rms(c)
DAV:   1    -0.840221286029E+03   -0.11438E-07   -0.85826E-10 35136   0.259E-05    0.832E-04
DAV:   2    -0.840221286384E+03   -0.35536E-06   -0.30201E-06 69504   0.729E-04    0.357E-03
DAV:   3    -0.840221286046E+03    0.33846E-06   -0.24544E-07 69184   0.620E-04    0.270E-03
DAV:   4    -0.840221286033E+03    0.12515E-07   -0.14115E-08 48832   0.156E-04    0.222E-03
DAV:   5    -0.840221286017E+03    0.16335E-07   -0.20264E-07 37504   0.886E-05    0.985E-04
DAV:   6    -0.840221286024E+03   -0.70431E-08   -0.59141E-10 34624   0.446E-05
  14 F= -.84022129E+03 E0= -.84022129E+03  d E =0.000000E+00
       N       E                     dE             d eps       ncg     rms          rms(c)
DAV:   1    -0.840221286029E+03   -0.11511E-07   -0.84450E-10 35008   0.259E-05    0.831E-04
DAV:   2    -0.840221286384E+03   -0.35545E-06   -0.30193E-06 69568   0.729E-04    0.357E-03
DAV:   3    -0.840221286045E+03    0.33865E-06   -0.24534E-07 68992   0.620E-04    0.270E-03
DAV:   4    -0.840221286033E+03    0.12355E-07   -0.14129E-08 48960   0.156E-04    0.222E-03
DAV:   5    -0.840221286017E+03    0.16145E-07   -0.20276E-07 37184   0.886E-05    0.985E-04
DAV:   6    -0.840221286024E+03   -0.74651E-08   -0.58046E-10 34304   0.446E-05
  15 F= -.84022129E+03 E0= -.84022129E+03  d E =0.000000E+00
       N       E                     dE             d eps       ncg     rms          rms(c)
DAV:   1    -0.840221286029E+03   -0.12042E-07   -0.84690E-10 34624   0.259E-05    0.832E-04
DAV:   2    -0.840221286385E+03   -0.35563E-06   -0.30199E-06 69504   0.729E-04    0.357E-03
DAV:   3    -0.840221286046E+03    0.33901E-06   -0.24545E-07 69056   0.620E-04    0.270E-03
DAV:   4    -0.840221286033E+03    0.12398E-07   -0.14105E-08 49088   0.156E-04    0.222E-03
DAV:   5    -0.840221286017E+03    0.15978E-07   -0.20264E-07 36736   0.886E-05    0.985E-04
DAV:   6    -0.840221286024E+03   -0.65193E-08   -0.56170E-10 33984   0.446E-05
  16 F= -.84022129E+03 E0= -.84022129E+03  d E =0.000000E+00
       N       E                     dE             d eps       ncg     rms          rms(c)
DAV:   1    -0.840221286029E+03   -0.11540E-07   -0.85014E-10 34240   0.259E-05    0.831E-04
DAV:   2    -0.840221286384E+03   -0.35516E-06   -0.30192E-06 69504   0.729E-04    0.357E-03
DAV:   3    -0.840221286046E+03    0.33800E-06   -0.24536E-07 68992   0.620E-04    0.270E-03
DAV:   4    -0.840221286033E+03    0.12653E-07   -0.14119E-08 49152   0.156E-04    0.222E-03
DAV:   5    -0.840221286018E+03    0.15243E-07   -0.20276E-07 36608   0.886E-05    0.985E-04
DAV:   6    -0.840221286024E+03   -0.62355E-08   -0.57544E-10 33856   0.446E-05
  17 F= -.84022129E+03 E0= -.84022129E+03  d E =0.000000E+00
       N       E                     dE             d eps       ncg     rms          rms(c)
DAV:   1    -0.840221286029E+03   -0.10965E-07   -0.84904E-10 33792   0.259E-05    0.832E-04
DAV:   2    -0.840221286384E+03   -0.35519E-06   -0.30199E-06 69440   0.729E-04    0.357E-03
DAV:   3    -0.840221286046E+03    0.33854E-06   -0.24544E-07 69056   0.620E-04    0.270E-03
DAV:   4    -0.840221286033E+03    0.12289E-07   -0.14128E-08 48512   0.156E-04    0.222E-03
DAV:   5    -0.840221286018E+03    0.15534E-07   -0.20265E-07 36288   0.886E-05    0.985E-04
DAV:   6    -0.840221286024E+03   -0.62137E-08   -0.56930E-10 33472   0.446E-05
  18 F= -.84022129E+03 E0= -.84022129E+03  d E =0.000000E+00
       N       E                     dE             d eps       ncg     rms          rms(c)
DAV:   1    -0.840221286029E+03   -0.11089E-07   -0.84092E-10 33472   0.259E-05    0.831E-04
DAV:   2    -0.840221286384E+03   -0.35502E-06   -0.30192E-06 69504   0.729E-04    0.357E-03
DAV:   3    -0.840221286045E+03    0.33844E-06   -0.24534E-07 68928   0.620E-04    0.270E-03
DAV:   4    -0.840221286033E+03    0.12777E-07   -0.14138E-08 48832   0.156E-04    0.222E-03
DAV:   5    -0.840221286018E+03    0.14836E-07   -0.20260E-07 35776   0.886E-05    0.985E-04
DAV:   6    -0.840221286024E+03   -0.63446E-08   -0.56923E-10 32320   0.446E-05
  19 F= -.84022129E+03 E0= -.84022129E+03  d E =0.000000E+00
       N       E                     dE             d eps       ncg     rms          rms(c)
DAV:   1    -0.840221286029E+03   -0.11081E-07   -0.85422E-10 32384   0.259E-05    0.831E-04
DAV:   2    -0.840221286384E+03   -0.35537E-06   -0.30189E-06 69504   0.728E-04    0.357E-03
DAV:   3    -0.840221286046E+03    0.33880E-06   -0.24529E-07 68864   0.620E-04    0.270E-03
DAV:   4    -0.840221286033E+03    0.12318E-07   -0.14107E-08 48960   0.156E-04    0.222E-03
DAV:   5    -0.840221286018E+03    0.15709E-07   -0.20281E-07 35392   0.887E-05    0.985E-04
DAV:   6    -0.840221286024E+03   -0.65411E-08   -0.57930E-10 31936   0.446E-05
  20 F= -.84022129E+03 E0= -.84022129E+03  d E =0.000000E+00
       N       E                     dE             d eps       ncg     rms          rms(c)
DAV:   1    -0.840221286029E+03   -0.11605E-07   -0.86773E-10 32128   0.259E-05    0.832E-04
DAV:   2    -0.840221286385E+03   -0.35556E-06   -0.30204E-06 69440   0.729E-04    0.357E-03
DAV:   3    -0.840221286046E+03    0.33857E-06   -0.24549E-07 68928   0.620E-04    0.270E-03
DAV:   4    -0.840221286034E+03    0.12544E-07   -0.14106E-08 48576   0.156E-04    0.222E-03
DAV:   5    -0.840221286017E+03    0.16167E-07   -0.20261E-07 34560   0.886E-05    0.985E-04
DAV:   6    -0.840221286024E+03   -0.66502E-08   -0.56010E-10 31936   0.446E-05
  21 F= -.84022129E+03 E0= -.84022129E+03  d E =0.000000E+00
       N       E                     dE             d eps       ncg     rms          rms(c)
DAV:   1    -0.840221286029E+03   -0.11714E-07   -0.85053E-10 31872   0.259E-05    0.831E-04
DAV:   2    -0.840221286384E+03   -0.35510E-06   -0.30189E-06 69504   0.728E-04    0.357E-03
DAV:   3    -0.840221286046E+03    0.33826E-06   -0.24531E-07 68864   0.620E-04    0.270E-03
DAV:   4    -0.840221286034E+03    0.12253E-07   -0.14108E-08 48448   0.156E-04    0.222E-03
DAV:   5    -0.840221286017E+03    0.16487E-07   -0.20273E-07 34496   0.886E-05    0.985E-04
DAV:   6    -0.840221286024E+03   -0.71377E-08   -0.56931E-10 31552   0.446E-05
  22 F= -.84022129E+03 E0= -.84022129E+03  d E =0.000000E+00
       N       E                     dE             d eps       ncg     rms          rms(c)
DAV:   1    -0.840221286029E+03   -0.12224E-07   -0.86161E-10 31744   0.259E-05    0.832E-04
DAV:   2    -0.840221286384E+03   -0.35489E-06   -0.30198E-06 69440   0.729E-04    0.357E-03
DAV:   3    -0.840221286046E+03    0.33795E-06   -0.24541E-07 68800   0.620E-04    0.270E-03
DAV:   4    -0.840221286033E+03    0.13810E-07   -0.14120E-08 48896   0.156E-04    0.222E-03
DAV:   5    -0.840221286018E+03    0.14559E-07   -0.20281E-07 34304   0.887E-05    0.985E-04
DAV:   6    -0.840221286024E+03   -0.57480E-08   -0.56403E-10 31488   0.446E-05
  23 F= -.84022129E+03 E0= -.84022129E+03  d E =0.000000E+00
       N       E                     dE             d eps       ncg     rms          rms(c)
DAV:   1    -0.840221286029E+03   -0.10936E-07   -0.84628E-10 31616   0.259E-05    0.832E-04
DAV:   2    -0.840221286384E+03   -0.35547E-06   -0.30203E-06 69440   0.729E-04    0.357E-03
DAV:   3    -0.840221286046E+03    0.33816E-06   -0.24547E-07 68928   0.620E-04    0.270E-03
DAV:   4    -0.840221286033E+03    0.12893E-07   -0.14117E-08 48576   0.156E-04    0.222E-03
DAV:   5    -0.840221286018E+03    0.15774E-07   -0.20251E-07 34240   0.885E-05    0.985E-04
DAV:   6    -0.840221286024E+03   -0.64611E-08   -0.58165E-10 31424   0.445E-05
  24 F= -.84022129E+03 E0= -.84022129E+03  d E =0.000000E+00
       N       E                     dE             d eps       ncg     rms          rms(c)
DAV:   1    -0.840221286029E+03   -0.11569E-07   -0.84344E-10 31424   0.259E-05    0.831E-04
DAV:   2    -0.840221286384E+03   -0.35518E-06   -0.30182E-06 69440   0.728E-04    0.357E-03
DAV:   3    -0.840221286046E+03    0.33824E-06   -0.24523E-07 68800   0.620E-04    0.270E-03
DAV:   4    -0.840221286033E+03    0.12857E-07   -0.14104E-08 48640   0.156E-04    0.221E-03
DAV:   5    -0.840221286017E+03    0.15891E-07   -0.20326E-07 34048   0.888E-05    0.985E-04
DAV:   6    -0.840221286024E+03   -0.64756E-08   -0.57475E-10 31104   0.447E-05
  25 F= -.84022129E+03 E0= -.84022129E+03  d E =0.000000E+00
       N       E                     dE             d eps       ncg     rms          rms(c)
DAV:   1    -0.840221286029E+03   -0.11198E-07   -0.83639E-10 31168   0.259E-05    0.832E-04
DAV:   2    -0.840221286385E+03   -0.35639E-06   -0.30231E-06 69376   0.729E-04    0.357E-03
DAV:   3    -0.840221286046E+03    0.33886E-06   -0.24579E-07 68736   0.621E-04    0.270E-03
DAV:   4    -0.840221286034E+03    0.12333E-07   -0.14128E-08 48960   0.156E-04    0.222E-03
DAV:   5    -0.840221286017E+03    0.16735E-07   -0.20269E-07 33792   0.886E-05    0.985E-04
DAV:   6    -0.840221286023E+03   -0.64028E-08   -0.57625E-10 31040   0.446E-05
  26 F= -.84022129E+03 E0= -.84022129E+03  d E =0.000000E+00
       N       E                     dE             d eps       ncg     rms          rms(c)
DAV:   1    -0.840221286029E+03   -0.12056E-07   -0.85188E-10 31168   0.259E-05    0.831E-04
DAV:   2    -0.840221286384E+03   -0.35490E-06   -0.30196E-06 69376   0.729E-04    0.357E-03
DAV:   3    -0.840221286046E+03    0.33769E-06   -0.24541E-07 68608   0.620E-04    0.270E-03
DAV:   4    -0.840221286033E+03    0.13177E-07   -0.14132E-08 48704   0.156E-04    0.221E-03
DAV:   5    -0.840221286018E+03    0.15491E-07   -0.20273E-07 33344   0.887E-05    0.985E-04
DAV:   6    -0.840221286024E+03   -0.62428E-08   -0.58285E-10 30720   0.446E-05
  27 F= -.84022129E+03 E0= -.84022129E+03  d E =0.000000E+00
       N       E                     dE             d eps       ncg     rms          rms(c)
DAV:   1    -0.840221286029E+03   -0.11285E-07   -0.84963E-10 30656   0.259E-05    0.832E-04
DAV:   2    -0.840221286384E+03   -0.35547E-06   -0.30202E-06 69440   0.729E-04    0.357E-03
DAV:   3    -0.840221286046E+03    0.33791E-06   -0.24546E-07 68672   0.620E-04    0.270E-03
DAV:   4    -0.840221286033E+03    0.13184E-07   -0.14109E-08 48704   0.156E-04    0.222E-03
DAV:   5    -0.840221286017E+03    0.15774E-07   -0.20252E-07 33216   0.886E-05    0.985E-04
DAV:   6    -0.840221286024E+03   -0.63446E-08   -0.55550E-10 30144   0.446E-05
  28 F= -.84022129E+03 E0= -.84022129E+03  d E =0.000000E+00
       N       E                     dE             d eps       ncg     rms          rms(c)
DAV:   1    -0.840221286030E+03   -0.12078E-07   -0.84008E-10 30208   0.259E-05    0.831E-04
DAV:   2    -0.840221286384E+03   -0.35480E-06   -0.30181E-06 69440   0.728E-04    0.357E-03
DAV:   3    -0.840221286046E+03    0.33816E-06   -0.24522E-07 68480   0.620E-04    0.270E-03
DAV:   4    -0.840221286033E+03    0.13679E-07   -0.14096E-08 48832   0.156E-04    0.222E-03
DAV:   5    -0.840221286018E+03    0.14814E-07   -0.20285E-07 33344   0.887E-05    0.985E-04
DAV:   6    -0.840221286024E+03   -0.62719E-08   -0.57689E-10 30144   0.446E-05
  29 F= -.84022129E+03 E0= -.84022129E+03  d E =0.000000E+00
       N       E                     dE             d eps       ncg     rms          rms(c)
DAV:   1    -0.840221286029E+03   -0.11503E-07   -0.84716E-10 30016   0.259E-05    0.832E-04
DAV:   2    -0.840221286385E+03   -0.35553E-06   -0.30206E-06 69440   0.729E-04    0.357E-03
DAV:   3    -0.840221286046E+03    0.33899E-06   -0.24549E-07 68544   0.620E-04    0.270E-03
DAV:   4    -0.840221286033E+03    0.12609E-07   -0.14112E-08 48832   0.156E-04    0.222E-03
DAV:   5    -0.840221286018E+03    0.15403E-07   -0.20256E-07 32960   0.886E-05    0.985E-04
DAV:   6    -0.840221286024E+03   -0.60099E-08   -0.56960E-10 30016   0.446E-05
  30 F= -.84022129E+03 E0= -.84022129E+03  d E =0.000000E+00
       N       E                     dE             d eps       ncg     rms          rms(c)
DAV:   1    -0.840221286029E+03   -0.11751E-07   -0.85091E-10 30016   0.259E-05    0.831E-04
DAV:   2    -0.840221286384E+03   -0.35461E-06   -0.30185E-06 69376   0.728E-04    0.357E-03
DAV:   3    -0.840221286045E+03    0.33862E-06   -0.24526E-07 68480   0.620E-04    0.270E-03
DAV:   4    -0.840221286033E+03    0.12420E-07   -0.14130E-08 48704   0.156E-04    0.221E-03
DAV:   5    -0.840221286018E+03    0.15345E-07   -0.20293E-07 32768   0.887E-05    0.985E-04
DAV:   6    -0.840221286024E+03   -0.64101E-08   -0.58211E-10 30080   0.447E-05
  31 F= -.84022129E+03 E0= -.84022129E+03  d E =0.000000E+00
       N       E                     dE             d eps       ncg     rms          rms(c)
DAV:   1    -0.840221286029E+03   -0.11190E-07   -0.84581E-10 30016   0.259E-05    0.832E-04
DAV:   2    -0.840221286385E+03   -0.35587E-06   -0.30212E-06 69440   0.729E-04    0.357E-03
DAV:   3    -0.840221286046E+03    0.33888E-06   -0.24558E-07 68672   0.620E-04    0.270E-03
DAV:   4    -0.840221286033E+03    0.12769E-07   -0.14120E-08 48896   0.156E-04    0.222E-03
DAV:   5    -0.840221286018E+03    0.15389E-07   -0.20244E-07 33088   0.885E-05    0.985E-04
DAV:   6    -0.840221286024E+03   -0.62792E-08   -0.57376E-10 30016   0.445E-05
  32 F= -.84022129E+03 E0= -.84022129E+03  d E =0.000000E+00
       N       E                     dE             d eps       ncg     rms          rms(c)
DAV:   1    -0.840221286029E+03   -0.11591E-07   -0.84433E-10 30016   0.259E-05    0.831E-04
DAV:   2    -0.840221286384E+03   -0.35465E-06   -0.30176E-06 69440   0.728E-04    0.357E-03
DAV:   3    -0.840221286046E+03    0.33806E-06   -0.24517E-07 68544   0.620E-04    0.270E-03
DAV:   4    -0.840221286033E+03    0.13366E-07   -0.14094E-08 48512   0.156E-04    0.222E-03
DAV:   5    -0.840221286018E+03    0.14559E-07   -0.20279E-07 32768   0.886E-05    0.985E-04
DAV:   6    -0.840221286024E+03   -0.64101E-08   -0.56642E-10 30016   0.446E-05
  33 F= -.84022129E+03 E0= -.84022129E+03  d E =0.000000E+00
       N       E                     dE             d eps       ncg     rms          rms(c)
DAV:   1    -0.840221286029E+03   -0.10892E-07   -0.84279E-10 30016   0.259E-05    0.832E-04
DAV:   2    -0.840221286384E+03   -0.35542E-06   -0.30202E-06 69376   0.729E-04    0.357E-03
DAV:   3    -0.840221286046E+03    0.33841E-06   -0.24546E-07 68480   0.620E-04    0.270E-03
DAV:   4    -0.840221286033E+03    0.12602E-07   -0.14123E-08 48704   0.156E-04    0.222E-03
DAV:   5    -0.840221286017E+03    0.15876E-07   -0.20275E-07 32832   0.887E-05    0.985E-04
DAV:   6    -0.840221286024E+03   -0.68976E-08   -0.57682E-10 30016   0.446E-05
  34 F= -.84022129E+03 E0= -.84022129E+03  d E =0.000000E+00
       N       E                     dE             d eps       ncg     rms          rms(c)
DAV:   1    -0.840221286030E+03   -0.12187E-07   -0.84401E-10 30016   0.259E-05    0.832E-04
DAV:   2    -0.840221286384E+03   -0.35478E-06   -0.30200E-06 69440   0.729E-04    0.357E-03
DAV:   3    -0.840221286046E+03    0.33853E-06   -0.24545E-07 68608   0.620E-04    0.270E-03
DAV:   4    -0.840221286033E+03    0.12929E-07   -0.14113E-08 48896   0.156E-04    0.222E-03
DAV:   5    -0.840221286017E+03    0.15578E-07   -0.20265E-07 32896   0.886E-05    0.985E-04
DAV:   6    -0.840221286023E+03   -0.60973E-08   -0.57983E-10 29952   0.446E-05
  35 F= -.84022129E+03 E0= -.84022129E+03  d E =0.000000E+00
       N       E                     dE             d eps       ncg     rms          rms(c)
DAV:   1    -0.840221286030E+03   -0.12158E-07   -0.83971E-10 30016   0.259E-05    0.831E-04
DAV:   2    -0.840221286384E+03   -0.35481E-06   -0.30192E-06 69440   0.729E-04    0.357E-03
DAV:   3    -0.840221286046E+03    0.33816E-06   -0.24534E-07 68544   0.620E-04    0.270E-03
DAV:   4    -0.840221286033E+03    0.13351E-07   -0.14111E-08 48512   0.156E-04    0.222E-03
DAV:   5    -0.840221286017E+03    0.15425E-07   -0.20260E-07 32832   0.886E-05    0.985E-04
DAV:   6    -0.840221286024E+03   -0.62355E-08   -0.56615E-10 29824   0.446E-05
  36 F= -.84022129E+03 E0= -.84022129E+03  d E =0.000000E+00
       N       E                     dE             d eps       ncg     rms          rms(c)
DAV:   1    -0.840221286030E+03   -0.12202E-07   -0.85456E-10 29824   0.259E-05    0.831E-04
DAV:   2    -0.840221286384E+03   -0.35406E-06   -0.30188E-06 69376   0.728E-04    0.357E-03
DAV:   3    -0.840221286046E+03    0.33727E-06   -0.24530E-07 68480   0.620E-04    0.270E-03
DAV:   4    -0.840221286033E+03    0.13359E-07   -0.14107E-08 48704   0.156E-04    0.222E-03
DAV:   5    -0.840221286017E+03    0.15600E-07   -0.20273E-07 32704   0.886E-05    0.985E-04
DAV:   6    -0.840221286024E+03   -0.69267E-08   -0.56962E-10 29888   0.446E-05
  37 F= -.84022129E+03 E0= -.84022129E+03  d E =0.000000E+00
       N       E                     dE             d eps       ncg     rms          rms(c)
DAV:   1    -0.840221286030E+03   -0.12100E-07   -0.84938E-10 29824   0.259E-05    0.832E-04
DAV:   2    -0.840221286385E+03   -0.35523E-06   -0.30198E-06 69440   0.729E-04    0.357E-03
DAV:   3    -0.840221286046E+03    0.33873E-06   -0.24542E-07 68544   0.620E-04    0.270E-03
DAV:   4    -0.840221286033E+03    0.12769E-07   -0.14113E-08 48896   0.156E-04    0.222E-03
DAV:   5    -0.840221286018E+03    0.15447E-07   -0.20265E-07 32960   0.886E-05    0.985E-04
DAV:   6    -0.840221286024E+03   -0.58717E-08   -0.56120E-10 29760   0.446E-05
  38 F= -.84022129E+03 E0= -.84022129E+03  d E =0.000000E+00
       N       E                     dE             d eps       ncg     rms          rms(c)
DAV:   1    -0.840221286029E+03   -0.11161E-07   -0.85595E-10 29696   0.259E-05    0.831E-04
DAV:   2    -0.840221286384E+03   -0.35538E-06   -0.30192E-06 69440   0.729E-04    0.357E-03
DAV:   3    -0.840221286046E+03    0.33834E-06   -0.24535E-07 68480   0.620E-04    0.270E-03
DAV:   4    -0.840221286033E+03    0.13148E-07   -0.14130E-08 48640   0.156E-04    0.221E-03
DAV:   5    -0.840221286017E+03    0.15483E-07   -0.20300E-07 32576   0.887E-05    0.985E-04
DAV:   6    -0.840221286024E+03   -0.68248E-08   -0.58807E-10 29568   0.447E-05
  39 F= -.84022129E+03 E0= -.84022129E+03  d E =0.000000E+00
       N       E                     dE             d eps       ncg     rms          rms(c)
DAV:   1    -0.840221286029E+03   -0.11692E-07   -0.84954E-10 29504   0.259E-05    0.832E-04
DAV:   2    -0.840221286384E+03   -0.35542E-06   -0.30216E-06 69376   0.729E-04    0.357E-03
DAV:   3    -0.840221286045E+03    0.33905E-06   -0.24562E-07 68736   0.620E-04    0.270E-03
DAV:   4    -0.840221286033E+03    0.12318E-07   -0.14127E-08 48704   0.156E-04    0.222E-03
DAV:   5    -0.840221286017E+03    0.15832E-07   -0.20272E-07 32768   0.886E-05    0.985E-04
DAV:   6    -0.840221286024E+03   -0.66648E-08   -0.57039E-10 29440   0.446E-05
  40 F= -.84022129E+03 E0= -.84022129E+03  d E =0.000000E+00
       N       E                     dE             d eps       ncg     rms          rms(c)
DAV:   1    -0.840221286029E+03   -0.11896E-07   -0.83900E-10 29440   0.259E-05    0.831E-04
DAV:   2    -0.840221286384E+03   -0.35520E-06   -0.30193E-06 69440   0.729E-04    0.357E-03
DAV:   3    -0.840221286046E+03    0.33837E-06   -0.24534E-07 68480   0.620E-04    0.270E-03
DAV:   4    -0.840221286033E+03    0.13380E-07   -0.14133E-08 48768   0.156E-04    0.222E-03
DAV:   5    -0.840221286017E+03    0.15280E-07   -0.20277E-07 32768   0.886E-05    0.985E-04
DAV:   6    -0.840221286023E+03   -0.59954E-08   -0.57103E-10 29376   0.446E-05
  41 F= -.84022129E+03 E0= -.84022129E+03  d E =0.000000E+00
       N       E                     dE             d eps       ncg     rms          rms(c)
DAV:   1    -0.840221286030E+03   -0.12296E-07   -0.85379E-10 29440   0.259E-05    0.832E-04
DAV:   2    -0.840221286385E+03   -0.35519E-06   -0.30202E-06 69440   0.729E-04    0.357E-03
DAV:   3    -0.840221286046E+03    0.33899E-06   -0.24546E-07 68544   0.620E-04    0.270E-03
DAV:   4    -0.840221286033E+03    0.13089E-07   -0.14125E-08 48640   0.156E-04    0.221E-03
DAV:   5    -0.840221286018E+03    0.15069E-07   -0.20297E-07 32448   0.887E-05    0.985E-04
DAV:   6    -0.840221286024E+03   -0.58862E-08   -0.58238E-10 29376   0.446E-05
  42 F= -.84022129E+03 E0= -.84022129E+03  d E =0.000000E+00
       N       E                     dE             d eps       ncg     rms          rms(c)
DAV:   1    -0.840221286029E+03   -0.11358E-07   -0.83883E-10 29440   0.259E-05    0.832E-04
DAV:   2    -0.840221286384E+03   -0.35537E-06   -0.30216E-06 69376   0.729E-04    0.357E-03
DAV:   3    -0.840221286046E+03    0.33856E-06   -0.24562E-07 68480   0.620E-04    0.270E-03
DAV:   4    -0.840221286033E+03    0.13162E-07   -0.14115E-08 49024   0.156E-04    0.222E-03
DAV:   5    -0.840221286017E+03    0.15585E-07   -0.20263E-07 32256   0.886E-05    0.985E-04
DAV:   6    -0.840221286024E+03   -0.64829E-08   -0.55333E-10 29440   0.446E-05
  43 F= -.84022129E+03 E0= -.84022129E+03  d E =0.000000E+00
       N       E                     dE             d eps       ncg     rms          rms(c)
DAV:   1    -0.840221286029E+03   -0.11896E-07   -0.85079E-10 29440   0.259E-05    0.831E-04
DAV:   2    -0.840221286384E+03   -0.35545E-06   -0.30189E-06 69440   0.728E-04    0.357E-03
DAV:   3    -0.840221286046E+03    0.33868E-06   -0.24529E-07 68352   0.620E-04    0.270E-03
DAV:   4    -0.840221286033E+03    0.12500E-07   -0.14112E-08 48768   0.156E-04    0.222E-03
DAV:   5    -0.840221286017E+03    0.15803E-07   -0.20273E-07 32576   0.886E-05    0.985E-04
DAV:   6    -0.840221286024E+03   -0.67303E-08   -0.57390E-10 29376   0.446E-05
  44 F= -.84022129E+03 E0= -.84022129E+03  d E =0.000000E+00
       N       E                     dE             d eps       ncg     rms          rms(c)
DAV:   1    -0.840221286029E+03   -0.12013E-07   -0.83237E-10 29440   0.259E-05    0.832E-04
DAV:   2    -0.840221286384E+03   -0.35443E-06   -0.30197E-06 69376   0.729E-04    0.357E-03
DAV:   3    -0.840221286046E+03    0.33793E-06   -0.24541E-07 68288   0.620E-04    0.270E-03
DAV:   4    -0.840221286033E+03    0.12646E-07   -0.14118E-08 49024   0.156E-04    0.222E-03
DAV:   5    -0.840221286017E+03    0.15891E-07   -0.20281E-07 32192   0.887E-05    0.985E-04
DAV:   6    -0.840221286024E+03   -0.68540E-08   -0.55788E-10 29440   0.446E-05
  45 F= -.84022129E+03 E0= -.84022129E+03  d E =0.000000E+00
       N       E                     dE             d eps       ncg     rms          rms(c)
DAV:   1    -0.840221286029E+03   -0.11220E-07   -0.84657E-10 29440   0.259E-05    0.832E-04
DAV:   2    -0.840221286384E+03   -0.35564E-06   -0.30203E-06 69504   0.729E-04    0.357E-03
DAV:   3    -0.840221286046E+03    0.33827E-06   -0.24546E-07 68416   0.620E-04    0.270E-03
DAV:   4    -0.840221286033E+03    0.13402E-07   -0.14102E-08 48896   0.156E-04    0.222E-03
DAV:   5    -0.840221286017E+03    0.15134E-07   -0.20266E-07 32256   0.886E-05    0.985E-04
DAV:   6    -0.840221286024E+03   -0.63737E-08   -0.57035E-10 29248   0.446E-05
  46 F= -.84022129E+03 E0= -.84022129E+03  d E =0.000000E+00
       N       E                     dE             d eps       ncg     rms          rms(c)
DAV:   1    -0.840221286029E+03   -0.11642E-07   -0.83246E-10 29248   0.259E-05    0.831E-04
DAV:   2    -0.840221286384E+03   -0.35486E-06   -0.30194E-06 69504   0.729E-04    0.357E-03
DAV:   3    -0.840221286046E+03    0.33770E-06   -0.24534E-07 68288   0.620E-04    0.270E-03
DAV:   4    -0.840221286034E+03    0.12769E-07   -0.14113E-08 49280   0.156E-04    0.222E-03
DAV:   5    -0.840221286018E+03    0.15905E-07   -0.20277E-07 32384   0.887E-05    0.985E-04
DAV:   6    -0.840221286024E+03   -0.61700E-08   -0.57523E-10 29248   0.446E-05
  47 F= -.84022129E+03 E0= -.84022129E+03  d E =0.000000E+00
       N       E                     dE             d eps       ncg     rms          rms(c)
DAV:   1    -0.840221286030E+03   -0.11940E-07   -0.85586E-10 29248   0.259E-05    0.832E-04
DAV:   2    -0.840221286384E+03   -0.35488E-06   -0.30200E-06 69504   0.729E-04    0.357E-03
DAV:   3    -0.840221286046E+03    0.33843E-06   -0.24545E-07 68288   0.620E-04    0.270E-03
DAV:   4    -0.840221286033E+03    0.13046E-07   -0.14124E-08 48768   0.156E-04    0.222E-03
DAV:   5    -0.840221286017E+03    0.15520E-07   -0.20265E-07 32128   0.886E-05    0.985E-04
DAV:   6    -0.840221286024E+03   -0.69776E-08   -0.56467E-10 29248   0.446E-05
  48 F= -.84022129E+03 E0= -.84022129E+03  d E =0.000000E+00
       N       E                     dE             d eps       ncg     rms          rms(c)
DAV:   1    -0.840221286029E+03   -0.11547E-07   -0.85722E-10 29248   0.259E-05    0.831E-04
DAV:   2    -0.840221286384E+03   -0.35503E-06   -0.30192E-06 69504   0.729E-04    0.357E-03
DAV:   3    -0.840221286046E+03    0.33816E-06   -0.24535E-07 68352   0.620E-04    0.270E-03
DAV:   4    -0.840221286033E+03    0.13286E-07   -0.14118E-08 48896   0.156E-04    0.222E-03
DAV:   5    -0.840221286017E+03    0.15214E-07   -0.20260E-07 32064   0.886E-05    0.985E-04
DAV:   6    -0.840221286024E+03   -0.67885E-08   -0.56652E-10 29248   0.446E-05
  49 F= -.84022129E+03 E0= -.84022129E+03  d E =0.000000E+00
       N       E                     dE             d eps       ncg     rms          rms(c)
DAV:   1    -0.840221286029E+03   -0.12020E-07   -0.84419E-10 29248   0.259E-05    0.831E-04
DAV:   2    -0.840221286384E+03   -0.35438E-06   -0.30189E-06 69504   0.728E-04    0.357E-03
DAV:   3    -0.840221286045E+03    0.33837E-06   -0.24531E-07 68288   0.620E-04    0.270E-03
DAV:   4    -0.840221286033E+03    0.12544E-07   -0.14113E-08 49152   0.156E-04    0.222E-03
DAV:   5    -0.840221286018E+03    0.15010E-07   -0.20280E-07 32256   0.887E-05    0.985E-04
DAV:   6    -0.840221286024E+03   -0.59808E-08   -0.56933E-10 29248   0.446E-05
  50 F= -.84022129E+03 E0= -.84022129E+03  d E =0.000000E+00
       N       E                     dE             d eps       ncg     rms          rms(c)
DAV:   1    -0.840221286029E+03   -0.11518E-07   -0.85144E-10 29248   0.259E-05    0.832E-04
DAV:   2    -0.840221286385E+03   -0.35515E-06   -0.30204E-06 69504   0.729E-04    0.357E-03
DAV:   3    -0.840221286046E+03    0.33821E-06   -0.24548E-07 68288   0.620E-04    0.270E-03
DAV:   4    -0.840221286033E+03    0.13235E-07   -0.14129E-08 48768   0.156E-04    0.222E-03
DAV:   5    -0.840221286017E+03    0.15702E-07   -0.20268E-07 32000   0.886E-05    0.985E-04
DAV:   6    -0.840221286024E+03   -0.65484E-08   -0.57716E-10 29248   0.446E-05
  51 F= -.84022129E+03 E0= -.84022129E+03  d E =0.000000E+00
       N       E                     dE             d eps       ncg     rms          rms(c)
DAV:   1    -0.840221286029E+03   -0.11772E-07   -0.84210E-10 29248   0.259E-05    0.831E-04
DAV:   2    -0.840221286384E+03   -0.35479E-06   -0.30194E-06 69504   0.729E-04    0.357E-03
DAV:   3    -0.840221286045E+03    0.33855E-06   -0.24536E-07 68288   0.620E-04    0.270E-03
DAV:   4    -0.840221286033E+03    0.12158E-07   -0.14114E-08 48960   0.156E-04    0.222E-03
DAV:   5    -0.840221286018E+03    0.15512E-07   -0.20277E-07 32064   0.887E-05    0.985E-04
DAV:   6    -0.840221286024E+03   -0.61627E-08   -0.58690E-10 29248   0.446E-05
  52 F= -.84022129E+03 E0= -.84022129E+03  d E =0.000000E+00
       N       E                     dE             d eps       ncg     rms          rms(c)
DAV:   1    -0.840221286029E+03   -0.11292E-07   -0.84721E-10 29248   0.259E-05    0.832E-04
DAV:   2    -0.840221286384E+03   -0.35533E-06   -0.30200E-06 69504   0.729E-04    0.357E-03
DAV:   3    -0.840221286046E+03    0.33784E-06   -0.24545E-07 68352   0.620E-04    0.270E-03
DAV:   4    -0.840221286033E+03    0.13773E-07   -0.14117E-08 49216   0.156E-04    0.222E-03
DAV:   5    -0.840221286018E+03    0.14996E-07   -0.20299E-07 32128   0.887E-05    0.985E-04
DAV:   6    -0.840221286024E+03   -0.63010E-08   -0.57637E-10 29312   0.446E-05
  53 F= -.84022129E+03 E0= -.84022129E+03  d E =0.000000E+00
       N       E                     dE             d eps       ncg     rms          rms(c)
DAV:   1    -0.840221286029E+03   -0.11212E-07   -0.85831E-10 29248   0.259E-05    0.832E-04
DAV:   2    -0.840221286384E+03   -0.35529E-06   -0.30213E-06 69504   0.729E-04    0.357E-03
DAV:   3    -0.840221286045E+03    0.33883E-06   -0.24558E-07 68416   0.620E-04    0.270E-03
DAV:   4    -0.840221286033E+03    0.12653E-07   -0.14123E-08 48960   0.156E-04    0.222E-03
DAV:   5    -0.840221286018E+03    0.15170E-07   -0.20268E-07 32064   0.886E-05    0.985E-04
DAV:   6    -0.840221286024E+03   -0.59372E-08   -0.57653E-10 29312   0.446E-05
  54 F= -.84022129E+03 E0= -.84022129E+03  d E =0.000000E+00
       N       E                     dE             d eps       ncg     rms          rms(c)
DAV:   1    -0.840221286029E+03   -0.11722E-07   -0.85945E-10 29248   0.259E-05    0.832E-04
DAV:   2    -0.840221286385E+03   -0.35524E-06   -0.30196E-06 69504   0.729E-04    0.357E-03
DAV:   3    -0.840221286046E+03    0.33868E-06   -0.24539E-07 68288   0.620E-04    0.270E-03
DAV:   4    -0.840221286033E+03    0.13089E-07   -0.14127E-08 48832   0.156E-04    0.222E-03
DAV:   5    -0.840221286017E+03    0.15338E-07   -0.20278E-07 32064   0.886E-05    0.985E-04
DAV:   6    -0.840221286024E+03   -0.65484E-08   -0.56384E-10 29312   0.446E-05
  55 F= -.84022129E+03 E0= -.84022129E+03  d E =0.000000E+00
       N       E                     dE             d eps       ncg     rms          rms(c)
DAV:   1    -0.840221286029E+03   -0.11867E-07   -0.85026E-10 29248   0.259E-05    0.832E-04
DAV:   2    -0.840221286385E+03   -0.35534E-06   -0.30201E-06 69504   0.729E-04    0.357E-03
DAV:   3    -0.840221286046E+03    0.33823E-06   -0.24545E-07 68288   0.620E-04    0.270E-03
DAV:   4    -0.840221286033E+03    0.13693E-07   -0.14138E-08 49088   0.156E-04    0.222E-03
DAV:   5    -0.840221286018E+03    0.15098E-07   -0.20280E-07 32128   0.887E-05    0.985E-04
DAV:   6    -0.840221286024E+03   -0.67230E-08   -0.56646E-10 29312   0.446E-05
  56 F= -.84022129E+03 E0= -.84022129E+03  d E =0.000000E+00
       N       E                     dE             d eps       ncg     rms          rms(c)
DAV:   1    -0.840221286029E+03   -0.11612E-07   -0.86186E-10 29248   0.259E-05    0.832E-04
DAV:   2    -0.840221286384E+03   -0.35487E-06   -0.30204E-06 69504   0.729E-04    0.357E-03
DAV:   3    -0.840221286046E+03    0.33838E-06   -0.24549E-07 68416   0.620E-04    0.270E-03
DAV:   4    -0.840221286033E+03    0.12602E-07   -0.14131E-08 48960   0.156E-04    0.222E-03
DAV:   5    -0.840221286017E+03    0.15621E-07   -0.20268E-07 31936   0.886E-05    0.985E-04
DAV:   6    -0.840221286024E+03   -0.61191E-08   -0.56871E-10 29312   0.446E-05
  57 F= -.84022129E+03 E0= -.84022129E+03  d E =0.000000E+00
       N       E                     dE             d eps       ncg     rms          rms(c)
DAV:   1    -0.840221286030E+03   -0.12027E-07   -0.84828E-10 29248   0.259E-05    0.831E-04
DAV:   2    -0.840221286384E+03   -0.35464E-06   -0.30194E-06 69504   0.729E-04    0.357E-03
DAV:   3    -0.840221286045E+03    0.33871E-06   -0.24537E-07 68224   0.620E-04    0.270E-03
DAV:   4    -0.840221286033E+03    0.12376E-07   -0.14100E-08 48832   0.156E-04    0.222E-03
DAV:   5    -0.840221286018E+03    0.14974E-07   -0.20277E-07 32192   0.887E-05    0.985E-04
DAV:   6    -0.840221286024E+03   -0.58135E-08   -0.57151E-10 29312   0.446E-05
  58 F= -.84022129E+03 E0= -.84022129E+03  d E =0.000000E+00
       N       E                     dE             d eps       ncg     rms          rms(c)
DAV:   1    -0.840221286029E+03   -0.10477E-07   -0.84962E-10 29248   0.259E-05    0.832E-04
DAV:   2    -0.840221286384E+03   -0.35542E-06   -0.30200E-06 69504   0.729E-04    0.357E-03
DAV:   3    -0.840221286046E+03    0.33757E-06   -0.24544E-07 68352   0.620E-04    0.270E-03
DAV:   4    -0.840221286033E+03    0.13686E-07   -0.14117E-08 49088   0.156E-04    0.222E-03
DAV:   5    -0.840221286018E+03    0.15119E-07   -0.20264E-07 32000   0.886E-05    0.985E-04
DAV:   6    -0.840221286024E+03   -0.64611E-08   -0.58099E-10 29312   0.446E-05
  59 F= -.84022129E+03 E0= -.84022129E+03  d E =0.000000E+00
       N       E                     dE             d eps       ncg     rms          rms(c)
DAV:   1    -0.840221286029E+03   -0.11540E-07   -0.84677E-10 29248   0.259E-05    0.831E-04
DAV:   2    -0.840221286384E+03   -0.35496E-06   -0.30192E-06 69504   0.729E-04    0.357E-03
DAV:   3    -0.840221286046E+03    0.33841E-06   -0.24535E-07 68288   0.620E-04    0.270E-03
DAV:   4    -0.840221286033E+03    0.12580E-07   -0.14131E-08 48832   0.156E-04    0.222E-03
DAV:   5    -0.840221286017E+03    0.15949E-07   -0.20277E-07 32128   0.886E-05    0.985E-04
DAV:   6    -0.840221286024E+03   -0.64829E-08   -0.57612E-10 29312   0.446E-05
  60 F= -.84022129E+03 E0= -.84022129E+03  d E =0.000000E+00
       N       E                     dE             d eps       ncg     rms          rms(c)
DAV:   1    -0.840221286029E+03   -0.12013E-07   -0.85577E-10 29248   0.259E-05    0.832E-04
DAV:   2    -0.840221286385E+03   -0.35557E-06   -0.30200E-06 69504   0.729E-04    0.357E-03
DAV:   3    -0.840221286046E+03    0.33918E-06   -0.24544E-07 68288   0.620E-04    0.270E-03
DAV:   4    -0.840221286033E+03    0.12129E-07   -0.14117E-08 49088   0.156E-04    0.222E-03
DAV:   5    -0.840221286018E+03    0.15520E-07   -0.20264E-07 32000   0.886E-05    0.985E-04
DAV:   6    -0.840221286024E+03   -0.59299E-08   -0.58827E-10 29312   0.446E-05
  61 F= -.84022129E+03 E0= -.84022129E+03  d E =0.000000E+00
       N       E                     dE             d eps       ncg     rms          rms(c)
DAV:   1    -0.840221286029E+03   -0.11350E-07   -0.84206E-10 29248   0.259E-05    0.831E-04
DAV:   2    -0.840221286384E+03   -0.35480E-06   -0.30192E-06 69504   0.729E-04    0.357E-03
DAV:   3    -0.840221286046E+03    0.33821E-06   -0.24535E-07 68288   0.620E-04    0.270E-03
DAV:   4    -0.840221286034E+03    0.12369E-07   -0.14113E-08 49152   0.156E-04    0.222E-03
DAV:   5    -0.840221286018E+03    0.15571E-07   -0.20260E-07 32192   0.886E-05    0.985E-04
DAV:   6    -0.840221286024E+03   -0.60681E-08   -0.57215E-10 29312   0.446E-05
  62 F= -.84022129E+03 E0= -.84022129E+03  d E =0.000000E+00
       N       E                     dE             d eps       ncg     rms          rms(c)
DAV:   1    -0.840221286029E+03   -0.10732E-07   -0.85033E-10 29248   0.259E-05    0.831E-04
DAV:   2    -0.840221286384E+03   -0.35557E-06   -0.30189E-06 69504   0.728E-04    0.357E-03
DAV:   3    -0.840221286046E+03    0.33776E-06   -0.24529E-07 68288   0.620E-04    0.270E-03
DAV:   4    -0.840221286033E+03    0.13373E-07   -0.14106E-08 48960   0.156E-04    0.222E-03
DAV:   5    -0.840221286017E+03    0.16254E-07   -0.20273E-07 31936   0.886E-05    0.985E-04
DAV:   6    -0.840221286023E+03   -0.64319E-08   -0.57546E-10 29312   0.446E-05
  63 F= -.84022129E+03 E0= -.84022129E+03  d E =0.000000E+00
       N       E                     dE             d eps       ncg     rms          rms(c)
DAV:   1    -0.840221286029E+03   -0.12391E-07   -0.86159E-10 29248   0.259E-05    0.832E-04
DAV:   2    -0.840221286384E+03   -0.35508E-06   -0.30198E-06 69504   0.729E-04    0.357E-03
DAV:   3    -0.840221286046E+03    0.33786E-06   -0.24540E-07 68288   0.620E-04    0.270E-03
DAV:   4    -0.840221286033E+03    0.13053E-07   -0.14105E-08 48960   0.156E-04    0.222E-03
DAV:   5    -0.840221286017E+03    0.16080E-07   -0.20265E-07 32128   0.886E-05    0.985E-04
DAV:   6    -0.840221286024E+03   -0.71232E-08   -0.56786E-10 29184   0.446E-05
  64 F= -.84022129E+03 E0= -.84022129E+03  d E =0.000000E+00
       N       E                     dE             d eps       ncg     rms          rms(c)
DAV:   1    -0.840221286029E+03   -0.11460E-07   -0.85134E-10 29056   0.259E-05    0.831E-04
DAV:   2    -0.840221286384E+03   -0.35567E-06   -0.30192E-06 69504   0.729E-04    0.357E-03
DAV:   3    -0.840221286045E+03    0.33905E-06   -0.24535E-07 68224   0.620E-04    0.270E-03
DAV:   4    -0.840221286033E+03    0.12544E-07   -0.14120E-08 49088   0.156E-04    0.222E-03
DAV:   5    -0.840221286018E+03    0.15272E-07   -0.20275E-07 32128   0.886E-05    0.985E-04
DAV:   6    -0.840221286024E+03   -0.63737E-08   -0.57336E-10 29184   0.446E-05
  65 F= -.84022129E+03 E0= -.84022129E+03  d E =0.000000E+00
       N       E                     dE             d eps       ncg     rms          rms(c)
DAV:   1    -0.840221286029E+03   -0.11591E-07   -0.85407E-10 29056   0.259E-05    0.832E-04
DAV:   2    -0.840221286384E+03   -0.35518E-06   -0.30200E-06 69504   0.729E-04    0.357E-03
DAV:   3    -0.840221286046E+03    0.33815E-06   -0.24545E-07 68288   0.620E-04    0.270E-03
DAV:   4    -0.840221286033E+03    0.13089E-07   -0.14125E-08 48832   0.156E-04    0.222E-03
DAV:   5    -0.840221286018E+03    0.15483E-07   -0.20266E-07 32000   0.886E-05    0.985E-04
DAV:   6    -0.840221286024E+03   -0.63592E-08   -0.57094E-10 29120   0.446E-05
  66 F= -.84022129E+03 E0= -.84022129E+03  d E =0.000000E+00
       N       E                     dE             d eps       ncg     rms          rms(c)
DAV:   1    -0.840221286030E+03   -0.11976E-07   -0.84488E-10 29056   0.259E-05    0.831E-04
DAV:   2    -0.840221286384E+03   -0.35435E-06   -0.30193E-06 69504   0.729E-04    0.357E-03
DAV:   3    -0.840221286045E+03    0.33858E-06   -0.24535E-07 68288   0.620E-04    0.270E-03
DAV:   4    -0.840221286033E+03    0.12216E-07   -0.14127E-08 48960   0.156E-04    0.222E-03
DAV:   5    -0.840221286018E+03    0.15432E-07   -0.20277E-07 32000   0.886E-05    0.985E-04
DAV:   6    -0.840221286024E+03   -0.62646E-08   -0.58385E-10 29120   0.446E-05
  67 F= -.84022129E+03 E0= -.84022129E+03  d E =0.000000E+00
       N       E                     dE             d eps       ncg     rms          rms(c)
DAV:   1    -0.840221286029E+03   -0.11663E-07   -0.84474E-10 29056   0.259E-05    0.832E-04
DAV:   2    -0.840221286384E+03   -0.35459E-06   -0.30200E-06 69504   0.729E-04    0.357E-03
DAV:   3    -0.840221286046E+03    0.33771E-06   -0.24544E-07 68224   0.620E-04    0.270E-03
DAV:   4    -0.840221286033E+03    0.13380E-07   -0.14115E-08 48960   0.156E-04    0.222E-03
DAV:   5    -0.840221286017E+03    0.15541E-07   -0.20281E-07 32128   0.887E-05    0.985E-04
DAV:   6    -0.840221286024E+03   -0.70868E-08   -0.57424E-10 29120   0.446E-05
  68 F= -.84022129E+03 E0= -.84022129E+03  d E =0.000000E+00
       N       E                     dE             d eps       ncg     rms          rms(c)
DAV:   1    -0.840221286029E+03   -0.11751E-07   -0.85571E-10 29056   0.259E-05    0.832E-04
DAV:   2    -0.840221286384E+03   -0.35523E-06   -0.30204E-06 69504   0.729E-04    0.357E-03
DAV:   3    -0.840221286046E+03    0.33826E-06   -0.24546E-07 68224   0.620E-04    0.270E-03
DAV:   4    -0.840221286033E+03    0.12755E-07   -0.14129E-08 49088   0.156E-04    0.222E-03
DAV:   5    -0.840221286017E+03    0.16225E-07   -0.20274E-07 31936   0.887E-05    0.985E-04
DAV:   6    -0.840221286024E+03   -0.65338E-08   -0.57718E-10 29120   0.446E-05
  69 F= -.84022129E+03 E0= -.84022129E+03  d E =0.000000E+00
       N       E                     dE             d eps       ncg     rms          rms(c)
DAV:   1    -0.840221286029E+03   -0.12355E-07   -0.84862E-10 29056   0.259E-05    0.832E-04
DAV:   2    -0.840221286385E+03   -0.35515E-06   -0.30200E-06 69504   0.729E-04    0.357E-03
DAV:   3    -0.840221286046E+03    0.33863E-06   -0.24544E-07 68288   0.620E-04    0.270E-03
DAV:   4    -0.840221286034E+03    0.12384E-07   -0.14117E-08 49024   0.156E-04    0.222E-03
DAV:   5    -0.840221286018E+03    0.15956E-07   -0.20266E-07 32000   0.886E-05    0.985E-04
DAV:   6    -0.840221286023E+03   -0.57989E-08   -0.58030E-10 29120   0.446E-05
  70 F= -.84022129E+03 E0= -.84022129E+03  d E =0.000000E+00
       N       E                     dE             d eps       ncg     rms          rms(c)
DAV:   1    -0.840221286029E+03   -0.11598E-07   -0.85826E-10 29056   0.259E-05    0.831E-04
DAV:   2    -0.840221286384E+03   -0.35487E-06   -0.30192E-06 69504   0.729E-04    0.357E-03
DAV:   3    -0.840221286046E+03    0.33834E-06   -0.24534E-07 68224   0.620E-04    0.270E-03
DAV:   4    -0.840221286033E+03    0.13060E-07   -0.14135E-08 48960   0.156E-04    0.222E-03
DAV:   5    -0.840221286017E+03    0.15207E-07   -0.20276E-07 32000   0.886E-05    0.985E-04
DAV:   6    -0.840221286024E+03   -0.70067E-08   -0.56251E-10 29120   0.446E-05
  71 F= -.84022129E+03 E0= -.84022129E+03  d E =0.000000E+00
       N       E                     dE             d eps       ncg     rms          rms(c)
DAV:   1    -0.840221286029E+03   -0.11118E-07   -0.83802E-10 29056   0.259E-05    0.832E-04
DAV:   2    -0.840221286384E+03   -0.35561E-06   -0.30199E-06 69504   0.729E-04    0.357E-03
DAV:   3    -0.840221286045E+03    0.33885E-06   -0.24542E-07 68224   0.620E-04    0.270E-03
DAV:   4    -0.840221286034E+03    0.11736E-07   -0.14114E-08 48960   0.156E-04    0.222E-03
DAV:   5    -0.840221286018E+03    0.15556E-07   -0.20258E-07 32064   0.886E-05    0.985E-04
DAV:   6    -0.840221286024E+03   -0.63519E-08   -0.56469E-10 29120   0.446E-05
  72 F= -.84022129E+03 E0= -.84022129E+03  d E =0.000000E+00
       N       E                     dE             d eps       ncg     rms          rms(c)
DAV:   1    -0.840221286029E+03   -0.11059E-07   -0.85786E-10 29056   0.259E-05    0.831E-04
DAV:   2    -0.840221286384E+03   -0.35521E-06   -0.30187E-06 69504   0.728E-04    0.357E-03
DAV:   3    -0.840221286046E+03    0.33790E-06   -0.24527E-07 68160   0.620E-04    0.270E-03
DAV:   4    -0.840221286033E+03    0.13402E-07   -0.14119E-08 48960   0.156E-04    0.221E-03
DAV:   5    -0.840221286017E+03    0.15723E-07   -0.20295E-07 31744   0.887E-05    0.985E-04
DAV:   6    -0.840221286023E+03   -0.61482E-08   -0.57246E-10 29120   0.447E-05
  73 F= -.84022129E+03 E0= -.84022129E+03  d E =0.000000E+00
       N       E                     dE             d eps       ncg     rms          rms(c)
DAV:   1    -0.840221286029E+03   -0.11947E-07   -0.85927E-10 28928   0.259E-05    0.832E-04
DAV:   2    -0.840221286385E+03   -0.35531E-06   -0.30213E-06 69504   0.729E-04    0.357E-03
DAV:   3    -0.840221286045E+03    0.33915E-06   -0.24561E-07 68416   0.620E-04    0.270E-03
DAV:   4    -0.840221286033E+03    0.12216E-07   -0.14119E-08 48832   0.156E-04    0.222E-03
DAV:   5    -0.840221286017E+03    0.15891E-07   -0.20278E-07 32128   0.886E-05    0.985E-04
DAV:   6    -0.840221286024E+03   -0.66357E-08   -0.57673E-10 29056   0.446E-05
  74 F= -.84022129E+03 E0= -.84022129E+03  d E =0.000000E+00
       N       E                     dE             d eps       ncg     rms          rms(c)
DAV:   1    -0.840221286029E+03   -0.11933E-07   -0.85141E-10 28864   0.259E-05    0.832E-04
DAV:   2    -0.840221286384E+03   -0.35504E-06   -0.30197E-06 69504   0.729E-04    0.357E-03
DAV:   3    -0.840221286045E+03    0.33892E-06   -0.24541E-07 68224   0.620E-04    0.270E-03
DAV:   4    -0.840221286033E+03    0.12202E-07   -0.14114E-08 49088   0.156E-04    0.222E-03
DAV:   5    -0.840221286018E+03    0.15476E-07   -0.20289E-07 31872   0.887E-05    0.985E-04
DAV:   6    -0.840221286024E+03   -0.65629E-08   -0.57481E-10 28992   0.446E-05
  75 F= -.84022129E+03 E0= -.84022129E+03  d E =0.000000E+00
       N       E                     dE             d eps       ncg     rms          rms(c)
DAV:   1    -0.840221286028E+03   -0.10783E-07   -0.83883E-10 28864   0.259E-05    0.832E-04
DAV:   2    -0.840221286384E+03   -0.35593E-06   -0.30210E-06 69504   0.729E-04    0.357E-03
DAV:   3    -0.840221286046E+03    0.33836E-06   -0.24555E-07 68160   0.620E-04    0.270E-03
DAV:   4    -0.840221286033E+03    0.13366E-07   -0.14127E-08 48832   0.156E-04    0.222E-03
DAV:   5    -0.840221286018E+03    0.14894E-07   -0.20281E-07 32000   0.887E-05    0.985E-04
DAV:   6    -0.840221286024E+03   -0.61700E-08   -0.56518E-10 28992   0.446E-05
  76 F= -.84022129E+03 E0= -.84022129E+03  d E =0.000000E+00
       N       E                     dE             d eps       ncg     rms          rms(c)
DAV:   1    -0.840221286029E+03   -0.11154E-07   -0.84382E-10 28864   0.259E-05    0.832E-04
DAV:   2    -0.840221286384E+03   -0.35554E-06   -0.30202E-06 69504   0.729E-04    0.357E-03
DAV:   3    -0.840221286046E+03    0.33894E-06   -0.24545E-07 68288   0.620E-04    0.270E-03
DAV:   4    -0.840221286033E+03    0.12267E-07   -0.14103E-08 49280   0.156E-04    0.222E-03
DAV:   5    -0.840221286018E+03    0.15694E-07   -0.20265E-07 31936   0.886E-05    0.985E-04
DAV:   6    -0.840221286024E+03   -0.65484E-08   -0.57898E-10 28992   0.446E-05
  77 F= -.84022129E+03 E0= -.84022129E+03  d E =0.000000E+00
       N       E                     dE             d eps       ncg     rms          rms(c)
DAV:   1    -0.840221286029E+03   -0.11416E-07   -0.84355E-10 28864   0.259E-05    0.831E-04
DAV:   2    -0.840221286384E+03   -0.35475E-06   -0.30193E-06 69504   0.729E-04    0.357E-03
DAV:   3    -0.840221286045E+03    0.33834E-06   -0.24534E-07 68224   0.620E-04    0.270E-03
DAV:   4    -0.840221286033E+03    0.11976E-07   -0.14139E-08 48832   0.156E-04    0.222E-03
DAV:   5    -0.840221286018E+03    0.15796E-07   -0.20277E-07 31808   0.886E-05    0.985E-04
DAV:   6    -0.840221286024E+03   -0.63665E-08   -0.57620E-10 28928   0.446E-05
  78 F= -.84022129E+03 E0= -.84022129E+03  d E =0.000000E+00
       N       E                     dE             d eps       ncg     rms          rms(c)
DAV:   1    -0.840221286029E+03   -0.11401E-07   -0.85608E-10 28864   0.259E-05    0.832E-04
DAV:   2    -0.840221286384E+03   -0.35495E-06   -0.30199E-06 69504   0.729E-04    0.357E-03
DAV:   3    -0.840221286046E+03    0.33809E-06   -0.24544E-07 68288   0.620E-04    0.270E-03
DAV:   4    -0.840221286033E+03    0.12733E-07   -0.14113E-08 48960   0.156E-04    0.222E-03
DAV:   5    -0.840221286018E+03    0.15105E-07   -0.20248E-07 31808   0.885E-05    0.985E-04
DAV:   6    -0.840221286024E+03   -0.62646E-08   -0.56911E-10 28928   0.445E-05
  79 F= -.84022129E+03 E0= -.84022129E+03  d E =0.000000E+00
       N       E                     dE             d eps       ncg     rms          rms(c)
DAV:   1    -0.840221286030E+03   -0.11576E-07   -0.86165E-10 28864   0.259E-05    0.831E-04
DAV:   2    -0.840221286385E+03   -0.35496E-06   -0.30181E-06 69504   0.728E-04    0.357E-03
DAV:   3    -0.840221286046E+03    0.33826E-06   -0.24520E-07 68224   0.620E-04    0.270E-03
DAV:   4    -0.840221286034E+03    0.12762E-07   -0.14115E-08 48960   0.156E-04    0.222E-03
DAV:   5    -0.840221286018E+03    0.15527E-07   -0.20283E-07 31808   0.886E-05    0.985E-04
DAV:   6    -0.840221286024E+03   -0.58426E-08   -0.57392E-10 28928   0.446E-05
  80 F= -.84022129E+03 E0= -.84022129E+03  d E =0.000000E+00
       N       E                     dE             d eps       ncg     rms          rms(c)
DAV:   1    -0.840221286029E+03   -0.10652E-07   -0.84755E-10 28864   0.259E-05    0.832E-04
DAV:   2    -0.840221286384E+03   -0.35556E-06   -0.30205E-06 69504   0.729E-04    0.357E-03
DAV:   3    -0.840221286046E+03    0.33827E-06   -0.24550E-07 68416   0.620E-04    0.270E-03
DAV:   4    -0.840221286033E+03    0.13155E-07   -0.14117E-08 48960   0.156E-04    0.222E-03
DAV:   5    -0.840221286018E+03    0.14988E-07   -0.20256E-07 31680   0.886E-05    0.985E-04
DAV:   6    -0.840221286024E+03   -0.63519E-08   -0.55932E-10 28928   0.446E-05
  81 F= -.84022129E+03 E0= -.84022129E+03  d E =0.000000E+00
       N       E                     dE             d eps       ncg     rms          rms(c)
DAV:   1    -0.840221286029E+03   -0.10732E-07   -0.84137E-10 28864   0.259E-05    0.831E-04
DAV:   2    -0.840221286385E+03   -0.35598E-06   -0.30185E-06 69504   0.728E-04    0.357E-03
DAV:   3    -0.840221286046E+03    0.33834E-06   -0.24527E-07 68160   0.620E-04    0.270E-03
DAV:   4    -0.840221286033E+03    0.12784E-07   -0.14125E-08 48960   0.156E-04    0.221E-03
DAV:   5    -0.840221286017E+03    0.15993E-07   -0.20300E-07 31872   0.887E-05    0.985E-04
DAV:   6    -0.840221286024E+03   -0.63665E-08   -0.56949E-10 28928   0.447E-05
  82 F= -.84022129E+03 E0= -.84022129E+03  d E =0.000000E+00
       N       E                     dE             d eps       ncg     rms          rms(c)
DAV:   1    -0.840221286029E+03   -0.11547E-07   -0.85141E-10 28864   0.259E-05    0.832E-04
DAV:   2    -0.840221286385E+03   -0.35581E-06   -0.30218E-06 69504   0.729E-04    0.357E-03
DAV:   3    -0.840221286046E+03    0.33850E-06   -0.24563E-07 68352   0.620E-04    0.270E-03
DAV:   4    -0.840221286033E+03    0.12886E-07   -0.14124E-08 49088   0.156E-04    0.222E-03
DAV:   5    -0.840221286018E+03    0.15709E-07   -0.20248E-07 31744   0.886E-05    0.985E-04
DAV:   6    -0.840221286024E+03   -0.61482E-08   -0.55447E-10 28928   0.445E-05
  83 F= -.84022129E+03 E0= -.84022129E+03  d E =0.000000E+00
       N       E                     dE             d eps       ncg     rms          rms(c)
DAV:   1    -0.840221286030E+03   -0.11845E-07   -0.83625E-10 28864   0.259E-05    0.831E-04
DAV:   2    -0.840221286384E+03   -0.35448E-06   -0.30179E-06 69504   0.728E-04    0.357E-03
DAV:   3    -0.840221286046E+03    0.33795E-06   -0.24519E-07 68160   0.620E-04    0.270E-03
DAV:   4    -0.840221286034E+03    0.12486E-07   -0.14107E-08 48704   0.156E-04    0.221E-03
DAV:   5    -0.840221286018E+03    0.15636E-07   -0.20298E-07 31872   0.887E-05    0.985E-04
DAV:   6    -0.840221286024E+03   -0.60536E-08   -0.57997E-10 28736   0.447E-05
  84 F= -.84022129E+03 E0= -.84022129E+03  d E =0.000000E+00
       N       E                     dE             d eps       ncg     rms          rms(c)
DAV:   1    -0.840221286029E+03   -0.11045E-07   -0.85374E-10 28672   0.259E-05    0.832E-04
DAV:   2    -0.840221286384E+03   -0.35535E-06   -0.30215E-06 69568   0.729E-04    0.357E-03
DAV:   3    -0.840221286046E+03    0.33843E-06   -0.24562E-07 68352   0.620E-04    0.270E-03
DAV:   4    -0.840221286033E+03    0.12726E-07   -0.14111E-08 49088   0.156E-04    0.222E-03
DAV:   5    -0.840221286018E+03    0.15520E-07   -0.20228E-07 31680   0.885E-05    0.984E-04
DAV:   6    -0.840221286024E+03   -0.62646E-08   -0.56227E-10 28736   0.445E-05
  85 F= -.84022129E+03 E0= -.84022129E+03  d E =0.000000E+00
       N       E                     dE             d eps       ncg     rms          rms(c)
DAV:   1    -0.840221286029E+03   -0.11030E-07   -0.84901E-10 28672   0.259E-05    0.831E-04
DAV:   2    -0.840221286384E+03   -0.35501E-06   -0.30170E-06 69504   0.728E-04    0.357E-03
DAV:   3    -0.840221286046E+03    0.33724E-06   -0.24509E-07 68288   0.620E-04    0.270E-03
DAV:   4    -0.840221286033E+03    0.13468E-07   -0.14098E-08 48960   0.155E-04    0.222E-03
DAV:   5    -0.840221286017E+03    0.15541E-07   -0.20257E-07 31872   0.885E-05    0.985E-04
DAV:   6    -0.840221286024E+03   -0.62137E-08   -0.56129E-10 28736   0.446E-05
  86 F= -.84022129E+03 E0= -.84022129E+03  d E =0.000000E+00
       N       E                     dE             d eps       ncg     rms          rms(c)
DAV:   1    -0.840221286029E+03   -0.11736E-07   -0.82600E-10 28672   0.259E-05    0.831E-04
DAV:   2    -0.840221286384E+03   -0.35518E-06   -0.30187E-06 69504   0.728E-04    0.357E-03
DAV:   3    -0.840221286046E+03    0.33869E-06   -0.24528E-07 68288   0.620E-04    0.270E-03
DAV:   4    -0.840221286033E+03    0.12551E-07   -0.14106E-08 48832   0.156E-04    0.222E-03
DAV:   5    -0.840221286017E+03    0.15840E-07   -0.20314E-07 31744   0.887E-05    0.985E-04
DAV:   6    -0.840221286024E+03   -0.71450E-08   -0.59168E-10 28736   0.447E-05
  87 F= -.84022129E+03 E0= -.84022129E+03  d E =0.000000E+00
       N       E                     dE             d eps       ncg     rms          rms(c)
DAV:   1    -0.840221286029E+03   -0.11918E-07   -0.86024E-10 28672   0.259E-05    0.832E-04
DAV:   2    -0.840221286385E+03   -0.35547E-06   -0.30225E-06 69568   0.729E-04    0.357E-03
DAV:   3    -0.840221286046E+03    0.33883E-06   -0.24573E-07 68352   0.620E-04    0.270E-03
DAV:   4    -0.840221286033E+03    0.13169E-07   -0.14144E-08 49152   0.156E-04    0.222E-03
DAV:   5    -0.840221286018E+03    0.14647E-07   -0.20251E-07 31616   0.886E-05    0.985E-04
DAV:   6    -0.840221286024E+03   -0.59372E-08   -0.56954E-10 28736   0.446E-05
  88 F= -.84022129E+03 E0= -.84022129E+03  d E =0.000000E+00
       N       E                     dE             d eps       ncg     rms          rms(c)
DAV:   1    -0.840221286029E+03   -0.10652E-07   -0.84314E-10 28672   0.259E-05    0.831E-04
DAV:   2    -0.840221286385E+03   -0.35592E-06   -0.30189E-06 69504   0.728E-04    0.357E-03
DAV:   3    -0.840221286046E+03    0.33891E-06   -0.24528E-07 68224   0.620E-04    0.270E-03
DAV:   4    -0.840221286033E+03    0.13017E-07   -0.14120E-08 48960   0.156E-04    0.222E-03
DAV:   5    -0.840221286017E+03    0.15410E-07   -0.20276E-07 31680   0.886E-05    0.985E-04
DAV:   6    -0.840221286024E+03   -0.62355E-08   -0.56201E-10 28736   0.446E-05
  89 F= -.84022129E+03 E0= -.84022129E+03  d E =0.000000E+00
       N       E                     dE             d eps       ncg     rms          rms(c)
DAV:   1    -0.840221286029E+03   -0.11547E-07   -0.85298E-10 28672   0.259E-05    0.832E-04
DAV:   2    -0.840221286385E+03   -0.35609E-06   -0.30201E-06 69504   0.729E-04    0.357E-03
DAV:   3    -0.840221286046E+03    0.33897E-06   -0.24545E-07 68224   0.620E-04    0.270E-03
DAV:   4    -0.840221286033E+03    0.13068E-07   -0.14132E-08 48832   0.156E-04    0.222E-03
DAV:   5    -0.840221286018E+03    0.15280E-07   -0.20282E-07 31616   0.887E-05    0.985E-04
DAV:   6    -0.840221286024E+03   -0.65920E-08   -0.57429E-10 28736   0.446E-05
  90 F= -.84022129E+03 E0= -.84022129E+03  d E =0.000000E+00
       N       E                     dE             d eps       ncg     rms          rms(c)
DAV:   1    -0.840221286029E+03   -0.11416E-07   -0.83956E-10 28672   0.259E-05    0.832E-04
DAV:   2    -0.840221286384E+03   -0.35529E-06   -0.30205E-06 69504   0.729E-04    0.357E-03
DAV:   3    -0.840221286046E+03    0.33828E-06   -0.24549E-07 68288   0.620E-04    0.270E-03
DAV:   4    -0.840221286033E+03    0.12988E-07   -0.14102E-08 48832   0.156E-04    0.222E-03
DAV:   5    -0.840221286018E+03    0.15134E-07   -0.20252E-07 31616   0.886E-05    0.985E-04
DAV:   6    -0.840221286024E+03   -0.57044E-08   -0.55673E-10 28736   0.446E-05
  91 F= -.84022129E+03 E0= -.84022129E+03  d E =0.000000E+00
       N       E                     dE             d eps       ncg     rms          rms(c)
DAV:   1    -0.840221286029E+03   -0.11169E-07   -0.84757E-10 28672   0.259E-05    0.831E-04
DAV:   2    -0.840221286384E+03   -0.35504E-06   -0.30183E-06 69504   0.728E-04    0.357E-03
DAV:   3    -0.840221286046E+03    0.33818E-06   -0.24522E-07 68160   0.620E-04    0.270E-03
DAV:   4    -0.840221286033E+03    0.12842E-07   -0.14111E-08 48960   0.156E-04    0.222E-03
DAV:   5    -0.840221286018E+03    0.14981E-07   -0.20284E-07 31744   0.887E-05    0.985E-04
DAV:   6    -0.840221286024E+03   -0.61991E-08   -0.57489E-10 28736   0.446E-05
  92 F= -.84022129E+03 E0= -.84022129E+03  d E =0.000000E+00
       N       E                     dE             d eps       ncg     rms          rms(c)
DAV:   1    -0.840221286029E+03   -0.10979E-07   -0.84382E-10 28672   0.259E-05    0.832E-04
DAV:   2    -0.840221286385E+03   -0.35551E-06   -0.30206E-06 69504   0.729E-04    0.357E-03
DAV:   3    -0.840221286046E+03    0.33814E-06   -0.24551E-07 68224   0.620E-04    0.270E-03
DAV:   4    -0.840221286033E+03    0.13490E-07   -0.14121E-08 48832   0.156E-04    0.222E-03
DAV:   5    -0.840221286017E+03    0.15774E-07   -0.20256E-07 31552   0.886E-05    0.985E-04
DAV:   6    -0.840221286024E+03   -0.71086E-08   -0.57658E-10 28736   0.446E-05
  93 F= -.84022129E+03 E0= -.84022129E+03  d E =0.000000E+00
       N       E                     dE             d eps       ncg     rms          rms(c)
DAV:   1    -0.840221286029E+03   -0.11867E-07   -0.85042E-10 28672   0.259E-05    0.831E-04
DAV:   2    -0.840221286384E+03   -0.35511E-06   -0.30185E-06 69504   0.728E-04    0.357E-03
DAV:   3    -0.840221286046E+03    0.33837E-06   -0.24526E-07 68160   0.620E-04    0.270E-03
DAV:   4    -0.840221286033E+03    0.13039E-07   -0.14105E-08 48832   0.156E-04    0.222E-03
DAV:   5    -0.840221286017E+03    0.15440E-07   -0.20279E-07 31680   0.886E-05    0.985E-04
DAV:   6    -0.840221286024E+03   -0.67303E-08   -0.57844E-10 28736   0.446E-05
  94 F= -.84022129E+03 E0= -.84022129E+03  d E =0.000000E+00
       N       E                     dE             d eps       ncg     rms          rms(c)
DAV:   1    -0.840221286030E+03   -0.12296E-07   -0.83519E-10 28672   0.259E-05    0.832E-04
DAV:   2    -0.840221286384E+03   -0.35472E-06   -0.30202E-06 69504   0.729E-04    0.357E-03
DAV:   3    -0.840221286046E+03    0.33830E-06   -0.24545E-07 68352   0.620E-04    0.270E-03
DAV:   4    -0.840221286033E+03    0.12689E-07   -0.14136E-08 48960   0.156E-04    0.222E-03
DAV:   5    -0.840221286017E+03    0.16116E-07   -0.20268E-07 31552   0.886E-05    0.985E-04
DAV:   6    -0.840221286024E+03   -0.69413E-08   -0.57371E-10 28736   0.446E-05
  95 F= -.84022129E+03 E0= -.84022129E+03  d E =0.000000E+00
       N       E                     dE             d eps       ncg     rms          rms(c)
DAV:   1    -0.840221286029E+03   -0.12129E-07   -0.86159E-10 28672   0.259E-05    0.831E-04
DAV:   2    -0.840221286384E+03   -0.35494E-06   -0.30193E-06 69504   0.729E-04    0.357E-03
DAV:   3    -0.840221286046E+03    0.33795E-06   -0.24536E-07 68224   0.620E-04    0.270E-03
DAV:   4    -0.840221286033E+03    0.13250E-07   -0.14126E-08 48704   0.156E-04    0.222E-03
DAV:   5    -0.840221286017E+03    0.15745E-07   -0.20275E-07 31616   0.886E-05    0.985E-04
DAV:   6    -0.840221286024E+03   -0.62864E-08   -0.56399E-10 28736   0.446E-05
  96 F= -.84022129E+03 E0= -.84022129E+03  d E =0.000000E+00
       N       E                     dE             d eps       ncg     rms          rms(c)
DAV:   1    -0.840221286029E+03   -0.11787E-07   -0.84442E-10 28672   0.259E-05    0.832E-04
DAV:   2    -0.840221286384E+03   -0.35460E-06   -0.30200E-06 69504   0.729E-04    0.357E-03
DAV:   3    -0.840221286046E+03    0.33775E-06   -0.24544E-07 68288   0.620E-04    0.270E-03
DAV:   4    -0.840221286034E+03    0.12398E-07   -0.14103E-08 49280   0.156E-04    0.222E-03
DAV:   5    -0.840221286018E+03    0.16087E-07   -0.20258E-07 31616   0.886E-05    0.985E-04
DAV:   6    -0.840221286024E+03   -0.63592E-08   -0.56768E-10 28736   0.446E-05
  97 F= -.84022129E+03 E0= -.84022129E+03  d E =0.000000E+00
       N       E                     dE             d eps       ncg     rms          rms(c)
DAV:   1    -0.840221286029E+03   -0.11089E-07   -0.85262E-10 28672   0.259E-05    0.831E-04
DAV:   2    -0.840221286384E+03   -0.35558E-06   -0.30188E-06 69504   0.728E-04    0.357E-03
DAV:   3    -0.840221286046E+03    0.33805E-06   -0.24529E-07 68224   0.620E-04    0.270E-03
DAV:   4    -0.840221286033E+03    0.12958E-07   -0.14117E-08 48960   0.156E-04    0.222E-03
DAV:   5    -0.840221286018E+03    0.15192E-07   -0.20288E-07 31680   0.887E-05    0.985E-04
DAV:   6    -0.840221286024E+03   -0.60973E-08   -0.58519E-10 28736   0.446E-05
  98 F= -.84022129E+03 E0= -.84022129E+03  d E =0.000000E+00
       N       E                     dE             d eps       ncg     rms          rms(c)
DAV:   1    -0.840221286030E+03   -0.11678E-07   -0.83488E-10 28672   0.259E-05    0.832E-04
DAV:   2    -0.840221286385E+03   -0.35500E-06   -0.30208E-06 69504   0.729E-04    0.357E-03
DAV:   3    -0.840221286046E+03    0.33878E-06   -0.24551E-07 68288   0.620E-04    0.270E-03
DAV:   4    -0.840221286033E+03    0.13213E-07   -0.14109E-08 48832   0.156E-04    0.222E-03
DAV:   5    -0.840221286017E+03    0.15578E-07   -0.20257E-07 31360   0.886E-05    0.985E-04
DAV:   6    -0.840221286024E+03   -0.68831E-08   -0.56955E-10 28736   0.446E-05
  99 F= -.84022129E+03 E0= -.84022129E+03  d E =0.000000E+00
       N       E                     dE             d eps       ncg     rms          rms(c)
DAV:   1    -0.840221286029E+03   -0.12158E-07   -0.84061E-10 28672   0.259E-05    0.831E-04
DAV:   2    -0.840221286384E+03   -0.35478E-06   -0.30185E-06 69504   0.728E-04    0.357E-03
DAV:   3    -0.840221286046E+03    0.33819E-06   -0.24525E-07 68224   0.620E-04    0.270E-03
DAV:   4    -0.840221286033E+03    0.12769E-07   -0.14105E-08 48704   0.156E-04    0.222E-03
DAV:   5    -0.840221286017E+03    0.15920E-07   -0.20270E-07 31680   0.886E-05    0.985E-04
DAV:   6    -0.840221286024E+03   -0.66721E-08   -0.57149E-10 28736   0.446E-05
 100 F= -.84022129E+03 E0= -.84022129E+03  d E =0.000000E+00
