       N       E                     dE             d eps       ncg     rms          rms(c)
DAV:   1     0.372739952238E+03    0.37274E+03   -0.85610E+04 56320   0.116E+03
DAV:   2    -0.445205451208E+03   -0.81795E+03   -0.81428E+03 79552   0.222E+02
DAV:   3    -0.461909556418E+03   -0.16704E+02   -0.16657E+02 82496   0.370E+01
DAV:   4    -0.462020257986E+03   -0.11070E+00   -0.11069E+00 80832   0.297E+00
DAV:   5    -0.462022060571E+03   -0.18026E-02   -0.18028E-02 83200   0.350E-01    0.304E+01
DAV:   6    -0.436230209077E+03    0.25792E+02   -0.47643E+01 84480   0.164E+01    0.165E+01
DAV:   7    -0.431215401893E+03    0.50148E+01   -0.21083E+01 84480   0.102E+01    0.811E+00
DAV:   8    -0.430887274991E+03    0.32813E+00   -0.14693E+01 84032   0.593E+00    0.556E+00
DAV:   9    -0.430436587076E+03    0.45069E+00   -0.25914E+00 82688   0.305E+00    0.165E+00
DAV:  10    -0.430455796649E+03   -0.19210E-01   -0.45407E-01 83392   0.142E+00    0.108E+00
DAV:  11    -0.430443339773E+03    0.12457E-01   -0.21018E-01 84416   0.732E-01    0.549E-01
DAV:  12    -0.430441974168E+03    0.13656E-02   -0.45692E-02 84672   0.356E-01    0.237E-01
DAV:  13    -0.430442238596E+03   -0.26443E-03   -0.14121E-02 84480   0.203E-01    0.128E-01
DAV:  14    -0.430442177174E+03    0.61422E-04   -0.37555E-03 84544   0.960E-02    0.516E-02
DAV:  15    -0.430442173956E+03    0.32182E-05   -0.55206E-04 83904   0.409E-02    0.276E-02
DAV:  16    -0.430442189628E+03   -0.15671E-04   -0.74759E-05 84416   0.215E-02    0.144E-02
DAV:  17    -0.430442195566E+03   -0.59386E-05   -0.33322E-05 84480   0.117E-02    0.564E-03
DAV:  18    -0.430442196064E+03   -0.49808E-06   -0.43099E-06 84352   0.522E-03    0.152E-03
DAV:  19    -0.430442196095E+03   -0.30530E-07   -0.22801E-07 84480   0.130E-03    0.740E-04
DAV:  20    -0.430442196112E+03   -0.17448E-07   -0.59940E-08 84416   0.563E-04    0.233E-04
DAV:  21    -0.430442196132E+03   -0.19762E-07   -0.54267E-09 70400   0.177E-04    0.147E-04
DAV:  22    -0.430442196136E+03   -0.43856E-08   -0.16081E-09 69632   0.918E-05
   1 F= -.43044220E+03 E0= -.43044220E+03  d E =0.000000E+00
       N       E                     dE             d eps       ncg     rms          rms(c)
DAV:   1    -0.430442196141E+03   -0.87530E-08   -0.17540E-10 68096   0.372E-05    0.969E-05
DAV:   2    -0.430442196138E+03    0.30541E-08   -0.22072E-10 66688   0.223E-05    0.998E-05
DAV:   3    -0.430442196140E+03   -0.28158E-08   -0.12415E-10 65024   0.149E-05    0.956E-05
DAV:   4    -0.430442196141E+03   -0.27285E-10   -0.68485E-12 54592   0.784E-06    0.953E-05
DAV:   5    -0.430442196140E+03    0.32560E-09   -0.77233E-12 61952   0.353E-06    0.953E-05
DAV:   6    -0.430442196141E+03   -0.46384E-09   -0.27851E-12 60544   0.176E-06
   2 F= -.43044220E+03 E0= -.43044220E+03  d E =0.000000E+00
       N       E                     dE             d eps       ncg     rms          rms(c)
DAV:   1    -0.430442196141E+03   -0.55297E-09   -0.16541E-12 57280   0.103E-06    0.953E-05
DAV:   2    -0.430442196141E+03   -0.28012E-09    0.14519E-12 55040   0.143E-06    0.953E-05
DAV:   3    -0.430442196141E+03    0.50932E-10    0.14561E-12 54464   0.103E-06    0.953E-05
DAV:   4    -0.430442196141E+03    0.54570E-11   -0.23366E-12 49408   0.355E-07    0.953E-05
DAV:   5    -0.430442196140E+03    0.59481E-09   -0.69402E-12 51072   0.213E-07    0.953E-05
DAV:   6    -0.430442196141E+03   -0.44747E-09    0.58834E-13 48448   0.981E-08
   3 F= -.43044220E+03 E0= -.43044220E+03  d E =0.000000E+00
       N       E                     dE             d eps       ncg     rms          rms(c)
DAV:   1    -0.430442196141E+03   -0.27467E-09   -0.49533E-12 48256   0.399E-08    0.953E-05
DAV:   2    -0.430442196141E+03   -0.43110E-09   -0.26503E-12 47616   0.449E-08    0.953E-05
DAV:   3    -0.430442196141E+03    0.13097E-09   -0.23319E-12 45952   0.331E-08    0.953E-05
DAV:   4    -0.430442196141E+03    0.23101E-09    0.39634E-13 40064   0.140E-08    0.953E-05
DAV:   5    -0.430442196140E+03    0.60390E-09   -0.27920E-12 41216   0.519E-09    0.953E-05
DAV:   6    -0.430442196141E+03   -0.46202E-09   -0.48816E-12 39488   0.254E-09
   4 F= -.43044220E+03 E0= -.43044220E+03  d E =0.000000E+00
       N       E                     dE             d eps       ncg     rms          rms(c)
DAV:   1    -0.430442196141E+03   -0.65484E-09   -0.42221E-12 39744   0.158E-09    0.953E-05
DAV:   2    -0.430442196140E+03    0.60027E-09   -0.62568E-12 39488   0.153E-09    0.953E-05
DAV:   3    -0.430442196141E+03   -0.11223E-08   -0.35936E-12 38848   0.108E-09    0.953E-05
DAV:   4    -0.430442196140E+03    0.89858E-09   -0.17957E-12 37632   0.570E-10    0.953E-05
DAV:   5    -0.430442196141E+03   -0.47658E-09    0.96617E-13 37312   0.543E-10    0.953E-05
DAV:   6    -0.430442196141E+03   -0.29286E-09   -0.38867E-12 36608   0.337E-10
   5 F= -.43044220E+03 E0= -.43044220E+03  d E =0.000000E+00
       N       E                     dE             d eps       ncg     rms          rms(c)
DAV:   1    -0.430442196141E+03   -0.94587E-10   -0.52391E-12 35904   0.179E-10    0.953E-05
DAV:   2    -0.430442196141E+03    0.25466E-09   -0.37536E-12 35200   0.272E-10    0.953E-05
DAV:   3    -0.430442196140E+03    0.55843E-09   -0.56934E-12 34752   0.299E-10    0.953E-05
DAV:   4    -0.430442196141E+03   -0.88039E-09   -0.62788E-12 34304   0.220E-10    0.953E-05
DAV:   5    -0.430442196140E+03    0.11350E-08   -0.82771E-12 34048   0.249E-10    0.953E-05
DAV:   6    -0.430442196141E+03   -0.96225E-09    0.29084E-13 33856   0.145E-10
   6 F= -.43044220E+03 E0= -.43044220E+03  d E =0.000000E+00
       N       E                     dE             d eps       ncg     rms          rms(c)
DAV:   1    -0.430442196141E+03   -0.81491E-09    0.37388E-13 33792   0.152E-10    0.953E-05
DAV:   2    -0.430442196141E+03    0.78217E-10   -0.14160E-12 33728   0.232E-10    0.953E-05
DAV:   3    -0.430442196140E+03    0.40018E-09   -0.74906E-12 33600   0.256E-10    0.953E-05
DAV:   4    -0.430442196141E+03   -0.76398E-09   -0.45383E-12 33280   0.205E-10    0.953E-05
DAV:   5    -0.430442196141E+03    0.11278E-09   -0.55897E-12 32896   0.234E-10    0.953E-05
DAV:   6    -0.430442196140E+03    0.44747E-09   -0.73205E-12 32768   0.159E-10
   7 F= -.43044220E+03 E0= -.43044220E+03  d E =0.000000E+00
       N       E                     dE             d eps       ncg     rms          rms(c)
DAV:   1    -0.430442196141E+03    0.17644E-09   -0.45557E-12 32768   0.140E-10    0.953E-05
DAV:   2    -0.430442196141E+03   -0.28194E-09   -0.53229E-12 32768   0.211E-10    0.953E-05
DAV:   3    -0.430442196141E+03    0.41837E-09   -0.68146E-12 32768   0.203E-10    0.953E-05
DAV:   4    -0.430442196140E+03    0.36744E-09   -0.74168E-12 32512   0.154E-10    0.953E-05
DAV:   5    -0.430442196141E+03   -0.93132E-09   -0.11093E-12 32448   0.124E-10    0.953E-05
DAV:   6    -0.430442196140E+03    0.68940E-09   -0.35573E-12 32256   0.249E-10
   8 F= -.43044220E+03 E0= -.43044220E+03  d E =0.000000E+00
       N       E                     dE             d eps       ncg     rms          rms(c)
DAV:   1    -0.430442196141E+03    0.18008E-09   -0.12517E-12 32128   0.335E-10    0.953E-05
DAV:   2    -0.430442196140E+03    0.64210E-09   -0.50159E-12 31872   0.335E-10    0.953E-05
DAV:   3    -0.430442196141E+03   -0.34743E-09   -0.77932E-12 31808   0.315E-10    0.953E-05
DAV:   4    -0.430442196141E+03   -0.53114E-09   -0.70499E-12 31808   0.195E-10    0.953E-05
DAV:   5    -0.430442196141E+03   -0.13642E-09   -0.69548E-12 31680   0.230E-10    0.953E-05
DAV:   6    -0.430442196141E+03    0.68758E-09   -0.78755E-12 31552   0.239E-10
   9 F= -.43044220E+03 E0= -.43044220E+03  d E =0.000000E+00
       N       E                     dE             d eps       ncg     rms          rms(c)
DAV:   1    -0.430442196140E+03    0.12751E-08   -0.38557E-12 31296   0.165E-10    0.953E-05
DAV:   2    -0.430442196141E+03   -0.69122E-09   -0.31873E-12 31232   0.228E-10    0.953E-05
DAV:   3    -0.430442196140E+03    0.33833E-09   -0.54607E-13 31232   0.224E-10    0.953E-05
DAV:   4    -0.430442196141E+03   -0.18736E-09   -0.47634E-12 31040   0.135E-10    0.953E-05
DAV:   5    -0.430442196141E+03   -0.19099E-09   -0.65862E-12 30656   0.218E-10    0.953E-05
DAV:   6    -0.430442196140E+03    0.52751E-09   -0.15293E-12 30656   0.245E-10
  10 F= -.43044220E+03 E0= -.43044220E+03  d E =0.000000E+00
       N       E                     dE             d eps       ncg     rms          rms(c)
DAV:   1    -0.430442196141E+03    0.23647E-09   -0.58472E-13 30656   0.155E-10    0.953E-05
DAV:   2    -0.430442196140E+03    0.96406E-10   -0.14720E-12 30656   0.229E-10    0.953E-05
DAV:   3    -0.430442196140E+03    0.20736E-09   -0.48921E-12 30656   0.300E-10    0.953E-05
DAV:   4    -0.430442196140E+03   -0.11823E-09   -0.57063E-12 30528   0.269E-10    0.953E-05
DAV:   5    -0.430442196141E+03   -0.38926E-09   -0.47913E-12 30464   0.153E-10    0.953E-05
DAV:   6    -0.430442196140E+03    0.55479E-09   -0.16540E-12 30464   0.189E-10
  11 F= -.43044220E+03 E0= -.43044220E+03  d E =0.000000E+00
       N       E                     dE             d eps       ncg     rms          rms(c)
DAV:   1    -0.430442196140E+03    0.73305E-09   -0.78653E-12 30464   0.195E-10    0.953E-05
DAV:   2    -0.430442196140E+03   -0.28558E-09   -0.68856E-12 30336   0.300E-10    0.953E-05
DAV:   3    -0.430442196140E+03   -0.69122E-10   -0.56662E-12 30272   0.224E-10    0.953E-05
DAV:   4    -0.430442196141E+03   -0.55479E-09   -0.14559E-12 30272   0.172E-10    0.953E-05
DAV:   5    -0.430442196141E+03   -0.28376E-09   -0.20914E-12 30272   0.174E-10    0.953E-05
DAV:   6    -0.430442196141E+03    0.42928E-09   -0.55143E-12 30272   0.222E-10
  12 F= -.43044220E+03 E0= -.43044220E+03  d E =0.000000E+00
       N       E                     dE             d eps       ncg     rms          rms(c)
DAV:   1    -0.430442196141E+03    0.47839E-09   -0.26098E-12 30272   0.233E-10    0.953E-05
DAV:   2    -0.430442196141E+03   -0.60027E-09   -0.41529E-12 30272   0.329E-10    0.953E-05
DAV:   3    -0.430442196141E+03    0.62755E-09   -0.54614E-12 30272   0.298E-10    0.953E-05
DAV:   4    -0.430442196140E+03    0.38199E-09   -0.44103E-12 30272   0.185E-10    0.953E-05
DAV:   5    -0.430442196140E+03    0.32014E-09    0.38152E-13 30272   0.156E-10    0.953E-05
DAV:   6    -0.430442196141E+03   -0.58208E-09   -0.55660E-12 30208   0.229E-10
  13 F= -.43044220E+03 E0= -.43044220E+03  d E =0.000000E+00
       N       E                     dE             d eps       ncg     rms          rms(c)
DAV:   1    -0.430442196140E+03   -0.24011E-09   -0.30500E-12 30080   0.282E-10    0.953E-05
DAV:   2    -0.430442196141E+03   -0.66575E-09   -0.43562E-12 30080   0.146E-10    0.953E-05
DAV:   3    -0.430442196141E+03    0.16917E-09   -0.54231E-12 30080   0.134E-10    0.953E-05
DAV:   4    -0.430442196141E+03    0.61846E-10   -0.13441E-12 29888   0.118E-10    0.953E-05
DAV:   5    -0.430442196141E+03   -0.60572E-09   -0.28444E-12 29696   0.182E-10    0.953E-05
DAV:   6    -0.430442196141E+03    0.74033E-09   -0.43377E-12 29632   0.271E-10
  14 F= -.43044220E+03 E0= -.43044220E+03  d E =0.000000E+00
       N       E                     dE             d eps       ncg     rms          rms(c)
DAV:   1    -0.430442196141E+03    0.14552E-09   -0.11916E-12 29504   0.232E-10    0.953E-05
DAV:   2    -0.430442196141E+03    0.48385E-09   -0.43055E-12 29504   0.294E-10    0.953E-05
DAV:   3    -0.430442196141E+03    0.32742E-10   -0.21024E-12 29504   0.285E-10    0.953E-05
DAV:   4    -0.430442196141E+03   -0.63483E-09   -0.51019E-12 29504   0.163E-10    0.953E-05
DAV:   5    -0.430442196141E+03    0.47658E-09   -0.40511E-12 29376   0.207E-10    0.953E-05
DAV:   6    -0.430442196141E+03    0.10914E-09   -0.41812E-12 29312   0.269E-10
  15 F= -.43044220E+03 E0= -.43044220E+03  d E =0.000000E+00
       N       E                     dE             d eps       ncg     rms          rms(c)
DAV:   1    -0.430442196141E+03   -0.21282E-09   -0.46448E-12 29312   0.282E-10    0.953E-05
DAV:   2    -0.430442196140E+03    0.59481E-09   -0.65781E-12 29312   0.258E-10    0.953E-05
DAV:   3    -0.430442196141E+03   -0.25284E-09   -0.41135E-12 29312   0.197E-10    0.953E-05
DAV:   4    -0.430442196140E+03    0.21646E-09   -0.65882E-12 29312   0.206E-10    0.953E-05
DAV:   5    -0.430442196141E+03   -0.68030E-09   -0.61665E-12 29184   0.166E-10    0.953E-05
DAV:   6    -0.430442196141E+03    0.42019E-09   -0.49199E-12 29120   0.106E-10
  16 F= -.43044220E+03 E0= -.43044220E+03  d E =0.000000E+00
       N       E                     dE             d eps       ncg     rms          rms(c)
DAV:   1    -0.430442196140E+03    0.11078E-08   -0.40918E-12 29120   0.199E-10    0.953E-05
DAV:   2    -0.430442196141E+03   -0.82036E-09   -0.45146E-12 29120   0.234E-10    0.953E-05
DAV:   3    -0.430442196141E+03    0.22737E-09   -0.68626E-12 29120   0.213E-10    0.953E-05
DAV:   4    -0.430442196140E+03    0.36744E-09   -0.50565E-12 29120   0.344E-10    0.953E-05
DAV:   5    -0.430442196140E+03   -0.20736E-09   -0.70174E-12 29120   0.236E-10    0.953E-05
DAV:   6    -0.430442196140E+03    0.42564E-09   -0.98352E-13 29120   0.197E-10
  17 F= -.43044220E+03 E0= -.43044220E+03  d E =0.000000E+00
       N       E                     dE             d eps       ncg     rms          rms(c)
DAV:   1    -0.430442196140E+03    0.87311E-10   -0.34654E-12 29120   0.147E-10    0.953E-05
DAV:   2    -0.430442196141E+03   -0.53842E-09   -0.52415E-12 29120   0.230E-10    0.953E-05
DAV:   3    -0.430442196140E+03    0.55115E-09   -0.25629E-12 29120   0.171E-10    0.953E-05
DAV:   4    -0.430442196141E+03   -0.93314E-09   -0.42129E-12 29120   0.253E-10    0.953E-05
DAV:   5    -0.430442196140E+03    0.12842E-08   -0.63229E-12 28864   0.211E-10    0.953E-05
DAV:   6    -0.430442196140E+03   -0.39290E-09   -0.24073E-12 28736   0.206E-10
  18 F= -.43044220E+03 E0= -.43044220E+03  d E =0.000000E+00
       N       E                     dE             d eps       ncg     rms          rms(c)
DAV:   1    -0.430442196140E+03    0.16371E-10   -0.65898E-12 28736   0.152E-10    0.953E-05
DAV:   2    -0.430442196141E+03   -0.12478E-08   -0.94716E-12 28736   0.228E-10    0.953E-05
DAV:   3    -0.430442196141E+03    0.43474E-09   -0.59971E-12 28736   0.192E-10    0.953E-05
DAV:   4    -0.430442196141E+03    0.16917E-09   -0.92304E-12 28736   0.296E-10    0.953E-05
DAV:   5    -0.430442196141E+03   -0.28740E-09   -0.17308E-12 28736   0.281E-10    0.953E-05
DAV:   6    -0.430442196141E+03    0.18736E-09   -0.43963E-12 28736   0.209E-10
  19 F= -.43044220E+03 E0= -.43044220E+03  d E =0.000000E+00
       N       E                     dE             d eps       ncg     rms          rms(c)
DAV:   1    -0.430442196141E+03    0.27285E-09   -0.43111E-12 28736   0.353E-10    0.953E-05
DAV:   2    -0.430442196141E+03   -0.41837E-10   -0.61602E-12 28736   0.300E-10    0.953E-05
DAV:   3    -0.430442196141E+03    0.11278E-09   -0.30650E-12 28736   0.224E-10    0.953E-05
DAV:   4    -0.430442196141E+03   -0.23101E-09   -0.31969E-12 28736   0.220E-10    0.953E-05
DAV:   5    -0.430442196140E+03    0.50750E-09   -0.43072E-12 28736   0.183E-10    0.953E-05
DAV:   6    -0.430442196140E+03   -0.60027E-10   -0.81888E-12 28736   0.140E-10
  20 F= -.43044220E+03 E0= -.43044220E+03  d E =0.000000E+00
       N       E                     dE             d eps       ncg     rms          rms(c)
DAV:   1    -0.430442196141E+03   -0.81855E-09   -0.43573E-12 28736   0.198E-10    0.953E-05
DAV:   2    -0.430442196141E+03    0.44929E-09   -0.45484E-12 28736   0.289E-10    0.953E-05
DAV:   3    -0.430442196141E+03    0.15098E-09   -0.88460E-12 28736   0.193E-10    0.953E-05
DAV:   4    -0.430442196141E+03   -0.23283E-09   -0.66872E-12 28736   0.206E-10    0.953E-05
DAV:   5    -0.430442196140E+03    0.49113E-09   -0.37305E-12 28736   0.162E-10    0.953E-05
DAV:   6    -0.430442196141E+03   -0.92950E-09   -0.45196E-12 28736   0.220E-10
  21 F= -.43044220E+03 E0= -.43044220E+03  d E =0.000000E+00
       N       E                     dE             d eps       ncg     rms          rms(c)
DAV:   1    -0.430442196141E+03   -0.44020E-09   -0.72204E-12 28736   0.183E-10    0.953E-05
DAV:   2    -0.430442196141E+03   -0.20009E-10   -0.47749E-12 28736   0.226E-10    0.953E-05
DAV:   3    -0.430442196140E+03    0.70213E-09   -0.28727E-12 28736   0.166E-10    0.953E-05
DAV:   4    -0.430442196140E+03   -0.19099E-09   -0.85711E-12 28736   0.175E-10    0.953E-05
DAV:   5    -0.430442196141E+03   -0.42382E-09   -0.53858E-12 28736   0.174E-10    0.953E-05
DAV:   6    -0.430442196141E+03   -0.70941E-10   -0.47595E-12 28736   0.191E-10
  22 F= -.43044220E+03 E0= -.43044220E+03  d E =0.000000E+00
       N       E                     dE             d eps       ncg     rms          rms(c)
DAV:   1    -0.430442196141E+03   -0.13824E-09   -0.41197E-12 28736   0.946E-11    0.953E-05
DAV:   2    -0.430442196140E+03    0.30559E-09   -0.39969E-12 28736   0.221E-10    0.953E-05
DAV:   3    -0.430442196140E+03    0.13824E-09   -0.56475E-12 28736   0.259E-10    0.953E-05
DAV:   4    -0.430442196141E+03   -0.38381E-09   -0.58810E-12 28736   0.214E-10    0.953E-05
DAV:   5    -0.430442196140E+03    0.29650E-09   -0.34868E-12 28736   0.268E-10    0.953E-05
DAV:   6    -0.430442196141E+03   -0.78762E-09   -0.82416E-12 28736   0.217E-10
  23 F= -.43044220E+03 E0= -.43044220E+03  d E =0.000000E+00
       N       E                     dE             d eps       ncg     rms          rms(c)
DAV:   1    -0.430442196141E+03   -0.36380E-09   -0.97258E-12 28736   0.238E-10    0.953E-05
DAV:   2    -0.430442196141E+03   -0.46930E-09   -0.52677E-12 28608   0.240E-10    0.953E-05
DAV:   3    -0.430442196141E+03    0.61482E-09   -0.76916E-12 28544   0.228E-10    0.953E-05
DAV:   4    -0.430442196141E+03   -0.29104E-09   -0.51111E-12 28544   0.241E-10    0.953E-05
DAV:   5    -0.430442196141E+03   -0.19463E-09   -0.52093E-12 28544   0.226E-10    0.953E-05
DAV:   6    -0.430442196141E+03    0.00000E+00   -0.54819E-12 28416   0.163E-10
  24 F= -.43044220E+03 E0= -.43044220E+03  d E =0.000000E+00
       N       E                     dE             d eps       ncg     rms          rms(c)
DAV:   1    -0.430442196141E+03    0.11278E-09   -0.53805E-12 28352   0.194E-10    0.953E-05
DAV:   2    -0.430442196140E+03    0.97862E-09   -0.35303E-12 28352   0.182E-10    0.953E-05
DAV:   3    -0.430442196140E+03   -0.28922E-09   -0.21666E-12 28352   0.150E-10    0.953E-05
DAV:   4    -0.430442196140E+03   -0.18008E-09   -0.36645E-12 28352   0.284E-10    0.953E-05
DAV:   5    -0.430442196141E+03   -0.61300E-09   -0.49539E-12 28352   0.275E-10    0.953E-05
DAV:   6    -0.430442196140E+03    0.11842E-08   -0.10574E-12 28352   0.207E-10
  25 F= -.43044220E+03 E0= -.43044220E+03  d E =0.000000E+00
       N       E                     dE             d eps       ncg     rms          rms(c)
DAV:   1    -0.430442196140E+03    0.89130E-09   -0.46485E-12 28352   0.147E-10    0.953E-05
DAV:   2    -0.430442196140E+03    0.32560E-09   -0.53561E-12 28352   0.233E-10    0.953E-05
DAV:   3    -0.430442196141E+03   -0.10077E-08   -0.34304E-12 28352   0.221E-10    0.953E-05
DAV:   4    -0.430442196140E+03    0.53842E-09   -0.21882E-12 28352   0.176E-10    0.953E-05
DAV:   5    -0.430442196141E+03   -0.10150E-08   -0.35255E-12 28352   0.193E-10    0.953E-05
DAV:   6    -0.430442196140E+03    0.99681E-09   -0.24401E-12 28352   0.137E-10
  26 F= -.43044220E+03 E0= -.43044220E+03  d E =0.000000E+00
       N       E                     dE             d eps       ncg     rms          rms(c)
DAV:   1    -0.430442196141E+03    0.83855E-09   -0.55673E-12 28352   0.209E-10    0.953E-05
DAV:   2    -0.430442196141E+03   -0.11096E-09   -0.48141E-12 28352   0.134E-10    0.953E-05
DAV:   3    -0.430442196140E+03    0.35834E-09   -0.21062E-12 28352   0.148E-10    0.953E-05
DAV:   4    -0.430442196140E+03    0.65484E-10   -0.62964E-12 28352   0.219E-10    0.953E-05
DAV:   5    -0.430442196141E+03   -0.81673E-09   -0.57045E-12 28352   0.184E-10    0.953E-05
DAV:   6    -0.430442196140E+03    0.54388E-09   -0.30170E-12 28352   0.125E-10
  27 F= -.43044220E+03 E0= -.43044220E+03  d E =0.000000E+00
       N       E                     dE             d eps       ncg     rms          rms(c)
DAV:   1    -0.430442196141E+03    0.18190E-10   -0.14429E-12 28352   0.234E-10    0.953E-05
DAV:   2    -0.430442196141E+03    0.29104E-09   -0.45896E-12 28352   0.233E-10    0.953E-05
DAV:   3    -0.430442196140E+03    0.47839E-09   -0.52542E-12 28352   0.235E-10    0.953E-05
DAV:   4    -0.430442196141E+03   -0.64210E-09   -0.27703E-12 28352   0.157E-10    0.953E-05
DAV:   5    -0.430442196141E+03    0.25466E-09   -0.44428E-12 28352   0.157E-10    0.953E-05
DAV:   6    -0.430442196141E+03    0.65484E-10   -0.36246E-12 28352   0.144E-10
  28 F= -.43044220E+03 E0= -.43044220E+03  d E =0.000000E+00
       N       E                     dE             d eps       ncg     rms          rms(c)
DAV:   1    -0.430442196140E+03    0.14370E-09   -0.24419E-12 28352   0.146E-10    0.953E-05
DAV:   2    -0.430442196141E+03   -0.32378E-09   -0.75089E-12 28352   0.225E-10    0.953E-05
DAV:   3    -0.430442196141E+03   -0.50750E-09   -0.38467E-12 28352   0.134E-10    0.953E-05
DAV:   4    -0.430442196141E+03    0.32014E-09   -0.68185E-12 28352   0.235E-10    0.953E-05
DAV:   5    -0.430442196140E+03    0.10350E-08   -0.27065E-12 28352   0.170E-10    0.953E-05
DAV:   6    -0.430442196140E+03    0.94587E-10   -0.47961E-12 28352   0.291E-10
  29 F= -.43044220E+03 E0= -.43044220E+03  d E =0.000000E+00
       N       E                     dE             d eps       ncg     rms          rms(c)
DAV:   1    -0.430442196140E+03   -0.52569E-09   -0.41947E-12 28352   0.171E-10    0.953E-05
DAV:   2    -0.430442196141E+03   -0.69122E-09   -0.61805E-12 28352   0.264E-10    0.953E-05
DAV:   3    -0.430442196140E+03    0.11842E-08   -0.22623E-12 28352   0.252E-10    0.953E-05
DAV:   4    -0.430442196140E+03   -0.26557E-09   -0.15869E-12 28352   0.139E-10    0.953E-05
DAV:   5    -0.430442196140E+03   -0.19281E-09   -0.10977E-12 28352   0.252E-10    0.953E-05
DAV:   6    -0.430442196141E+03   -0.12551E-09   -0.33550E-12 28352   0.235E-10
  30 F= -.43044220E+03 E0= -.43044220E+03  d E =0.000000E+00
       N       E                     dE             d eps       ncg     rms          rms(c)
DAV:   1    -0.430442196140E+03   -0.40018E-10   -0.69319E-12 28352   0.235E-10    0.953E-05
DAV:   2    -0.430442196140E+03    0.38199E-09   -0.75419E-12 28352   0.220E-10    0.953E-05
DAV:   3    -0.430442196141E+03   -0.53296E-09   -0.94510E-12 28352   0.242E-10    0.953E-05
DAV:   4    -0.430442196141E+03   -0.50750E-09   -0.55861E-12 28352   0.134E-10    0.953E-05
DAV:   5    -0.430442196141E+03    0.21646E-09   -0.59507E-12 28352   0.154E-10    0.953E-05
DAV:   6    -0.430442196141E+03   -0.58208E-10   -0.66906E-12 28352   0.198E-10
  31 F= -.43044220E+03 E0= -.43044220E+03  d E =0.000000E+00
       N       E                     dE             d eps       ncg     rms          rms(c)
DAV:   1    -0.430442196140E+03    0.52933E-09   -0.43709E-12 28352   0.213E-10    0.953E-05
DAV:   2    -0.430442196141E+03   -0.11642E-09   -0.25824E-12 28352   0.281E-10    0.953E-05
DAV:   3    -0.430442196141E+03   -0.33469E-09   -0.42176E-12 28352   0.213E-10    0.953E-05
DAV:   4    -0.430442196140E+03    0.50022E-09   -0.40643E-12 28352   0.154E-10    0.953E-05
DAV:   5    -0.430442196141E+03   -0.19827E-09   -0.58148E-12 28352   0.203E-10    0.953E-05
DAV:   6    -0.430442196140E+03    0.37835E-09   -0.24307E-12 28352   0.283E-10
  32 F= -.43044220E+03 E0= -.43044220E+03  d E =0.000000E+00
       N       E                     dE             d eps       ncg     rms          rms(c)
DAV:   1    -0.430442196140E+03    0.23283E-09   -0.35410E-12 28352   0.285E-10    0.953E-05
DAV:   2    -0.430442196141E+03   -0.73305E-09   -0.45866E-12 28352   0.323E-10    0.953E-05
DAV:   3    -0.430442196141E+03   -0.54570E-10   -0.67724E-12 28352   0.361E-10    0.953E-05
DAV:   4    -0.430442196140E+03    0.12169E-08   -0.73620E-12 28352   0.270E-10    0.953E-05
DAV:   5    -0.430442196140E+03   -0.27649E-09   -0.52257E-12 28352   0.149E-10    0.953E-05
DAV:   6    -0.430442196141E+03   -0.77671E-09   -0.53813E-12 28352   0.190E-10
  33 F= -.43044220E+03 E0= -.43044220E+03  d E =0.000000E+00
       N       E                     dE             d eps       ncg     rms          rms(c)
DAV:   1    -0.430442196141E+03   -0.10732E-08   -0.40403E-12 28352   0.188E-10    0.953E-05
DAV:   2    -0.430442196141E+03    0.59117E-09   -0.62069E-12 28352   0.246E-10    0.953E-05
DAV:   3    -0.430442196141E+03    0.29104E-10   -0.28396E-12 28352   0.240E-10    0.953E-05
DAV:   4    -0.430442196141E+03   -0.19281E-09   -0.64252E-12 28352   0.251E-10    0.953E-05
DAV:   5    -0.430442196140E+03    0.37107E-09   -0.42578E-12 28352   0.219E-10    0.953E-05
DAV:   6    -0.430442196141E+03   -0.92405E-09   -0.48796E-12 28352   0.266E-10
  34 F= -.43044220E+03 E0= -.43044220E+03  d E =0.000000E+00
       N       E                     dE             d eps       ncg     rms          rms(c)
DAV:   1    -0.430442196141E+03   -0.44020E-09   -0.54956E-12 28352   0.327E-10    0.953E-05
DAV:   2    -0.430442196140E+03    0.91677E-09   -0.60576E-12 28352   0.390E-10    0.953E-05
DAV:   3    -0.430442196141E+03   -0.12278E-08   -0.14355E-12 28352   0.286E-10    0.953E-05
DAV:   4    -0.430442196140E+03    0.11278E-08   -0.87493E-12 28352   0.251E-10    0.953E-05
DAV:   5    -0.430442196140E+03   -0.23283E-09   -0.64859E-12 28352   0.222E-10    0.953E-05
DAV:   6    -0.430442196141E+03   -0.24374E-09   -0.66613E-12 28352   0.212E-10
  35 F= -.43044220E+03 E0= -.43044220E+03  d E =0.000000E+00
       N       E                     dE             d eps       ncg     rms          rms(c)
DAV:   1    -0.430442196141E+03   -0.10550E-08   -0.63222E-12 28352   0.111E-10    0.953E-05
DAV:   2    -0.430442196140E+03    0.91677E-09   -0.80656E-12 28352   0.269E-10    0.953E-05
DAV:   3    -0.430442196141E+03   -0.98225E-10   -0.59462E-12 28352   0.262E-10    0.953E-05
DAV:   4    -0.430442196141E+03   -0.40563E-09   -0.33559E-12 28352   0.235E-10    0.953E-05
DAV:   5    -0.430442196141E+03   -0.33288E-09   -0.68665E-12 28352   0.192E-10    0.953E-05
DAV:   6    -0.430442196141E+03    0.74397E-09   -0.36017E-12 28352   0.275E-10
  36 F= -.43044220E+03 E0= -.43044220E+03  d E =0.000000E+00
       N       E                     dE             d eps       ncg     rms          rms(c)
DAV:   1    -0.430442196141E+03    0.36925E-09   -0.15463E-12 28352   0.261E-10    0.953E-05
DAV:   2    -0.430442196141E+03    0.25830E-09   -0.58309E-12 28352   0.189E-10    0.953E-05
DAV:   3    -0.430442196140E+03    0.62028E-09   -0.50091E-12 28352   0.274E-10    0.953E-05
DAV:   4    -0.430442196140E+03   -0.14916E-09   -0.23178E-12 28352   0.165E-10    0.953E-05
DAV:   5    -0.430442196140E+03   -0.87311E-10   -0.68214E-12 28352   0.190E-10    0.953E-05
DAV:   6    -0.430442196140E+03   -0.40018E-10   -0.37967E-12 28352   0.223E-10
  37 F= -.43044220E+03 E0= -.43044220E+03  d E =0.000000E+00
       N       E                     dE             d eps       ncg     rms          rms(c)
DAV:   1    -0.430442196141E+03   -0.10714E-08   -0.20552E-12 28352   0.188E-10    0.953E-05
DAV:   2    -0.430442196141E+03    0.12187E-09   -0.77134E-12 28352   0.231E-10    0.953E-05
DAV:   3    -0.430442196140E+03    0.92405E-09   -0.78698E-12 28352   0.237E-10    0.953E-05
DAV:   4    -0.430442196141E+03   -0.30741E-09   -0.50930E-12 28352   0.221E-10    0.953E-05
DAV:   5    -0.430442196140E+03    0.15461E-09   -0.41987E-12 28352   0.224E-10    0.953E-05
DAV:   6    -0.430442196140E+03    0.42382E-09   -0.54315E-12 28352   0.203E-10
  38 F= -.43044220E+03 E0= -.43044220E+03  d E =0.000000E+00
       N       E                     dE             d eps       ncg     rms          rms(c)
DAV:   1    -0.430442196141E+03   -0.76034E-09   -0.38235E-12 28352   0.260E-10    0.953E-05
DAV:   2    -0.430442196141E+03    0.49113E-09   -0.75460E-12 28352   0.146E-10    0.953E-05
DAV:   3    -0.430442196141E+03   -0.46020E-09   -0.69944E-12 28224   0.271E-10    0.953E-05
DAV:   4    -0.430442196140E+03    0.10004E-08   -0.27736E-12 28160   0.140E-10    0.953E-05
DAV:   5    -0.430442196140E+03   -0.19645E-09   -0.51289E-13 28160   0.215E-10    0.953E-05
DAV:   6    -0.430442196141E+03   -0.61118E-09   -0.60019E-12 28160   0.179E-10
  39 F= -.43044220E+03 E0= -.43044220E+03  d E =0.000000E+00
       N       E                     dE             d eps       ncg     rms          rms(c)
DAV:   1    -0.430442196141E+03   -0.19463E-09   -0.56511E-12 28160   0.223E-10    0.953E-05
DAV:   2    -0.430442196141E+03   -0.53842E-09   -0.39139E-13 28160   0.302E-10    0.953E-05
DAV:   3    -0.430442196141E+03    0.21646E-09   -0.61895E-12 28160   0.239E-10    0.953E-05
DAV:   4    -0.430442196141E+03   -0.60027E-10   -0.26562E-12 28160   0.159E-10    0.953E-05
DAV:   5    -0.430442196140E+03    0.70577E-09   -0.60715E-12 28160   0.184E-10    0.953E-05
DAV:   6    -0.430442196141E+03   -0.84947E-09   -0.77781E-12 28160   0.258E-10
  40 F= -.43044220E+03 E0= -.43044220E+03  d E =0.000000E+00
       N       E                     dE             d eps       ncg     rms          rms(c)
DAV:   1    -0.430442196141E+03   -0.50204E-09   -0.11884E-11 28160   0.135E-10    0.953E-05
DAV:   2    -0.430442196141E+03   -0.65484E-09   -0.70662E-12 28160   0.237E-10    0.953E-05
DAV:   3    -0.430442196140E+03    0.94769E-09   -0.59798E-12 28160   0.291E-10    0.953E-05
DAV:   4    -0.430442196140E+03    0.14552E-10   -0.36458E-12 28160   0.204E-10    0.953E-05
DAV:   5    -0.430442196140E+03   -0.54570E-10   -0.65786E-12 28160   0.131E-10    0.953E-05
DAV:   6    -0.430442196140E+03    0.35652E-09   -0.85284E-12 28160   0.183E-10
  41 F= -.43044220E+03 E0= -.43044220E+03  d E =0.000000E+00
       N       E                     dE             d eps       ncg     rms          rms(c)
DAV:   1    -0.430442196140E+03    0.10914E-09   -0.48694E-12 28160   0.237E-10    0.953E-05
DAV:   2    -0.430442196141E+03   -0.43838E-09   -0.79323E-12 28160   0.192E-10    0.953E-05
DAV:   3    -0.430442196141E+03   -0.42019E-09   -0.16792E-12 28160   0.217E-10    0.953E-05
DAV:   4    -0.430442196141E+03    0.20736E-09   -0.48984E-12 28160   0.191E-10    0.953E-05
DAV:   5    -0.430442196141E+03    0.41655E-09   -0.60240E-12 28160   0.114E-10    0.953E-05
DAV:   6    -0.430442196140E+03    0.34015E-09   -0.80149E-12 28160   0.118E-10
  42 F= -.43044220E+03 E0= -.43044220E+03  d E =0.000000E+00
       N       E                     dE             d eps       ncg     rms          rms(c)
DAV:   1    -0.430442196141E+03    0.56389E-10   -0.72536E-12 28160   0.107E-10    0.953E-05
DAV:   2    -0.430442196141E+03   -0.34743E-09   -0.49030E-12 28160   0.158E-10    0.953E-05
DAV:   3    -0.430442196140E+03    0.70941E-09   -0.93898E-12 28160   0.174E-10    0.953E-05
DAV:   4    -0.430442196141E+03   -0.61846E-09   -0.28085E-12 28160   0.253E-10    0.953E-05
DAV:   5    -0.430442196141E+03   -0.13461E-09   -0.37567E-12 28160   0.179E-10    0.953E-05
DAV:   6    -0.430442196140E+03    0.51841E-09   -0.46744E-12 28160   0.181E-10
  43 F= -.43044220E+03 E0= -.43044220E+03  d E =0.000000E+00
       N       E                     dE             d eps       ncg     rms          rms(c)
DAV:   1    -0.430442196141E+03   -0.15098E-09   -0.26877E-12 28160   0.185E-10    0.953E-05
DAV:   2    -0.430442196141E+03    0.56571E-09   -0.58309E-12 28160   0.163E-10    0.953E-05
DAV:   3    -0.430442196141E+03   -0.41473E-09    0.63387E-13 28160   0.201E-10    0.953E-05
DAV:   4    -0.430442196141E+03    0.44929E-09   -0.42741E-12 28160   0.172E-10    0.953E-05
DAV:   5    -0.430442196140E+03    0.52023E-09   -0.45557E-12 28160   0.161E-10    0.953E-05
DAV:   6    -0.430442196141E+03   -0.86584E-09   -0.66085E-12 28160   0.152E-10
  44 F= -.43044220E+03 E0= -.43044220E+03  d E =0.000000E+00
       N       E                     dE             d eps       ncg     rms          rms(c)
DAV:   1    -0.430442196141E+03   -0.83310E-09   -0.39740E-12 28160   0.221E-10    0.953E-05
DAV:   2    -0.430442196140E+03    0.94042E-09   -0.82244E-12 28160   0.207E-10    0.953E-05
DAV:   3    -0.430442196141E+03   -0.12769E-08   -0.42887E-12 28160   0.404E-10    0.953E-05
DAV:   4    -0.430442196141E+03    0.48931E-09   -0.39819E-12 28160   0.297E-10    0.953E-05
DAV:   5    -0.430442196140E+03    0.43838E-09   -0.61911E-12 28160   0.269E-10    0.953E-05
DAV:   6    -0.430442196140E+03    0.34197E-09   -0.53306E-12 28160   0.191E-10
  45 F= -.43044220E+03 E0= -.43044220E+03  d E =0.000000E+00
       N       E                     dE             d eps       ncg     rms          rms(c)
DAV:   1    -0.430442196140E+03   -0.24738E-09   -0.29022E-12 28160   0.201E-10    0.953E-05
DAV:   2    -0.430442196141E+03   -0.86584E-09   -0.10117E-12 28160   0.208E-10    0.953E-05
DAV:   3    -0.430442196140E+03    0.10732E-08   -0.69259E-12 28160   0.304E-10    0.953E-05
DAV:   4    -0.430442196141E+03   -0.37289E-09   -0.28598E-12 28160   0.222E-10    0.953E-05
DAV:   5    -0.430442196141E+03   -0.10186E-09   -0.87966E-12 28160   0.331E-10    0.953E-05
DAV:   6    -0.430442196141E+03   -0.18736E-09   -0.35759E-12 28160   0.354E-10
  46 F= -.43044220E+03 E0= -.43044220E+03  d E =0.000000E+00
       N       E                     dE             d eps       ncg     rms          rms(c)
DAV:   1    -0.430442196140E+03    0.79490E-09   -0.48394E-12 28160   0.212E-10    0.953E-05
DAV:   2    -0.430442196141E+03   -0.94224E-09   -0.51212E-12 28160   0.258E-10    0.953E-05
DAV:   3    -0.430442196141E+03    0.38017E-09   -0.76671E-12 28160   0.262E-10    0.953E-05
DAV:   4    -0.430442196141E+03   -0.43656E-09   -0.73964E-12 28160   0.225E-10    0.953E-05
DAV:   5    -0.430442196140E+03    0.67121E-09   -0.60027E-12 28160   0.192E-10    0.953E-05
DAV:   6    -0.430442196141E+03   -0.56207E-09   -0.57707E-12 28160   0.235E-10
  47 F= -.43044220E+03 E0= -.43044220E+03  d E =0.000000E+00
       N       E                     dE             d eps       ncg     rms          rms(c)
DAV:   1    -0.430442196141E+03   -0.68758E-09   -0.31921E-12 28160   0.232E-10    0.953E-05
DAV:   2    -0.430442196140E+03    0.72396E-09   -0.80537E-12 28160   0.217E-10    0.953E-05
DAV:   3    -0.430442196141E+03   -0.70031E-09   -0.29329E-12 28160   0.209E-10    0.953E-05
DAV:   4    -0.430442196141E+03   -0.29468E-09   -0.74781E-12 28160   0.142E-10    0.953E-05
DAV:   5    -0.430442196141E+03   -0.10732E-09   -0.41679E-12 28160   0.189E-10    0.953E-05
DAV:   6    -0.430442196141E+03    0.58390E-09   -0.81775E-12 28160   0.204E-10
  48 F= -.43044220E+03 E0= -.43044220E+03  d E =0.000000E+00
       N       E                     dE             d eps       ncg     rms          rms(c)
DAV:   1    -0.430442196141E+03    0.76398E-09   -0.24298E-12 28160   0.173E-10    0.953E-05
DAV:   2    -0.430442196140E+03    0.74579E-10   -0.72002E-12 28160   0.225E-10    0.953E-05
DAV:   3    -0.430442196141E+03   -0.69122E-10   -0.69706E-12 28160   0.187E-10    0.953E-05
DAV:   4    -0.430442196140E+03    0.19645E-09   -0.44326E-12 28160   0.182E-10    0.953E-05
DAV:   5    -0.430442196141E+03   -0.80581E-09   -0.64067E-12 28160   0.162E-10    0.953E-05
DAV:   6    -0.430442196141E+03    0.87311E-10   -0.20112E-12 28160   0.208E-10
  49 F= -.43044220E+03 E0= -.43044220E+03  d E =0.000000E+00
       N       E                     dE             d eps       ncg     rms          rms(c)
DAV:   1    -0.430442196141E+03    0.45293E-09   -0.34334E-12 28160   0.341E-10    0.953E-05
DAV:   2    -0.430442196140E+03    0.32924E-09   -0.52107E-12 28160   0.286E-10    0.953E-05
DAV:   3    -0.430442196141E+03   -0.35652E-09   -0.53610E-12 28160   0.206E-10    0.953E-05
DAV:   4    -0.430442196140E+03    0.34743E-09   -0.50420E-12 28160   0.193E-10    0.953E-05
DAV:   5    -0.430442196140E+03    0.32742E-10   -0.61924E-12 28160   0.313E-10    0.953E-05
DAV:   6    -0.430442196141E+03   -0.77307E-09   -0.46646E-12 28160   0.245E-10
  50 F= -.43044220E+03 E0= -.43044220E+03  d E =0.000000E+00
       N       E                     dE             d eps       ncg     rms          rms(c)
DAV:   1    -0.430442196141E+03   -0.64028E-09   -0.38367E-12 28160   0.243E-10    0.953E-05
DAV:   2    -0.430442196141E+03    0.50932E-09   -0.41859E-12 28160   0.277E-10    0.953E-05
DAV:   3    -0.430442196141E+03   -0.81855E-09   -0.33161E-12 28160   0.347E-10    0.953E-05
DAV:   4    -0.430442196141E+03    0.57662E-09   -0.32987E-12 28160   0.174E-10    0.953E-05
DAV:   5    -0.430442196140E+03    0.31287E-09   -0.39928E-12 28160   0.199E-10    0.953E-05
DAV:   6    -0.430442196141E+03   -0.71486E-09   -0.29266E-12 28160   0.906E-11
  51 F= -.43044220E+03 E0= -.43044220E+03  d E =0.000000E+00
       N       E                     dE             d eps       ncg     rms          rms(c)
DAV:   1    -0.430442196140E+03   -0.10914E-10   -0.77440E-12 28160   0.216E-10    0.953E-05
DAV:   2    -0.430442196141E+03   -0.58571E-09   -0.53711E-12 28160   0.349E-10    0.953E-05
DAV:   3    -0.430442196141E+03    0.49113E-10   -0.66608E-12 28160   0.219E-10    0.953E-05
DAV:   4    -0.430442196141E+03   -0.54570E-11   -0.38720E-12 28160   0.276E-10    0.953E-05
DAV:   5    -0.430442196140E+03    0.74397E-09   -0.51633E-12 28160   0.161E-10    0.953E-05
DAV:   6    -0.430442196141E+03   -0.40200E-09   -0.85277E-12 28160   0.191E-10
  52 F= -.43044220E+03 E0= -.43044220E+03  d E =0.000000E+00
       N       E                     dE             d eps       ncg     rms          rms(c)
DAV:   1    -0.430442196140E+03    0.10914E-10   -0.61137E-12 28160   0.239E-10    0.953E-05
DAV:   2    -0.430442196141E+03   -0.57298E-09   -0.77623E-12 28160   0.295E-10    0.953E-05
DAV:   3    -0.430442196141E+03   -0.27649E-09   -0.45617E-12 28160   0.244E-10    0.953E-05
DAV:   4    -0.430442196141E+03    0.70941E-10   -0.75010E-12 28160   0.163E-10    0.953E-05
DAV:   5    -0.430442196140E+03    0.72396E-09   -0.49118E-12 28160   0.192E-10    0.953E-05
DAV:   6    -0.430442196140E+03   -0.18190E-11   -0.52043E-12 28160   0.112E-10
  53 F= -.43044220E+03 E0= -.43044220E+03  d E =0.000000E+00
       N       E                     dE             d eps       ncg     rms          rms(c)
DAV:   1    -0.430442196140E+03   -0.80036E-10   -0.49317E-12 28160   0.130E-10    0.953E-05
DAV:   2    -0.430442196141E+03   -0.17826E-09   -0.41863E-12 28160   0.335E-10    0.953E-05
DAV:   3    -0.430442196141E+03   -0.40018E-10   -0.19634E-12 28160   0.240E-10    0.953E-05
DAV:   4    -0.430442196141E+03   -0.64028E-09   -0.31695E-12 28160   0.190E-10    0.953E-05
DAV:   5    -0.430442196140E+03    0.99681E-09   -0.35989E-12 28160   0.303E-10    0.953E-05
DAV:   6    -0.430442196141E+03   -0.63847E-09   -0.40463E-12 28160   0.200E-10
  54 F= -.43044220E+03 E0= -.43044220E+03  d E =0.000000E+00
       N       E                     dE             d eps       ncg     rms          rms(c)
DAV:   1    -0.430442196141E+03   -0.44020E-09   -0.60479E-12 28160   0.182E-10    0.953E-05
DAV:   2    -0.430442196141E+03    0.54570E-11   -0.81118E-12 28160   0.160E-10    0.953E-05
DAV:   3    -0.430442196141E+03   -0.34379E-09   -0.48670E-12 28160   0.141E-10    0.953E-05
DAV:   4    -0.430442196141E+03   -0.36925E-09   -0.57859E-12 28160   0.172E-10    0.953E-05
DAV:   5    -0.430442196140E+03    0.98589E-09   -0.66144E-12 28160   0.157E-10    0.953E-05
DAV:   6    -0.430442196140E+03    0.36562E-09   -0.64453E-12 28160   0.129E-10
  55 F= -.43044220E+03 E0= -.43044220E+03  d E =0.000000E+00
       N       E                     dE             d eps       ncg     rms          rms(c)
DAV:   1    -0.430442196140E+03    0.45475E-09   -0.33964E-12 28160   0.154E-10    0.953E-05
DAV:   2    -0.430442196141E+03   -0.11078E-08   -0.67957E-12 28160   0.233E-10    0.953E-05
DAV:   3    -0.430442196141E+03    0.34925E-09   -0.11745E-11 28160   0.204E-10    0.953E-05
DAV:   4    -0.430442196140E+03    0.38926E-09   -0.37669E-12 28160   0.177E-10    0.953E-05
DAV:   5    -0.430442196140E+03   -0.56389E-10   -0.73034E-12 28160   0.195E-10    0.953E-05
DAV:   6    -0.430442196140E+03   -0.25466E-10   -0.53077E-12 28160   0.217E-10
  56 F= -.43044220E+03 E0= -.43044220E+03  d E =0.000000E+00
       N       E                     dE             d eps       ncg     rms          rms(c)
DAV:   1    -0.430442196141E+03   -0.77671E-09   -0.74595E-12 28160   0.186E-10    0.953E-05
DAV:   2    -0.430442196141E+03    0.50204E-09   -0.76003E-12 28160   0.274E-10    0.953E-05
DAV:   3    -0.430442196140E+03    0.40382E-09   -0.46938E-12 28160   0.249E-10    0.953E-05
DAV:   4    -0.430442196141E+03   -0.63301E-09   -0.27892E-12 28160   0.207E-10    0.953E-05
DAV:   5    -0.430442196141E+03   -0.41473E-09   -0.53221E-12 28160   0.300E-10    0.953E-05
DAV:   6    -0.430442196141E+03    0.28558E-09   -0.39373E-12 28160   0.244E-10
  57 F= -.43044220E+03 E0= -.43044220E+03  d E =0.000000E+00
       N       E                     dE             d eps       ncg     rms          rms(c)
DAV:   1    -0.430442196140E+03    0.10277E-08   -0.70788E-12 28160   0.155E-10    0.953E-05
DAV:   2    -0.430442196140E+03   -0.19281E-09   -0.25550E-12 28160   0.262E-10    0.953E-05
DAV:   3    -0.430442196140E+03    0.54206E-09   -0.28172E-12 28160   0.222E-10    0.953E-05
DAV:   4    -0.430442196141E+03   -0.10150E-08   -0.21688E-12 28160   0.264E-10    0.953E-05
DAV:   5    -0.430442196141E+03    0.12369E-09   -0.68176E-12 28160   0.280E-10    0.953E-05
DAV:   6    -0.430442196140E+03    0.31832E-09   -0.10966E-12 28160   0.247E-10
  58 F= -.43044220E+03 E0= -.43044220E+03  d E =0.000000E+00
       N       E                     dE             d eps       ncg     rms          rms(c)
DAV:   1    -0.430442196141E+03   -0.11096E-09   -0.25646E-12 28160   0.179E-10    0.953E-05
DAV:   2    -0.430442196141E+03    0.37289E-09   -0.32760E-12 28160   0.284E-10    0.953E-05
DAV:   3    -0.430442196141E+03   -0.56389E-09   -0.64216E-12 28160   0.241E-10    0.953E-05
DAV:   4    -0.430442196141E+03    0.16007E-09   -0.48506E-12 28160   0.166E-10    0.953E-05
DAV:   5    -0.430442196141E+03   -0.83674E-10   -0.40389E-12 28160   0.163E-10    0.953E-05
DAV:   6    -0.430442196141E+03    0.33833E-09   -0.71180E-12 28160   0.257E-10
  59 F= -.43044220E+03 E0= -.43044220E+03  d E =0.000000E+00
       N       E                     dE             d eps       ncg     rms          rms(c)
DAV:   1    -0.430442196140E+03    0.70213E-09   -0.19523E-12 28160   0.184E-10    0.953E-05
DAV:   2    -0.430442196140E+03    0.21100E-09   -0.20742E-12 28160   0.210E-10    0.953E-05
DAV:   3    -0.430442196141E+03   -0.81491E-09   -0.42810E-12 28160   0.197E-10    0.953E-05
DAV:   4    -0.430442196140E+03    0.51841E-09   -0.41834E-12 28160   0.266E-10    0.953E-05
DAV:   5    -0.430442196141E+03   -0.39654E-09   -0.25260E-12 28160   0.182E-10    0.953E-05
DAV:   6    -0.430442196140E+03    0.38017E-09   -0.64557E-12 28160   0.220E-10
  60 F= -.43044220E+03 E0= -.43044220E+03  d E =0.000000E+00
       N       E                     dE             d eps       ncg     rms          rms(c)
DAV:   1    -0.430442196141E+03   -0.28740E-09   -0.71865E-12 28160   0.163E-10    0.953E-05
DAV:   2    -0.430442196141E+03    0.61846E-10   -0.40731E-12 28160   0.259E-10    0.953E-05
DAV:   3    -0.430442196141E+03   -0.10550E-09   -0.62671E-12 28160   0.168E-10    0.953E-05
DAV:   4    -0.430442196141E+03   -0.89130E-10   -0.23934E-12 28160   0.169E-10    0.953E-05
DAV:   5    -0.430442196141E+03    0.70577E-09   -0.41881E-12 28160   0.184E-10    0.953E-05
DAV:   6    -0.430442196141E+03   -0.98225E-10   -0.73732E-12 28160   0.233E-10
  61 F= -.43044220E+03 E0= -.43044220E+03  d E =0.000000E+00
       N       E                     dE             d eps       ncg     rms          rms(c)
DAV:   1    -0.430442196140E+03    0.28194E-09   -0.22034E-12 28160   0.206E-10    0.953E-05
DAV:   2    -0.430442196141E+03   -0.65847E-09   -0.50405E-12 28160   0.289E-10    0.953E-05
DAV:   3    -0.430442196140E+03    0.66211E-09   -0.27002E-12 28160   0.325E-10    0.953E-05
DAV:   4    -0.430442196141E+03   -0.92950E-09   -0.41351E-12 28160   0.280E-10    0.953E-05
DAV:   5    -0.430442196141E+03    0.21464E-09   -0.66197E-12 28160   0.243E-10    0.953E-05
DAV:   6    -0.430442196141E+03    0.43656E-09   -0.74027E-12 28160   0.166E-10
  62 F= -.43044220E+03 E0= -.43044220E+03  d E =0.000000E+00
       N       E                     dE             d eps       ncg     rms          rms(c)
DAV:   1    -0.430442196141E+03   -0.23101E-09   -0.55264E-12 28160   0.173E-10    0.953E-05
DAV:   2    -0.430442196140E+03    0.11732E-08   -0.73385E-12 28160   0.221E-10    0.953E-05
DAV:   3    -0.430442196141E+03   -0.75670E-09    0.58454E-13 28160   0.295E-10    0.953E-05
DAV:   4    -0.430442196141E+03    0.15825E-09   -0.64670E-12 28160   0.232E-10    0.953E-05
DAV:   5    -0.430442196141E+03    0.56389E-10   -0.38281E-12 28160   0.159E-10    0.953E-05
DAV:   6    -0.430442196141E+03   -0.42019E-09   -0.42405E-12 28160   0.192E-10
  63 F= -.43044220E+03 E0= -.43044220E+03  d E =0.000000E+00
       N       E                     dE             d eps       ncg     rms          rms(c)
DAV:   1    -0.430442196140E+03    0.36925E-09   -0.39549E-12 28160   0.241E-10    0.953E-05
DAV:   2    -0.430442196140E+03    0.20373E-09   -0.65702E-12 28160   0.277E-10    0.953E-05
DAV:   3    -0.430442196141E+03   -0.13879E-08   -0.39806E-12 28160   0.189E-10    0.953E-05
DAV:   4    -0.430442196141E+03    0.20191E-09   -0.32924E-12 28160   0.236E-10    0.953E-05
DAV:   5    -0.430442196140E+03    0.12078E-08   -0.46595E-12 28160   0.210E-10    0.953E-05
DAV:   6    -0.430442196140E+03   -0.46748E-09   -0.52217E-12 28160   0.245E-10
  64 F= -.43044220E+03 E0= -.43044220E+03  d E =0.000000E+00
       N       E                     dE             d eps       ncg     rms          rms(c)
DAV:   1    -0.430442196140E+03   -0.25466E-09   -0.63305E-12 28160   0.160E-10    0.953E-05
DAV:   2    -0.430442196141E+03   -0.10768E-08   -0.26825E-12 28160   0.235E-10    0.953E-05
DAV:   3    -0.430442196141E+03    0.14188E-09   -0.35979E-12 28160   0.196E-10    0.953E-05
DAV:   4    -0.430442196141E+03    0.46202E-09   -0.37688E-12 28160   0.136E-10    0.953E-05
DAV:   5    -0.430442196140E+03    0.26557E-09   -0.44483E-12 28160   0.211E-10    0.953E-05
DAV:   6    -0.430442196140E+03   -0.72760E-11   -0.40951E-12 28160   0.197E-10
  65 F= -.43044220E+03 E0= -.43044220E+03  d E =0.000000E+00
       N       E                     dE             d eps       ncg     rms          rms(c)
DAV:   1    -0.430442196141E+03   -0.29104E-09   -0.55937E-12 28160   0.130E-10    0.953E-05
DAV:   2    -0.430442196140E+03    0.83492E-09   -0.10626E-11 28160   0.179E-10    0.953E-05
DAV:   3    -0.430442196140E+03   -0.29650E-09   -0.36239E-12 28160   0.241E-10    0.953E-05
DAV:   4    -0.430442196140E+03   -0.26193E-09   -0.43690E-12 28160   0.237E-10    0.953E-05
DAV:   5    -0.430442196141E+03   -0.77671E-09   -0.28385E-12 28160   0.251E-10    0.953E-05
DAV:   6    -0.430442196140E+03    0.81127E-09   -0.52548E-12 28160   0.262E-10
  66 F= -.43044220E+03 E0= -.43044220E+03  d E =0.000000E+00
       N       E                     dE             d eps       ncg     rms          rms(c)
DAV:   1    -0.430442196140E+03    0.12515E-08   -0.59893E-12 28160   0.258E-10    0.953E-05
DAV:   2    -0.430442196140E+03   -0.42019E-09   -0.47452E-12 28160   0.299E-10    0.953E-05
DAV:   3    -0.430442196140E+03   -0.10186E-09   -0.24250E-12 28160   0.188E-10    0.953E-05
DAV:   4    -0.430442196141E+03   -0.81127E-09   -0.49438E-12 28160   0.158E-10    0.953E-05
DAV:   5    -0.430442196140E+03    0.82582E-09   -0.60392E-12 28160   0.194E-10    0.953E-05
DAV:   6    -0.430442196141E+03   -0.23101E-09   -0.24006E-12 28160   0.243E-10
  67 F= -.43044220E+03 E0= -.43044220E+03  d E =0.000000E+00
       N       E                     dE             d eps       ncg     rms          rms(c)
DAV:   1    -0.430442196141E+03   -0.86220E-09   -0.48788E-12 28160   0.216E-10    0.953E-05
DAV:   2    -0.430442196141E+03    0.36925E-09   -0.20865E-12 28160   0.336E-10    0.953E-05
DAV:   3    -0.430442196140E+03    0.52205E-09   -0.53640E-12 28160   0.288E-10    0.953E-05
DAV:   4    -0.430442196140E+03    0.16371E-10   -0.68831E-12 28160   0.171E-10    0.953E-05
DAV:   5    -0.430442196140E+03    0.63665E-10   -0.16037E-12 28160   0.184E-10    0.953E-05
DAV:   6    -0.430442196141E+03   -0.10550E-08   -0.65442E-12 28160   0.159E-10
  68 F= -.43044220E+03 E0= -.43044220E+03  d E =0.000000E+00
       N       E                     dE             d eps       ncg     rms          rms(c)
DAV:   1    -0.430442196140E+03    0.43110E-09   -0.10823E-11 28160   0.158E-10    0.953E-05
DAV:   2    -0.430442196140E+03   -0.52387E-09   -0.55234E-12 28160   0.251E-10    0.953E-05
DAV:   3    -0.430442196140E+03    0.18736E-09   -0.53681E-12 28160   0.260E-10    0.953E-05
DAV:   4    -0.430442196141E+03   -0.56934E-09   -0.37682E-12 28160   0.164E-10    0.953E-05
DAV:   5    -0.430442196140E+03    0.70395E-09    0.30916E-13 28160   0.205E-10    0.953E-05
DAV:   6    -0.430442196141E+03   -0.99499E-09   -0.28681E-12 28160   0.178E-10
  69 F= -.43044220E+03 E0= -.43044220E+03  d E =0.000000E+00
       N       E                     dE             d eps       ncg     rms          rms(c)
DAV:   1    -0.430442196140E+03   -0.16007E-09   -0.65356E-12 28160   0.207E-10    0.953E-05
DAV:   2    -0.430442196141E+03   -0.10150E-08   -0.25761E-12 28160   0.190E-10    0.953E-05
DAV:   3    -0.430442196141E+03    0.63483E-09   -0.31633E-12 28160   0.241E-10    0.953E-05
DAV:   4    -0.430442196141E+03   -0.66029E-09   -0.49936E-12 28160   0.167E-10    0.953E-05
DAV:   5    -0.430442196141E+03    0.43656E-09   -0.59513E-12 28160   0.240E-10    0.953E-05
DAV:   6    -0.430442196140E+03    0.89858E-09    0.11519E-13 28160   0.144E-10
  70 F= -.43044220E+03 E0= -.43044220E+03  d E =0.000000E+00
       N       E                     dE             d eps       ncg     rms          rms(c)
DAV:   1    -0.430442196140E+03    0.55843E-09   -0.39645E-12 28160   0.228E-10    0.953E-05
DAV:   2    -0.430442196140E+03    0.17099E-09   -0.51663E-12 28160   0.199E-10    0.953E-05
DAV:   3    -0.430442196141E+03   -0.72214E-09   -0.58516E-12 28160   0.238E-10    0.953E-05
DAV:   4    -0.430442196141E+03   -0.78217E-10   -0.16907E-12 28160   0.222E-10    0.953E-05
DAV:   5    -0.430442196141E+03   -0.76398E-10   -0.26273E-12 28160   0.235E-10    0.953E-05
DAV:   6    -0.430442196141E+03    0.37653E-09   -0.59536E-12 28160   0.261E-10
  71 F= -.43044220E+03 E0= -.43044220E+03  d E =0.000000E+00
       N       E                     dE             d eps       ncg     rms          rms(c)
DAV:   1    -0.430442196140E+03    0.60027E-09   -0.57769E-12 28160   0.245E-10    0.953E-05
DAV:   2    -0.430442196140E+03   -0.20009E-10   -0.48121E-12 28160   0.273E-10    0.953E-05
DAV:   3    -0.430442196141E+03   -0.92223E-09   -0.73460E-12 28160   0.270E-10    0.953E-05
DAV:   4    -0.430442196140E+03    0.87130E-09   -0.62298E-12 28160   0.219E-10    0.953E-05
DAV:   5    -0.430442196140E+03    0.54570E-11   -0.48361E-12 28160   0.181E-10    0.953E-05
DAV:   6    -0.430442196141E+03   -0.44383E-09   -0.42582E-12 28160   0.250E-10
  72 F= -.43044220E+03 E0= -.43044220E+03  d E =0.000000E+00
       N       E                     dE             d eps       ncg     rms          rms(c)
DAV:   1    -0.430442196141E+03   -0.18190E-09   -0.56579E-12 28160   0.273E-10    0.953E-05
DAV:   2    -0.430442196141E+03   -0.13642E-09   -0.93779E-12 28160   0.179E-10    0.953E-05
DAV:   3    -0.430442196141E+03   -0.76398E-10   -0.49967E-12 28160   0.184E-10    0.953E-05
DAV:   4    -0.430442196141E+03    0.29286E-09   -0.21344E-13 28160   0.144E-10    0.953E-05
DAV:   5    -0.430442196141E+03   -0.45839E-09   -0.57776E-12 28160   0.254E-10    0.953E-05
DAV:   6    -0.430442196140E+03    0.82036E-09   -0.79007E-12 28160   0.244E-10
  73 F= -.43044220E+03 E0= -.43044220E+03  d E =0.000000E+00
       N       E                     dE             d eps       ncg     rms          rms(c)
DAV:   1    -0.430442196140E+03    0.10132E-08   -0.50673E-12 28160   0.174E-10    0.953E-05
DAV:   2    -0.430442196141E+03   -0.95315E-09   -0.55548E-12 28160   0.249E-10    0.953E-05
DAV:   3    -0.430442196141E+03    0.26375E-09   -0.15754E-12 28160   0.204E-10    0.953E-05
DAV:   4    -0.430442196141E+03   -0.10732E-09   -0.78232E-12 28160   0.114E-10    0.953E-05
DAV:   5    -0.430442196141E+03   -0.45111E-09   -0.40097E-12 28160   0.181E-10    0.953E-05
DAV:   6    -0.430442196140E+03    0.12842E-08   -0.64318E-12 28160   0.131E-10
  74 F= -.43044220E+03 E0= -.43044220E+03  d E =0.000000E+00
       N       E                     dE             d eps       ncg     rms          rms(c)
DAV:   1    -0.430442196141E+03    0.31469E-09   -0.62528E-12 28160   0.190E-10    0.953E-05
DAV:   2    -0.430442196140E+03    0.90222E-09   -0.42781E-12 28160   0.362E-10    0.953E-05
DAV:   3    -0.430442196141E+03   -0.74942E-09   -0.30679E-12 28160   0.262E-10    0.953E-05
DAV:   4    -0.430442196141E+03   -0.10186E-09   -0.31427E-12 28160   0.233E-10    0.953E-05
DAV:   5    -0.430442196141E+03    0.96406E-10   -0.84872E-12 28160   0.175E-10    0.953E-05
DAV:   6    -0.430442196141E+03    0.32196E-09   -0.65305E-12 28160   0.193E-10
  75 F= -.43044220E+03 E0= -.43044220E+03  d E =0.000000E+00
       N       E                     dE             d eps       ncg     rms          rms(c)
DAV:   1    -0.430442196141E+03   -0.22555E-09   -0.55889E-12 28160   0.176E-10    0.953E-05
DAV:   2    -0.430442196141E+03    0.12551E-09   -0.49937E-12 28160   0.165E-10    0.953E-05
DAV:   3    -0.430442196141E+03   -0.27467E-09   -0.46955E-12 28160   0.159E-10    0.953E-05
DAV:   4    -0.430442196140E+03    0.91859E-09   -0.15439E-12 28160   0.252E-10    0.953E-05
DAV:   5    -0.430442196141E+03   -0.78944E-09    0.56557E-13 28160   0.275E-10    0.953E-05
DAV:   6    -0.430442196141E+03   -0.33106E-09   -0.95210E-13 28160   0.217E-10
  76 F= -.43044220E+03 E0= -.43044220E+03  d E =0.000000E+00
       N       E                     dE             d eps       ncg     rms          rms(c)
DAV:   1    -0.430442196140E+03    0.63301E-09   -0.46021E-12 28160   0.288E-10    0.953E-05
DAV:   2    -0.430442196141E+03   -0.47839E-09   -0.32939E-12 28160   0.209E-10    0.953E-05
DAV:   3    -0.430442196140E+03    0.80945E-09   -0.49352E-12 28160   0.233E-10    0.953E-05
DAV:   4    -0.430442196141E+03   -0.11660E-08   -0.36511E-12 28160   0.194E-10    0.953E-05
DAV:   5    -0.430442196141E+03    0.58390E-09   -0.14512E-12 28160   0.279E-10    0.953E-05
DAV:   6    -0.430442196140E+03    0.20918E-09   -0.22181E-12 28160   0.219E-10
  77 F= -.43044220E+03 E0= -.43044220E+03  d E =0.000000E+00
       N       E                     dE             d eps       ncg     rms          rms(c)
DAV:   1    -0.430442196140E+03    0.56025E-09   -0.79847E-12 28160   0.209E-10    0.953E-05
DAV:   2    -0.430442196141E+03   -0.64210E-09   -0.81721E-12 28160   0.304E-10    0.953E-05
DAV:   3    -0.430442196141E+03   -0.10732E-09   -0.55324E-12 28160   0.396E-10    0.953E-05
DAV:   4    -0.430442196140E+03    0.88585E-09   -0.63521E-12 28160   0.284E-10    0.953E-05
DAV:   5    -0.430442196141E+03   -0.95315E-09   -0.60694E-12 28160   0.211E-10    0.953E-05
DAV:   6    -0.430442196141E+03   -0.98225E-10   -0.49342E-12 28160   0.335E-10
  78 F= -.43044220E+03 E0= -.43044220E+03  d E =0.000000E+00
       N       E                     dE             d eps       ncg     rms          rms(c)
DAV:   1    -0.430442196140E+03    0.65302E-09   -0.40091E-12 28160   0.282E-10    0.953E-05
DAV:   2    -0.430442196141E+03   -0.45657E-09   -0.69387E-12 28160   0.303E-10    0.953E-05
DAV:   3    -0.430442196140E+03    0.62028E-09   -0.56304E-12 28160   0.338E-10    0.953E-05
DAV:   4    -0.430442196140E+03   -0.12187E-09   -0.75194E-12 28160   0.270E-10    0.953E-05
DAV:   5    -0.430442196141E+03   -0.50932E-09   -0.50836E-12 28160   0.164E-10    0.953E-05
DAV:   6    -0.430442196141E+03    0.20736E-09   -0.49472E-12 28160   0.225E-10
  79 F= -.43044220E+03 E0= -.43044220E+03  d E =0.000000E+00
       N       E                     dE             d eps       ncg     rms          rms(c)
DAV:   1    -0.430442196141E+03   -0.21828E-09   -0.62127E-12 28160   0.219E-10    0.953E-05
DAV:   2    -0.430442196140E+03    0.55297E-09   -0.41968E-12 28160   0.221E-10    0.953E-05
DAV:   3    -0.430442196140E+03    0.31832E-09   -0.21566E-12 28160   0.200E-10    0.953E-05
DAV:   4    -0.430442196141E+03   -0.88767E-09   -0.32002E-12 28160   0.240E-10    0.953E-05
DAV:   5    -0.430442196140E+03    0.76761E-09   -0.48338E-12 28160   0.288E-10    0.953E-05
DAV:   6    -0.430442196140E+03    0.90949E-10   -0.42852E-12 28160   0.234E-10
  80 F= -.43044220E+03 E0= -.43044220E+03  d E =0.000000E+00
       N       E                     dE             d eps       ncg     rms          rms(c)
DAV:   1    -0.430442196141E+03   -0.80399E-09   -0.47614E-12 28160   0.222E-10    0.953E-05
DAV:   2    -0.430442196140E+03    0.11551E-08   -0.68182E-12 28160   0.234E-10    0.953E-05
DAV:   3    -0.430442196140E+03   -0.52387E-09   -0.35176E-12 28160   0.265E-10    0.953E-05
DAV:   4    -0.430442196141E+03   -0.43656E-09   -0.19902E-12 28160   0.154E-10    0.953E-05
DAV:   5    -0.430442196140E+03    0.37653E-09   -0.92705E-12 28160   0.203E-10    0.953E-05
DAV:   6    -0.430442196141E+03   -0.88949E-09   -0.53071E-12 28160   0.153E-10
  81 F= -.43044220E+03 E0= -.43044220E+03  d E =0.000000E+00
       N       E                     dE             d eps       ncg     rms          rms(c)
DAV:   1    -0.430442196140E+03    0.10186E-09   -0.46308E-12 28160   0.161E-10    0.953E-05
DAV:   2    -0.430442196140E+03   -0.94587E-10   -0.43121E-12 28160   0.228E-10    0.953E-05
DAV:   3    -0.430442196140E+03    0.36380E-09   -0.50697E-12 28160   0.124E-10    0.953E-05
DAV:   4    -0.430442196141E+03   -0.11696E-08   -0.40883E-12 28160   0.233E-10    0.953E-05
DAV:   5    -0.430442196141E+03    0.68030E-09    0.10894E-12 28160   0.164E-10    0.953E-05
DAV:   6    -0.430442196141E+03   -0.43110E-09   -0.39908E-12 28160   0.283E-10
  82 F= -.43044220E+03 E0= -.43044220E+03  d E =0.000000E+00
       N       E                     dE             d eps       ncg     rms          rms(c)
DAV:   1    -0.430442196140E+03    0.17644E-09   -0.71475E-12 28160   0.280E-10    0.953E-05
DAV:   2    -0.430442196140E+03    0.11096E-09   -0.56499E-12 28160   0.205E-10    0.953E-05
DAV:   3    -0.430442196141E+03   -0.82764E-09   -0.14136E-12 28160   0.206E-10    0.953E-05
DAV:   4    -0.430442196141E+03    0.61118E-09   -0.62287E-12 28160   0.182E-10    0.953E-05
DAV:   5    -0.430442196141E+03   -0.32742E-10   -0.16653E-12 28160   0.352E-10    0.953E-05
DAV:   6    -0.430442196141E+03   -0.41837E-09   -0.45688E-12 28160   0.183E-10
  83 F= -.43044220E+03 E0= -.43044220E+03  d E =0.000000E+00
       N       E                     dE             d eps       ncg     rms          rms(c)
DAV:   1    -0.430442196141E+03   -0.10914E-09   -0.24007E-12 28160   0.184E-10    0.953E-05
DAV:   2    -0.430442196141E+03   -0.36198E-09   -0.28263E-12 28160   0.406E-10    0.953E-05
DAV:   3    -0.430442196141E+03    0.52751E-10   -0.47700E-12 28160   0.307E-10    0.953E-05
DAV:   4    -0.430442196140E+03    0.72760E-09   -0.75059E-12 28160   0.252E-10    0.953E-05
DAV:   5    -0.430442196141E+03   -0.42746E-09   -0.48630E-12 28160   0.219E-10    0.953E-05
DAV:   6    -0.430442196141E+03   -0.64210E-09   -0.89266E-12 28160   0.178E-10
  84 F= -.43044220E+03 E0= -.43044220E+03  d E =0.000000E+00
       N       E                     dE             d eps       ncg     rms          rms(c)
DAV:   1    -0.430442196141E+03   -0.21828E-10   -0.67926E-12 28160   0.127E-10    0.953E-05
DAV:   2    -0.430442196140E+03    0.30195E-09   -0.20042E-12 28160   0.225E-10    0.953E-05
DAV:   3    -0.430442196140E+03    0.29831E-09   -0.43322E-12 28160   0.230E-10    0.953E-05
DAV:   4    -0.430442196140E+03   -0.37471E-09   -0.29985E-12 28160   0.206E-10    0.953E-05
DAV:   5    -0.430442196140E+03    0.74579E-10   -0.27602E-12 28160   0.190E-10    0.953E-05
DAV:   6    -0.430442196141E+03   -0.50568E-09   -0.63541E-12 28160   0.189E-10
  85 F= -.43044220E+03 E0= -.43044220E+03  d E =0.000000E+00
       N       E                     dE             d eps       ncg     rms          rms(c)
DAV:   1    -0.430442196140E+03    0.21282E-09   -0.68701E-12 28160   0.181E-10    0.953E-05
DAV:   2    -0.430442196140E+03    0.12187E-09   -0.53206E-12 28160   0.289E-10    0.953E-05
DAV:   3    -0.430442196140E+03    0.10186E-09   -0.45732E-12 28160   0.148E-10    0.953E-05
DAV:   4    -0.430442196140E+03   -0.46566E-09   -0.39522E-12 28160   0.190E-10    0.953E-05
DAV:   5    -0.430442196140E+03    0.34561E-10   -0.45483E-12 28160   0.175E-10    0.953E-05
DAV:   6    -0.430442196140E+03    0.72760E-10   -0.29023E-12 28160   0.161E-10
  86 F= -.43044220E+03 E0= -.43044220E+03  d E =0.000000E+00
       N       E                     dE             d eps       ncg     rms          rms(c)
DAV:   1    -0.430442196141E+03   -0.81855E-09   -0.19816E-12 28160   0.241E-10    0.953E-05
DAV:   2    -0.430442196140E+03    0.71850E-09   -0.31922E-12 28160   0.165E-10    0.953E-05
DAV:   3    -0.430442196140E+03    0.36744E-09    0.45921E-13 28160   0.205E-10    0.953E-05
DAV:   4    -0.430442196141E+03   -0.56207E-09   -0.58047E-12 28160   0.241E-10    0.953E-05
DAV:   5    -0.430442196141E+03   -0.32560E-09   -0.55310E-12 28160   0.349E-10    0.953E-05
DAV:   6    -0.430442196141E+03    0.35834E-09   -0.50863E-12 28160   0.191E-10
  87 F= -.43044220E+03 E0= -.43044220E+03  d E =0.000000E+00
       N       E                     dE             d eps       ncg     rms          rms(c)
DAV:   1    -0.430442196140E+03    0.79854E-09   -0.56958E-12 28160   0.246E-10    0.953E-05
DAV:   2    -0.430442196141E+03   -0.10114E-08   -0.32876E-12 28160   0.342E-10    0.953E-05
DAV:   3    -0.430442196141E+03    0.48385E-09   -0.59022E-12 28160   0.265E-10    0.953E-05
DAV:   4    -0.430442196141E+03   -0.32196E-09   -0.41567E-12 28160   0.201E-10    0.953E-05
DAV:   5    -0.430442196141E+03    0.31832E-09   -0.45117E-12 28160   0.212E-10    0.953E-05
DAV:   6    -0.430442196140E+03    0.56025E-09   -0.53883E-12 28160   0.139E-10
  88 F= -.43044220E+03 E0= -.43044220E+03  d E =0.000000E+00
       N       E                     dE             d eps       ncg     rms          rms(c)
DAV:   1    -0.430442196140E+03    0.55479E-09   -0.45983E-12 28160   0.178E-10    0.953E-05
DAV:   2    -0.430442196140E+03   -0.28558E-09   -0.17839E-12 28160   0.165E-10    0.953E-05
DAV:   3    -0.430442196140E+03    0.14552E-09   -0.28576E-12 28160   0.248E-10    0.953E-05
DAV:   4    -0.430442196141E+03   -0.29104E-09   -0.86061E-12 28160   0.281E-10    0.953E-05
DAV:   5    -0.430442196140E+03    0.74397E-09   -0.51509E-12 28160   0.236E-10    0.953E-05
DAV:   6    -0.430442196140E+03   -0.21646E-09   -0.18770E-12 28160   0.194E-10
  89 F= -.43044220E+03 E0= -.43044220E+03  d E =0.000000E+00
       N       E                     dE             d eps       ncg     rms          rms(c)
DAV:   1    -0.430442196140E+03   -0.63301E-09   -0.43711E-12 28160   0.280E-10    0.953E-05
DAV:   2    -0.430442196140E+03    0.17099E-09   -0.48978E-12 28160   0.157E-10    0.953E-05
DAV:   3    -0.430442196141E+03   -0.28740E-09   -0.31955E-12 28160   0.196E-10    0.953E-05
DAV:   4    -0.430442196141E+03   -0.56025E-09   -0.59923E-12 28160   0.162E-10    0.953E-05
DAV:   5    -0.430442196141E+03    0.48203E-09   -0.40097E-12 28160   0.127E-10    0.953E-05
DAV:   6    -0.430442196140E+03    0.28194E-09   -0.65762E-12 28160   0.160E-10
  90 F= -.43044220E+03 E0= -.43044220E+03  d E =0.000000E+00
       N       E                     dE             d eps       ncg     rms          rms(c)
DAV:   1    -0.430442196140E+03    0.44929E-09   -0.52012E-12 28160   0.156E-10    0.953E-05
DAV:   2    -0.430442196140E+03    0.18190E-10   -0.55644E-12 28160   0.266E-10    0.953E-05
DAV:   3    -0.430442196140E+03   -0.19281E-09   -0.28509E-12 28160   0.393E-10    0.953E-05
DAV:   4    -0.430442196141E+03   -0.50932E-09   -0.86338E-12 28160   0.276E-10    0.953E-05
DAV:   5    -0.430442196141E+03    0.26375E-09    0.13209E-12 28160   0.167E-10    0.953E-05
DAV:   6    -0.430442196141E+03    0.94587E-10   -0.40228E-12 28160   0.128E-10
  91 F= -.43044220E+03 E0= -.43044220E+03  d E =0.000000E+00
       N       E                     dE             d eps       ncg     rms          rms(c)
DAV:   1    -0.430442196141E+03   -0.11823E-09   -0.49230E-12 28160   0.134E-10    0.953E-05
DAV:   2    -0.430442196141E+03    0.14188E-09   -0.67857E-12 28160   0.275E-10    0.953E-05
DAV:   3    -0.430442196140E+03    0.26557E-09   -0.92984E-12 28160   0.217E-10    0.953E-05
DAV:   4    -0.430442196141E+03   -0.76034E-09   -0.46758E-12 28160   0.310E-10    0.953E-05
DAV:   5    -0.430442196141E+03    0.18008E-09   -0.50366E-12 28160   0.280E-10    0.953E-05
DAV:   6    -0.430442196141E+03    0.43474E-09   -0.84241E-12 28160   0.219E-10
  92 F= -.43044220E+03 E0= -.43044220E+03  d E =0.000000E+00
       N       E                     dE             d eps       ncg     rms          rms(c)
DAV:   1    -0.430442196141E+03    0.13097E-09   -0.73247E-12 28160   0.278E-10    0.953E-05
DAV:   2    -0.430442196141E+03    0.23647E-10   -0.27793E-12 28160   0.217E-10    0.953E-05
DAV:   3    -0.430442196141E+03   -0.67303E-10   -0.68693E-12 28160   0.182E-10    0.953E-05
DAV:   4    -0.430442196140E+03    0.61846E-09   -0.81128E-12 28160   0.177E-10    0.953E-05
DAV:   5    -0.430442196141E+03   -0.99317E-09   -0.14693E-12 28160   0.250E-10    0.953E-05
DAV:   6    -0.430442196140E+03    0.95133E-09   -0.68842E-12 28160   0.230E-10
  93 F= -.43044220E+03 E0= -.43044220E+03  d E =0.000000E+00
       N       E                     dE             d eps       ncg     rms          rms(c)
DAV:   1    -0.430442196141E+03    0.63483E-09   -0.85010E-12 28160   0.198E-10    0.953E-05
DAV:   2    -0.430442196141E+03   -0.54206E-09   -0.78413E-12 28160   0.176E-10    0.953E-05
DAV:   3    -0.430442196141E+03    0.51296E-09   -0.67943E-12 28160   0.263E-10    0.953E-05
DAV:   4    -0.430442196140E+03    0.22919E-09   -0.77618E-12 28160   0.314E-10    0.953E-05
DAV:   5    -0.430442196141E+03   -0.48931E-09   -0.36061E-12 28160   0.204E-10    0.953E-05
DAV:   6    -0.430442196141E+03    0.74579E-10   -0.49225E-12 28160   0.135E-10
  94 F= -.43044220E+03 E0= -.43044220E+03  d E =0.000000E+00
       N       E                     dE             d eps       ncg     rms          rms(c)
DAV:   1    -0.430442196141E+03   -0.46748E-09   -0.62202E-12 28160   0.188E-10    0.953E-05
DAV:   2    -0.430442196141E+03    0.57844E-09   -0.75037E-12 28160   0.235E-10    0.953E-05
DAV:   3    -0.430442196140E+03    0.48203E-09   -0.43269E-12 28160   0.184E-10    0.953E-05
DAV:   4    -0.430442196141E+03   -0.70577E-09   -0.48514E-12 28160   0.257E-10    0.953E-05
DAV:   5    -0.430442196141E+03    0.78217E-10   -0.48460E-12 28160   0.204E-10    0.953E-05
DAV:   6    -0.430442196140E+03    0.70759E-09   -0.18915E-12 28160   0.137E-10
  95 F= -.43044220E+03 E0= -.43044220E+03  d E =0.000000E+00
       N       E                     dE             d eps       ncg     rms          rms(c)
DAV:   1    -0.430442196141E+03    0.87311E-10   -0.12891E-12 28160   0.269E-10    0.953E-05
DAV:   2    -0.430442196141E+03   -0.40382E-09   -0.27706E-12 28160   0.299E-10    0.953E-05
DAV:   3    -0.430442196140E+03    0.80036E-09   -0.61536E-12 28160   0.218E-10    0.953E-05
DAV:   4    -0.430442196140E+03    0.21282E-09   -0.70462E-13 28160   0.168E-10    0.953E-05
DAV:   5    -0.430442196141E+03   -0.11678E-08   -0.69353E-12 28160   0.309E-10    0.953E-05
DAV:   6    -0.430442196140E+03    0.13679E-08   -0.58910E-12 28160   0.312E-10
  96 F= -.43044220E+03 E0= -.43044220E+03  d E =0.000000E+00
       N       E                     dE             d eps       ncg     rms          rms(c)
DAV:   1    -0.430442196141E+03    0.81309E-09   -0.83463E-12 28160   0.203E-10    0.953E-05
DAV:   2    -0.430442196141E+03   -0.17099E-09   -0.95819E-12 28160   0.229E-10    0.953E-05
DAV:   3    -0.430442196141E+03   -0.13097E-09   -0.60763E-12 28160   0.238E-10    0.953E-05
DAV:   4    -0.430442196141E+03    0.14188E-09   -0.76572E-12 28160   0.207E-10    0.953E-05
DAV:   5    -0.430442196141E+03   -0.36016E-09   -0.53011E-12 28160   0.194E-10    0.953E-05
DAV:   6    -0.430442196140E+03    0.86766E-09   -0.57827E-12 28160   0.129E-10
  97 F= -.43044220E+03 E0= -.43044220E+03  d E =0.000000E+00
       N       E                     dE             d eps       ncg     rms          rms(c)
DAV:   1    -0.430442196141E+03   -0.16917E-09   -0.28898E-12 28160   0.168E-10    0.953E-05
DAV:   2    -0.430442196141E+03    0.45657E-09   -0.42575E-12 28160   0.286E-10    0.953E-05
DAV:   3    -0.430442196141E+03   -0.21828E-09   -0.32250E-12 28160   0.315E-10    0.953E-05
DAV:   4    -0.430442196141E+03    0.22555E-09   -0.42472E-13 28160   0.190E-10    0.953E-05
DAV:   5    -0.430442196141E+03    0.18190E-10   -0.69671E-12 28160   0.367E-10    0.953E-05
DAV:   6    -0.430442196141E+03   -0.31469E-09   -0.55194E-12 28160   0.368E-10
  98 F= -.43044220E+03 E0= -.43044220E+03  d E =0.000000E+00
       N       E                     dE             d eps       ncg     rms          rms(c)
DAV:   1    -0.430442196141E+03    0.17644E-09   -0.20750E-12 28160   0.204E-10    0.953E-05
DAV:   2    -0.430442196141E+03   -0.35106E-09   -0.62521E-12 28160   0.268E-10    0.953E-05
DAV:   3    -0.430442196141E+03    0.34561E-09   -0.39351E-12 28160   0.215E-10    0.953E-05
DAV:   4    -0.430442196141E+03   -0.39290E-09   -0.51182E-12 28160   0.158E-10    0.953E-05
DAV:   5    -0.430442196140E+03    0.59117E-09   -0.63518E-12 28160   0.148E-10    0.953E-05
DAV:   6    -0.430442196141E+03   -0.23647E-09   -0.60972E-12 28160   0.124E-10
  99 F= -.43044220E+03 E0= -.43044220E+03  d E =0.000000E+00
       N       E                     dE             d eps       ncg     rms          rms(c)
DAV:   1    -0.430442196141E+03   -0.48203E-09   -0.30370E-12 28160   0.175E-10    0.953E-05
DAV:   2    -0.430442196141E+03   -0.18917E-09   -0.81842E-12 28160   0.215E-10    0.953E-05
DAV:   3    -0.430442196140E+03    0.12333E-08   -0.23114E-12 28160   0.230E-10    0.953E-05
DAV:   4    -0.430442196141E+03   -0.92768E-09   -0.31369E-12 28160   0.229E-10    0.953E-05
DAV:   5    -0.430442196140E+03    0.57298E-09   -0.66183E-12 28160   0.174E-10    0.953E-05
DAV:   6    -0.430442196140E+03   -0.34561E-10   -0.80063E-12 28160   0.166E-10
 100 F= -.43044220E+03 E0= -.43044220E+03  d E =0.000000E+00
