  30  30   0   0
  0.7681913E+01  0.9399884E-09  0.5535768E-09  0.5887718E-09  0.5000000E-15
  1.000000000000000E-004
  CAR 
 unknown system                          
     15.73046602    -13.82069967  301      5.90808430      1.00000000
    -13.821  0.0000E+00  0.0000E+00
    -13.722  0.0000E+00  0.0000E+00
    -13.624  0.0000E+00  0.0000E+00
    -13.525  0.0000E+00  0.0000E+00
    -13.427  0.0000E+00  0.0000E+00
    -13.328  0.0000E+00  0.0000E+00
    -13.230  0.0000E+00  0.0000E+00
    -13.131  0.0000E+00  0.0000E+00
    -13.033  0.0000E+00  0.0000E+00
    -12.934  0.0000E+00  0.0000E+00
    -12.836  0.0000E+00  0.0000E+00
    -12.737  0.0000E+00  0.0000E+00
    -12.639  0.0000E+00  0.0000E+00
    -12.540  0.0000E+00  0.0000E+00
    -12.442  0.0000E+00  0.0000E+00
    -12.343  0.0000E+00  0.0000E+00
    -12.245  0.0000E+00  0.0000E+00
    -12.146  0.0000E+00  0.0000E+00
    -12.048  0.0000E+00  0.0000E+00
    -11.949  0.0000E+00  0.0000E+00
    -11.851  0.0000E+00  0.0000E+00
    -11.752  0.1825E-01  0.6730E-03
    -11.654  0.3263E-01  0.3467E-02
    -11.555  0.4042E-01  0.7011E-02
    -11.457  0.6749E-01  0.1229E-01
    -11.358  0.4916E-01  0.1926E-01
    -11.260  0.0000E+00  0.2000E-01
    -11.161  0.9580E-02  0.2018E-01
    -11.063  0.2823E-01  0.2196E-01
    -10.964  0.8244E-01  0.2710E-01
    -10.866  0.8069E-01  0.3835E-01
    -10.767  0.0000E+00  0.4000E-01
    -10.669  0.0000E+00  0.4000E-01
    -10.570  0.0000E+00  0.4000E-01
    -10.472  0.1101E-01  0.4014E-01
    -10.373  0.2499E-01  0.4211E-01
    -10.275  0.4348E-01  0.4525E-01
    -10.176  0.5616E-01  0.4994E-01
    -10.078  0.3968E-01  0.5458E-01
     -9.979  0.2154E-01  0.5783E-01
     -9.881  0.1099E-01  0.5937E-01
     -9.782  0.6966E-03  0.6000E-01
     -9.684  0.0000E+00  0.6000E-01
     -9.585  0.0000E+00  0.6000E-01
     -9.487  0.0000E+00  0.6000E-01
     -9.388  0.2243E-01  0.6070E-01
     -9.290  0.4548E-01  0.6470E-01
     -9.191  0.5158E-01  0.6935E-01
     -9.093  0.4292E-01  0.7386E-01
     -8.994  0.3607E-01  0.7783E-01
     -8.896  0.3912E-01  0.8151E-01
     -8.797  0.7036E-01  0.8635E-01
     -8.698  0.3936E-01  0.9139E-01
     -8.600  0.4442E-01  0.9539E-01
     -8.501  0.5627E-01  0.1005E+00
     -8.403  0.5183E-01  0.1058E+00
     -8.304  0.4122E-01  0.1101E+00
     -8.206  0.3039E-01  0.1139E+00
     -8.107  0.2261E-01  0.1165E+00
     -8.009  0.1278E-01  0.1183E+00
     -7.910  0.7713E-02  0.1193E+00
     -7.812  0.3491E-02  0.1198E+00
     -7.713  0.0000E+00  0.1200E+00
     -7.615  0.0000E+00  0.1200E+00
     -7.516  0.0000E+00  0.1200E+00
     -7.418  0.0000E+00  0.1200E+00
     -7.319  0.0000E+00  0.1200E+00
     -7.221  0.2261E-01  0.1211E+00
     -7.122  0.4518E-01  0.1245E+00
     -7.024  0.4812E-01  0.1289E+00
     -6.925  0.5515E-01  0.1340E+00
     -6.827  0.5645E-01  0.1399E+00
     -6.728  0.4942E-01  0.1450E+00
     -6.630  0.5667E-01  0.1491E+00
     -6.531  0.5484E-01  0.1558E+00
     -6.433  0.2570E-01  0.1592E+00
     -6.334  0.3085E-01  0.1622E+00
     -6.236  0.5568E-01  0.1666E+00
     -6.137  0.4774E-01  0.1723E+00
     -6.039  0.3785E-01  0.1764E+00
     -5.940  0.1627E-01  0.1798E+00
     -5.842  0.0000E+00  0.1800E+00
     -5.743  0.0000E+00  0.1800E+00
     -5.645  0.3274E-01  0.1814E+00
     -5.546  0.6685E-01  0.1871E+00
     -5.448  0.6067E-01  0.1934E+00
     -5.349  0.3315E-01  0.1981E+00
     -5.251  0.1287E-01  0.1999E+00
     -5.152  0.3167E-01  0.2021E+00
     -5.054  0.6036E-01  0.2064E+00
     -4.955  0.5526E-01  0.2118E+00
     -4.857  0.4060E-01  0.2168E+00
     -4.758  0.1647E-01  0.2194E+00
     -4.660  0.1852E-01  0.2211E+00
     -4.561  0.1567E-01  0.2228E+00
     -4.463  0.1810E-01  0.2244E+00
     -4.364  0.2709E-01  0.2265E+00
     -4.266  0.2950E-01  0.2293E+00
     -4.167  0.4198E-01  0.2328E+00
     -4.069  0.3789E-01  0.2367E+00
     -3.970  0.4645E-01  0.2408E+00
     -3.872  0.5436E-01  0.2455E+00
     -3.773  0.8722E-01  0.2519E+00
     -3.675  0.4501E-01  0.2582E+00
     -3.576  0.6935E-01  0.2632E+00
     -3.478  0.7263E-01  0.2703E+00
     -3.379  0.6828E-01  0.2777E+00
     -3.281  0.8053E-01  0.2848E+00
     -3.182  0.5671E-01  0.2915E+00
     -3.084  0.6499E-01  0.2971E+00
     -2.985  0.4837E-01  0.3030E+00
     -2.887  0.3138E-01  0.3066E+00
     -2.788  0.7731E-01  0.3115E+00
     -2.690  0.7202E-01  0.3190E+00
     -2.591  0.7971E-01  0.3264E+00
     -2.493  0.7858E-01  0.3343E+00
     -2.394  0.7085E-01  0.3417E+00
     -2.296  0.6750E-01  0.3484E+00
     -2.197  0.7588E-01  0.3553E+00
     -2.099  0.7329E-01  0.3632E+00
     -2.000  0.7248E-01  0.3700E+00
     -1.902  0.7709E-01  0.3779E+00
     -1.803  0.7456E-01  0.3852E+00
     -1.705  0.8372E-01  0.3932E+00
     -1.606  0.6722E-01  0.4007E+00
     -1.508  0.7401E-01  0.4075E+00
     -1.409  0.8016E-01  0.4152E+00
     -1.311  0.8164E-01  0.4235E+00
     -1.212  0.8800E-01  0.4319E+00
     -1.114  0.9268E-01  0.4405E+00
     -1.015  0.8117E-01  0.4492E+00
     -0.917  0.9115E-01  0.4577E+00
     -0.818  0.8130E-01  0.4669E+00
     -0.720  0.8134E-01  0.4743E+00
     -0.621  0.7509E-01  0.4830E+00
     -0.523  0.6961E-01  0.4901E+00
     -0.424  0.7169E-01  0.4972E+00
     -0.326  0.7135E-01  0.5045E+00
     -0.227  0.7519E-01  0.5117E+00
     -0.129  0.8602E-01  0.5197E+00
     -0.030  0.7666E-01  0.5282E+00
      0.068  0.9295E-01  0.5365E+00
      0.167  0.8674E-01  0.5452E+00
      0.265  0.9841E-01  0.5542E+00
      0.364  0.8117E-01  0.5626E+00
      0.462  0.8913E-01  0.5712E+00
      0.561  0.7865E-01  0.5798E+00
      0.659  0.6386E-01  0.5869E+00
      0.758  0.5702E-01  0.5926E+00
      0.856  0.6911E-01  0.5993E+00
      0.955  0.7011E-01  0.6054E+00
      1.053  0.8205E-01  0.6130E+00
      1.152  0.7661E-01  0.6204E+00
      1.250  0.9165E-01  0.6285E+00
      1.349  0.8132E-01  0.6367E+00
      1.447  0.8703E-01  0.6451E+00
      1.546  0.9532E-01  0.6543E+00
      1.644  0.1049E+00  0.6644E+00
      1.743  0.9059E-01  0.6735E+00
      1.841  0.1001E+00  0.6833E+00
      1.940  0.1147E+00  0.6934E+00
      2.038  0.9845E-01  0.7041E+00
      2.137  0.1228E+00  0.7156E+00
      2.235  0.1001E+00  0.7257E+00
      2.334  0.1191E+00  0.7375E+00
      2.432  0.1200E+00  0.7495E+00
      2.531  0.1244E+00  0.7614E+00
      2.629  0.1218E+00  0.7739E+00
      2.728  0.1054E+00  0.7847E+00
      2.826  0.1237E+00  0.7959E+00
      2.925  0.1125E+00  0.8072E+00
      3.023  0.1007E+00  0.8177E+00
      3.122  0.1034E+00  0.8277E+00
      3.220  0.1013E+00  0.8377E+00
      3.319  0.9358E-01  0.8481E+00
      3.417  0.9223E-01  0.8571E+00
      3.516  0.7708E-01  0.8652E+00
      3.614  0.8843E-01  0.8735E+00
      3.713  0.7347E-01  0.8824E+00
      3.811  0.7421E-01  0.8892E+00
      3.910  0.4999E-01  0.8954E+00
      4.009  0.6298E-01  0.9006E+00
      4.107  0.7282E-01  0.9088E+00
      4.206  0.4903E-01  0.9148E+00
      4.304  0.4541E-01  0.9189E+00
      4.403  0.7708E-01  0.9246E+00
      4.501  0.8093E-01  0.9326E+00
      4.600  0.7231E-01  0.9402E+00
      4.698  0.6253E-01  0.9462E+00
      4.797  0.4006E-01  0.9514E+00
      4.895  0.2973E-01  0.9548E+00
      4.994  0.1710E-01  0.9571E+00
      5.092  0.1282E-01  0.9585E+00
      5.191  0.8513E-02  0.9595E+00
      5.289  0.0000E+00  0.9600E+00
      5.388  0.0000E+00  0.9600E+00
      5.486  0.0000E+00  0.9600E+00
      5.585  0.2455E-03  0.9600E+00
      5.683  0.5417E-02  0.9603E+00
      5.782  0.4463E-01  0.9623E+00
      5.880  0.6405E-01  0.9682E+00
      5.979  0.4409E-01  0.9736E+00
      6.077  0.3958E-01  0.9776E+00
      6.176  0.6197E-01  0.9816E+00
      6.274  0.8471E-01  0.9891E+00
      6.373  0.4966E-01  0.9954E+00
      6.471  0.2151E-01  0.9991E+00
      6.570  0.0000E+00  0.1000E+01
      6.668  0.3547E-02  0.1000E+01
      6.767  0.3776E-01  0.1002E+01
      6.865  0.6293E-01  0.1007E+01
      6.964  0.5943E-01  0.1012E+01
      7.062  0.5139E-01  0.1018E+01
      7.161  0.0000E+00  0.1020E+01
      7.259  0.5815E-01  0.1023E+01
      7.358  0.8583E-01  0.1030E+01
      7.456  0.4364E-01  0.1037E+01
      7.555  0.9092E-02  0.1040E+01
      7.653  0.4401E-01  0.1043E+01
      7.752  0.3609E-01  0.1046E+01
      7.850  0.4043E-01  0.1050E+01
      7.949  0.2989E-01  0.1054E+01
      8.047  0.3418E-01  0.1057E+01
      8.146  0.4979E-01  0.1061E+01
      8.244  0.5457E-01  0.1066E+01
      8.343  0.3503E-01  0.1070E+01
      8.441  0.4773E-01  0.1074E+01
      8.540  0.5515E-01  0.1079E+01
      8.638  0.5595E-01  0.1084E+01
      8.737  0.6629E-01  0.1091E+01
      8.835  0.5932E-01  0.1097E+01
      8.934  0.5769E-01  0.1103E+01
      9.032  0.5744E-01  0.1109E+01
      9.131  0.7339E-01  0.1115E+01
      9.229  0.5826E-01  0.1122E+01
      9.328  0.6033E-01  0.1127E+01
      9.426  0.7546E-01  0.1134E+01
      9.525  0.8324E-01  0.1142E+01
      9.623  0.8812E-01  0.1150E+01
      9.722  0.7053E-01  0.1156E+01
      9.820  0.7459E-01  0.1164E+01
      9.919  0.8319E-01  0.1172E+01
     10.017  0.8086E-01  0.1179E+01
     10.116  0.1063E+00  0.1189E+01
     10.214  0.7521E-01  0.1198E+01
     10.313  0.8827E-01  0.1207E+01
     10.411  0.7020E-01  0.1215E+01
     10.510  0.8031E-01  0.1223E+01
     10.608  0.6380E-01  0.1230E+01
     10.707  0.5956E-01  0.1236E+01
     10.805  0.6228E-01  0.1242E+01
     10.904  0.6853E-01  0.1248E+01
     11.002  0.6635E-01  0.1255E+01
     11.101  0.7135E-01  0.1262E+01
     11.199  0.6587E-01  0.1269E+01
     11.298  0.8292E-01  0.1276E+01
     11.396  0.7789E-01  0.1284E+01
     11.495  0.7565E-01  0.1292E+01
     11.593  0.8077E-01  0.1300E+01
     11.692  0.6568E-01  0.1307E+01
     11.790  0.7489E-01  0.1315E+01
     11.889  0.6506E-01  0.1322E+01
     11.987  0.6419E-01  0.1328E+01
     12.086  0.8993E-01  0.1335E+01
     12.184  0.8011E-01  0.1344E+01
     12.283  0.7579E-01  0.1352E+01
     12.381  0.7948E-01  0.1359E+01
     12.480  0.8390E-01  0.1367E+01
     12.578  0.7633E-01  0.1375E+01
     12.677  0.7593E-01  0.1383E+01
     12.775  0.9176E-01  0.1391E+01
     12.874  0.1024E+00  0.1400E+01
     12.972  0.8417E-01  0.1410E+01
     13.071  0.8261E-01  0.1418E+01
     13.169  0.6611E-01  0.1425E+01
     13.268  0.5391E-01  0.1431E+01
     13.366  0.3832E-01  0.1436E+01
     13.465  0.1568E-01  0.1439E+01
     13.563  0.4801E-02  0.1440E+01
     13.662  0.9531E-03  0.1440E+01
     13.760  0.0000E+00  0.1440E+01
     13.859  0.0000E+00  0.1440E+01
     13.957  0.0000E+00  0.1440E+01
     14.056  0.0000E+00  0.1440E+01
     14.154  0.0000E+00  0.1440E+01
     14.253  0.0000E+00  0.1440E+01
     14.351  0.0000E+00  0.1440E+01
     14.450  0.0000E+00  0.1440E+01
     14.548  0.0000E+00  0.1440E+01
     14.647  0.0000E+00  0.1440E+01
     14.745  0.0000E+00  0.1440E+01
     14.844  0.0000E+00  0.1440E+01
     14.942  0.0000E+00  0.1440E+01
     15.041  0.0000E+00  0.1440E+01
     15.139  0.0000E+00  0.1440E+01
     15.238  0.0000E+00  0.1440E+01
     15.336  0.0000E+00  0.1440E+01
     15.435  0.0000E+00  0.1440E+01
     15.533  0.0000E+00  0.1440E+01
     15.632  0.0000E+00  0.1440E+01
     15.730  0.0000E+00  0.1440E+01
