       N       E                     dE             d eps       ncg     rms          rms(c)
DAV:   1     0.140302108296E+03    0.14030E+03   -0.40621E+04 47808   0.100E+03
DAV:   2    -0.211107379776E+03   -0.35141E+03   -0.34732E+03 67752   0.191E+02
DAV:   3    -0.219640643254E+03   -0.85333E+01   -0.85148E+01 69552   0.327E+01
DAV:   4    -0.219705568113E+03   -0.64925E-01   -0.64923E-01 67176   0.285E+00
DAV:   5    -0.219706743344E+03   -0.11752E-02   -0.11752E-02 70524   0.362E-01    0.196E+01
DAV:   6    -0.208848060628E+03    0.10859E+02   -0.24881E+01 71856   0.140E+01    0.103E+01
DAV:   7    -0.206896811783E+03    0.19512E+01   -0.53382E+00 71100   0.721E+00    0.484E+00
DAV:   8    -0.206657669135E+03    0.23914E+00   -0.13530E+00 71640   0.342E+00    0.165E+00
DAV:   9    -0.206652574529E+03    0.50946E-02   -0.21555E-01 75960   0.127E+00    0.885E-01
DAV:  10    -0.206650016499E+03    0.25580E-02   -0.62456E-02 73368   0.657E-01    0.296E-01
DAV:  11    -0.206650969119E+03   -0.95262E-03   -0.70297E-03 70704   0.287E-01    0.824E-02
DAV:  12    -0.206651121785E+03   -0.15267E-03   -0.63527E-04 71676   0.868E-02    0.400E-02
DAV:  13    -0.206651189552E+03   -0.67767E-04   -0.12901E-04 71496   0.386E-02    0.149E-02
DAV:  14    -0.206651208294E+03   -0.18742E-04   -0.28015E-05 71712   0.186E-02    0.640E-03
DAV:  15    -0.206651211353E+03   -0.30592E-05   -0.49352E-06 71712   0.789E-03    0.193E-03
DAV:  16    -0.206651211663E+03   -0.31000E-06   -0.42861E-07 71712   0.234E-03    0.767E-04
DAV:  17    -0.206651211680E+03   -0.17605E-07   -0.42905E-08 71712   0.726E-04    0.262E-04
DAV:  18    -0.206651211701E+03   -0.20503E-07   -0.62816E-09 59760   0.291E-04    0.106E-04
DAV:  19    -0.206651211709E+03   -0.77926E-08   -0.73780E-10 59544   0.107E-04
   1 F= -.20665121E+03 E0= -.20665121E+03  d E =0.000000E+00
       N       E                     dE             d eps       ncg     rms          rms(c)
DAV:   1    -0.206651211711E+03   -0.10124E-07   -0.11784E-10 58788   0.418E-05    0.731E-05
DAV:   2    -0.206651211712E+03   -0.12469E-08   -0.18421E-11 58212   0.151E-05    0.724E-05
DAV:   3    -0.206651211713E+03   -0.46566E-09   -0.83349E-12 57276   0.901E-06    0.718E-05
DAV:   4    -0.206651211714E+03   -0.11187E-08   -0.11632E-12 55872   0.383E-06    0.717E-05
DAV:   5    -0.206651211713E+03    0.97316E-09   -0.22280E-12 53928   0.200E-06    0.717E-05
DAV:   6    -0.206651211714E+03   -0.89676E-09   -0.13490E-12 52488   0.119E-06
   2 F= -.20665121E+03 E0= -.20665121E+03  d E =0.000000E+00
       N       E                     dE             d eps       ncg     rms          rms(c)
DAV:   1    -0.206651211713E+03    0.10914E-10    0.53152E-13 50760   0.490E-07    0.717E-05
DAV:   2    -0.206651211713E+03   -0.37289E-10   -0.15690E-12 49068   0.182E-07    0.717E-05
DAV:   3    -0.206651211713E+03   -0.52023E-09   -0.32981E-12 47700   0.140E-07    0.717E-05
DAV:   4    -0.206651211713E+03    0.22737E-10    0.14378E-13 46800   0.501E-08    0.717E-05
DAV:   5    -0.206651211713E+03    0.48931E-09   -0.23666E-13 45072   0.238E-08    0.717E-05
DAV:   6    -0.206651211713E+03    0.54570E-11    0.14836E-12 43740   0.154E-08
   3 F= -.20665121E+03 E0= -.20665121E+03  d E =0.000000E+00
       N       E                     dE             d eps       ncg     rms          rms(c)
DAV:   1    -0.206651211714E+03   -0.63119E-09    0.29715E-13 42732   0.652E-09    0.717E-05
DAV:   2    -0.206651211714E+03   -0.21464E-09   -0.15595E-12 41976   0.305E-09    0.717E-05
DAV:   3    -0.206651211713E+03    0.58753E-09   -0.36841E-12 40788   0.156E-09    0.717E-05
DAV:   4    -0.206651211713E+03   -0.30559E-09   -0.16454E-12 39312   0.885E-10    0.717E-05
DAV:   5    -0.206651211713E+03    0.26921E-09   -0.21042E-12 37944   0.540E-10    0.717E-05
DAV:   6    -0.206651211713E+03   -0.16371E-10   -0.19691E-12 36792   0.322E-10
   4 F= -.20665121E+03 E0= -.20665121E+03  d E =0.000000E+00
       N       E                     dE             d eps       ncg     rms          rms(c)
DAV:   1    -0.206651211713E+03    0.52751E-09   -0.75115E-13 36144   0.282E-10    0.717E-05
DAV:   2    -0.206651211713E+03   -0.48385E-09   -0.46310E-13 35640   0.416E-10    0.717E-05
DAV:   3    -0.206651211713E+03    0.27285E-10   -0.18299E-12 34740   0.325E-10    0.717E-05
DAV:   4    -0.206651211713E+03    0.15098E-09   -0.30363E-12 33156   0.214E-10    0.717E-05
DAV:   5    -0.206651211713E+03   -0.49295E-09   -0.97057E-13 32220   0.191E-10    0.717E-05
DAV:   6    -0.206651211713E+03    0.55479E-09   -0.21706E-12 31644   0.223E-10
   5 F= -.20665121E+03 E0= -.20665121E+03  d E =0.000000E+00
       N       E                     dE             d eps       ncg     rms          rms(c)
DAV:   1    -0.206651211713E+03    0.29922E-09   -0.19243E-12 31572   0.286E-10    0.717E-05
DAV:   2    -0.206651211714E+03   -0.34106E-09   -0.87493E-14 30888   0.230E-10    0.717E-05
DAV:   3    -0.206651211714E+03   -0.19827E-09   -0.88488E-13 30276   0.257E-10    0.717E-05
DAV:   4    -0.206651211713E+03    0.44020E-09   -0.15765E-12 29412   0.209E-10    0.717E-05
DAV:   5    -0.206651211714E+03   -0.46475E-09   -0.47115E-13 29088   0.287E-10    0.717E-05
DAV:   6    -0.206651211713E+03    0.58844E-09   -0.25019E-12 28836   0.225E-10
   6 F= -.20665121E+03 E0= -.20665121E+03  d E =0.000000E+00
       N       E                     dE             d eps       ncg     rms          rms(c)
DAV:   1    -0.206651211714E+03   -0.72760E-10   -0.14342E-12 28728   0.317E-10    0.717E-05
DAV:   2    -0.206651211713E+03    0.33924E-09   -0.14470E-12 28620   0.410E-10    0.717E-05
DAV:   3    -0.206651211713E+03    0.15461E-10   -0.26522E-12 28512   0.377E-10    0.717E-05
DAV:   4    -0.206651211713E+03    0.40836E-09   -0.35336E-12 27612   0.328E-10    0.717E-05
DAV:   5    -0.206651211713E+03   -0.29104E-10   -0.41221E-13 27828   0.219E-10    0.717E-05
DAV:   6    -0.206651211713E+03   -0.41837E-09   -0.10450E-12 27324   0.264E-10
   7 F= -.20665121E+03 E0= -.20665121E+03  d E =0.000000E+00
       N       E                     dE             d eps       ncg     rms          rms(c)
DAV:   1    -0.206651211713E+03   -0.15916E-09    0.32388E-13 27576   0.240E-10    0.717E-05
DAV:   2    -0.206651211713E+03    0.57025E-09   -0.17438E-12 27540   0.215E-10    0.717E-05
DAV:   3    -0.206651211714E+03   -0.11205E-08   -0.15826E-12 27360   0.242E-10    0.717E-05
DAV:   4    -0.206651211714E+03    0.72760E-11   -0.30666E-12 26964   0.234E-10    0.717E-05
DAV:   5    -0.206651211714E+03    0.28012E-09   -0.34386E-12 26928   0.162E-10    0.717E-05
DAV:   6    -0.206651211713E+03    0.84037E-09   -0.32386E-13 26712   0.226E-10
   8 F= -.20665121E+03 E0= -.20665121E+03  d E =0.000000E+00
       N       E                     dE             d eps       ncg     rms          rms(c)
DAV:   1    -0.206651211714E+03   -0.16007E-09   -0.23658E-12 26604   0.308E-10    0.717E-05
DAV:   2    -0.206651211714E+03   -0.12733E-10   -0.62418E-13 26532   0.315E-10    0.717E-05
DAV:   3    -0.206651211714E+03    0.74579E-10   -0.20598E-12 26388   0.222E-10    0.717E-05
DAV:   4    -0.206651211713E+03    0.72487E-09   -0.27228E-12 26136   0.208E-10    0.717E-05
DAV:   5    -0.206651211713E+03   -0.36289E-09   -0.17259E-12 25992   0.195E-10    0.717E-05
DAV:   6    -0.206651211713E+03    0.12187E-09    0.54172E-13 25956   0.248E-10
   9 F= -.20665121E+03 E0= -.20665121E+03  d E =0.000000E+00
       N       E                     dE             d eps       ncg     rms          rms(c)
DAV:   1    -0.206651211713E+03   -0.51841E-10   -0.91690E-13 25956   0.191E-10    0.717E-05
DAV:   2    -0.206651211713E+03    0.35016E-09   -0.78750E-13 25956   0.278E-10    0.717E-05
DAV:   3    -0.206651211713E+03   -0.26012E-09   -0.13048E-12 25956   0.246E-10    0.717E-05
DAV:   4    -0.206651211713E+03   -0.52751E-10   -0.11255E-12 25812   0.280E-10    0.717E-05
DAV:   5    -0.206651211713E+03    0.19827E-09   -0.11204E-12 25740   0.328E-10    0.717E-05
DAV:   6    -0.206651211713E+03   -0.23647E-10   -0.13769E-12 25524   0.246E-10
  10 F= -.20665121E+03 E0= -.20665121E+03  d E =0.000000E+00
       N       E                     dE             d eps       ncg     rms          rms(c)
DAV:   1    -0.206651211713E+03   -0.17644E-09   -0.59191E-13 25344   0.194E-10    0.717E-05
DAV:   2    -0.206651211714E+03   -0.47658E-09    0.36219E-13 25308   0.231E-10    0.717E-05
DAV:   3    -0.206651211714E+03    0.80036E-10   -0.12644E-12 25308   0.221E-10    0.717E-05
DAV:   4    -0.206651211713E+03    0.98953E-09   -0.14615E-12 25236   0.236E-10    0.717E-05
DAV:   5    -0.206651211713E+03   -0.52387E-09   -0.43009E-13 25200   0.194E-10    0.717E-05
DAV:   6    -0.206651211713E+03   -0.35470E-10    0.13379E-12 25128   0.229E-10
  11 F= -.20665121E+03 E0= -.20665121E+03  d E =0.000000E+00
       N       E                     dE             d eps       ncg     rms          rms(c)
DAV:   1    -0.206651211713E+03    0.13097E-09    0.47987E-13 25092   0.251E-10    0.717E-05
DAV:   2    -0.206651211713E+03    0.13188E-09   -0.52879E-13 25020   0.250E-10    0.717E-05
DAV:   3    -0.206651211713E+03   -0.14461E-09   -0.13196E-12 24984   0.221E-10    0.717E-05
DAV:   4    -0.206651211713E+03   -0.19281E-09   -0.31127E-12 24984   0.185E-10    0.717E-05
DAV:   5    -0.206651211714E+03   -0.39472E-09   -0.28740E-12 24984   0.200E-10    0.717E-05
DAV:   6    -0.206651211714E+03   -0.17099E-09   -0.57864E-13 24984   0.219E-10
  12 F= -.20665121E+03 E0= -.20665121E+03  d E =0.000000E+00
       N       E                     dE             d eps       ncg     rms          rms(c)
DAV:   1    -0.206651211713E+03    0.87857E-09    0.10002E-13 24984   0.284E-10    0.717E-05
DAV:   2    -0.206651211713E+03   -0.54388E-09   -0.14280E-12 24984   0.344E-10    0.717E-05
DAV:   3    -0.206651211713E+03    0.39108E-09   -0.28196E-12 24984   0.309E-10    0.717E-05
DAV:   4    -0.206651211714E+03   -0.75852E-09   -0.22225E-12 24876   0.276E-10    0.717E-05
DAV:   5    -0.206651211713E+03    0.91768E-09   -0.18351E-12 24984   0.351E-10    0.717E-05
DAV:   6    -0.206651211713E+03   -0.42292E-09   -0.12325E-12 24948   0.250E-10
  13 F= -.20665121E+03 E0= -.20665121E+03  d E =0.000000E+00
       N       E                     dE             d eps       ncg     rms          rms(c)
DAV:   1    -0.206651211713E+03   -0.39017E-09   -0.13070E-12 24804   0.204E-10    0.717E-05
DAV:   2    -0.206651211714E+03   -0.51568E-09   -0.27109E-13 24768   0.192E-10    0.717E-05
DAV:   3    -0.206651211714E+03    0.80945E-10   -0.10086E-12 24768   0.244E-10    0.717E-05
DAV:   4    -0.206651211713E+03    0.16462E-09   -0.32765E-12 24696   0.219E-10    0.717E-05
DAV:   5    -0.206651211713E+03    0.40927E-10   -0.19240E-13 24660   0.229E-10    0.717E-05
DAV:   6    -0.206651211713E+03    0.74579E-10   -0.79947E-13 24660   0.239E-10
  14 F= -.20665121E+03 E0= -.20665121E+03  d E =0.000000E+00
       N       E                     dE             d eps       ncg     rms          rms(c)
DAV:   1    -0.206651211713E+03    0.12187E-09   -0.18610E-12 24660   0.199E-10    0.717E-05
DAV:   2    -0.206651211713E+03   -0.14370E-09   -0.19237E-12 24660   0.264E-10    0.717E-05
DAV:   3    -0.206651211714E+03   -0.33469E-09   -0.61069E-13 24660   0.233E-10    0.717E-05
DAV:   4    -0.206651211713E+03    0.10987E-08   -0.26086E-13 24588   0.244E-10    0.717E-05
DAV:   5    -0.206651211713E+03   -0.66939E-09   -0.16043E-12 24552   0.314E-10    0.717E-05
DAV:   6    -0.206651211713E+03    0.65484E-10   -0.48950E-13 24552   0.190E-10
  15 F= -.20665121E+03 E0= -.20665121E+03  d E =0.000000E+00
       N       E                     dE             d eps       ncg     rms          rms(c)
DAV:   1    -0.206651211713E+03    0.61937E-09   -0.18937E-12 24480   0.264E-10    0.717E-05
DAV:   2    -0.206651211713E+03   -0.13188E-09   -0.30517E-12 24444   0.461E-10    0.717E-05
DAV:   3    -0.206651211713E+03   -0.35016E-09   -0.25372E-12 24444   0.314E-10    0.717E-05
DAV:   4    -0.206651211714E+03   -0.37380E-09   -0.25647E-12 24444   0.283E-10    0.717E-05
DAV:   5    -0.206651211714E+03   -0.25466E-09   -0.14973E-12 24444   0.324E-10    0.717E-05
DAV:   6    -0.206651211713E+03    0.90768E-09   -0.23584E-12 24444   0.200E-10
  16 F= -.20665121E+03 E0= -.20665121E+03  d E =0.000000E+00
       N       E                     dE             d eps       ncg     rms          rms(c)
DAV:   1    -0.206651211713E+03    0.51205E-09   -0.22702E-12 24444   0.261E-10    0.717E-05
DAV:   2    -0.206651211713E+03    0.40927E-10   -0.67550E-13 24444   0.329E-10    0.717E-05
DAV:   3    -0.206651211713E+03   -0.11278E-09   -0.21737E-12 24444   0.253E-10    0.717E-05
DAV:   4    -0.206651211713E+03    0.48931E-09   -0.13888E-12 24444   0.214E-10    0.717E-05
DAV:   5    -0.206651211714E+03   -0.91586E-09   -0.16607E-12 24444   0.229E-10    0.717E-05
DAV:   6    -0.206651211713E+03    0.41473E-09   -0.89117E-13 24444   0.263E-10
  17 F= -.20665121E+03 E0= -.20665121E+03  d E =0.000000E+00
       N       E                     dE             d eps       ncg     rms          rms(c)
DAV:   1    -0.206651211713E+03    0.97043E-09    0.45357E-13 24372   0.268E-10    0.717E-05
DAV:   2    -0.206651211714E+03   -0.91586E-09   -0.18489E-14 24336   0.389E-10    0.717E-05
DAV:   3    -0.206651211713E+03    0.75761E-09   -0.72954E-13 24336   0.278E-10    0.717E-05
DAV:   4    -0.206651211713E+03   -0.73669E-10   -0.63913E-13 24264   0.281E-10    0.717E-05
DAV:   5    -0.206651211713E+03    0.13006E-09   -0.17311E-12 24228   0.265E-10    0.717E-05
DAV:   6    -0.206651211713E+03   -0.53296E-09   -0.22034E-12 24228   0.191E-10
  18 F= -.20665121E+03 E0= -.20665121E+03  d E =0.000000E+00
       N       E                     dE             d eps       ncg     rms          rms(c)
DAV:   1    -0.206651211713E+03   -0.44201E-09   -0.25071E-12 24228   0.234E-10    0.717E-05
DAV:   2    -0.206651211713E+03   -0.65484E-10   -0.14789E-12 24228   0.201E-10    0.717E-05
DAV:   3    -0.206651211713E+03    0.34834E-09    0.87014E-14 24228   0.225E-10    0.717E-05
DAV:   4    -0.206651211713E+03   -0.43019E-09   -0.11604E-12 24228   0.270E-10    0.717E-05
DAV:   5    -0.206651211713E+03    0.79126E-09    0.10231E-12 24228   0.183E-10    0.717E-05
DAV:   6    -0.206651211713E+03   -0.47203E-09    0.13996E-13 24228   0.252E-10
  19 F= -.20665121E+03 E0= -.20665121E+03  d E =0.000000E+00
       N       E                     dE             d eps       ncg     rms          rms(c)
DAV:   1    -0.206651211714E+03   -0.85493E-09   -0.11187E-12 24228   0.200E-10    0.717E-05
DAV:   2    -0.206651211713E+03    0.26921E-09   -0.58900E-13 24228   0.271E-10    0.717E-05
DAV:   3    -0.206651211713E+03    0.47658E-09   -0.27848E-12 24228   0.252E-10    0.717E-05
DAV:   4    -0.206651211713E+03   -0.51750E-09    0.26739E-13 24228   0.199E-10    0.717E-05
DAV:   5    -0.206651211713E+03    0.82764E-10   -0.65964E-13 24156   0.212E-10    0.717E-05
DAV:   6    -0.206651211713E+03   -0.23465E-09    0.22406E-12 24120   0.217E-10
  20 F= -.20665121E+03 E0= -.20665121E+03  d E =0.000000E+00
       N       E                     dE             d eps       ncg     rms          rms(c)
DAV:   1    -0.206651211713E+03    0.92768E-10    0.21241E-13 24120   0.207E-10    0.717E-05
DAV:   2    -0.206651211713E+03   -0.24011E-09   -0.89929E-13 24120   0.288E-10    0.717E-05
DAV:   3    -0.206651211713E+03    0.36925E-09   -0.17011E-12 24120   0.293E-10    0.717E-05
DAV:   4    -0.206651211713E+03   -0.14643E-09   -0.11690E-12 24120   0.254E-10    0.717E-05
DAV:   5    -0.206651211714E+03   -0.37653E-09   -0.18189E-12 24120   0.223E-10    0.717E-05
DAV:   6    -0.206651211714E+03   -0.21646E-09   -0.49129E-13 24120   0.167E-10
  21 F= -.20665121E+03 E0= -.20665121E+03  d E =0.000000E+00
       N       E                     dE             d eps       ncg     rms          rms(c)
DAV:   1    -0.206651211714E+03   -0.91859E-10   -0.38650E-13 24120   0.191E-10    0.717E-05
DAV:   2    -0.206651211714E+03   -0.49113E-10    0.64473E-13 24120   0.372E-10    0.717E-05
DAV:   3    -0.206651211713E+03    0.49477E-09   -0.23324E-12 24120   0.273E-10    0.717E-05
DAV:   4    -0.206651211713E+03   -0.52751E-10   -0.11648E-12 24120   0.285E-10    0.717E-05
DAV:   5    -0.206651211713E+03    0.38199E-09    0.88437E-13 24120   0.253E-10    0.717E-05
DAV:   6    -0.206651211714E+03   -0.76579E-09   -0.20622E-12 24120   0.311E-10
  22 F= -.20665121E+03 E0= -.20665121E+03  d E =0.000000E+00
       N       E                     dE             d eps       ncg     rms          rms(c)
DAV:   1    -0.206651211713E+03   -0.68212E-10    0.10835E-12 24120   0.328E-10    0.717E-05
DAV:   2    -0.206651211714E+03   -0.83492E-09   -0.11730E-12 24120   0.361E-10    0.717E-05
DAV:   3    -0.206651211713E+03    0.36107E-09   -0.12964E-12 24120   0.259E-10    0.717E-05
DAV:   4    -0.206651211714E+03   -0.36198E-09   -0.55678E-14 24120   0.223E-10    0.717E-05
DAV:   5    -0.206651211713E+03    0.57389E-09   -0.35974E-13 24120   0.204E-10    0.717E-05
DAV:   6    -0.206651211713E+03   -0.90949E-12    0.12893E-12 24120   0.191E-10
  23 F= -.20665121E+03 E0= -.20665121E+03  d E =0.000000E+00
       N       E                     dE             d eps       ncg     rms          rms(c)
DAV:   1    -0.206651211713E+03    0.21555E-09   -0.75769E-13 24120   0.232E-10    0.717E-05
DAV:   2    -0.206651211713E+03    0.34743E-09   -0.24995E-12 24120   0.377E-10    0.717E-05
DAV:   3    -0.206651211713E+03   -0.70759E-09    0.85010E-14 24120   0.287E-10    0.717E-05
DAV:   4    -0.206651211713E+03    0.20191E-09   -0.47512E-13 24120   0.279E-10    0.717E-05
DAV:   5    -0.206651211713E+03   -0.28012E-09   -0.43106E-13 24120   0.283E-10    0.717E-05
DAV:   6    -0.206651211714E+03   -0.17826E-09   -0.21446E-12 24120   0.298E-10
  24 F= -.20665121E+03 E0= -.20665121E+03  d E =0.000000E+00
       N       E                     dE             d eps       ncg     rms          rms(c)
DAV:   1    -0.206651211713E+03    0.15643E-09   -0.17445E-12 24120   0.195E-10    0.717E-05
DAV:   2    -0.206651211713E+03   -0.18190E-11   -0.66848E-13 24120   0.296E-10    0.717E-05
DAV:   3    -0.206651211713E+03    0.60936E-10    0.32711E-13 24120   0.277E-10    0.717E-05
DAV:   4    -0.206651211713E+03   -0.28194E-10   -0.21190E-12 24120   0.261E-10    0.717E-05
DAV:   5    -0.206651211713E+03    0.10550E-09   -0.67428E-13 24120   0.237E-10    0.717E-05
DAV:   6    -0.206651211713E+03   -0.14552E-09    0.14401E-13 24120   0.241E-10
  25 F= -.20665121E+03 E0= -.20665121E+03  d E =0.000000E+00
       N       E                     dE             d eps       ncg     rms          rms(c)
DAV:   1    -0.206651211714E+03   -0.49658E-09   -0.20807E-12 24120   0.246E-10    0.717E-05
DAV:   2    -0.206651211713E+03    0.43838E-09    0.50444E-13 24120   0.307E-10    0.717E-05
DAV:   3    -0.206651211713E+03    0.13279E-09   -0.22701E-12 24120   0.279E-10    0.717E-05
DAV:   4    -0.206651211713E+03    0.81855E-10   -0.29938E-12 24120   0.264E-10    0.717E-05
DAV:   5    -0.206651211713E+03   -0.41837E-10   -0.13185E-12 24120   0.287E-10    0.717E-05
DAV:   6    -0.206651211713E+03    0.26375E-09    0.14165E-13 24120   0.194E-10
  26 F= -.20665121E+03 E0= -.20665121E+03  d E =0.000000E+00
       N       E                     dE             d eps       ncg     rms          rms(c)
DAV:   1    -0.206651211713E+03    0.28285E-09   -0.57769E-13 24120   0.238E-10    0.717E-05
DAV:   2    -0.206651211714E+03   -0.92678E-09   -0.47645E-13 24120   0.421E-10    0.717E-05
DAV:   3    -0.206651211714E+03    0.32742E-10   -0.28938E-12 24120   0.330E-10    0.717E-05
DAV:   4    -0.206651211713E+03    0.63937E-09   -0.21452E-12 24084   0.169E-10    0.717E-05
DAV:   5    -0.206651211713E+03   -0.25193E-09   -0.23919E-12 23940   0.196E-10    0.717E-05
DAV:   6    -0.206651211713E+03    0.29104E-10   -0.12670E-12 23904   0.280E-10
  27 F= -.20665121E+03 E0= -.20665121E+03  d E =0.000000E+00
       N       E                     dE             d eps       ncg     rms          rms(c)
DAV:   1    -0.206651211714E+03   -0.27921E-09   -0.29861E-13 23904   0.301E-10    0.717E-05
DAV:   2    -0.206651211713E+03    0.27285E-10   -0.94158E-13 23904   0.343E-10    0.717E-05
DAV:   3    -0.206651211713E+03    0.13915E-09   -0.10756E-12 23904   0.226E-10    0.717E-05
DAV:   4    -0.206651211713E+03    0.14188E-09   -0.17357E-12 23904   0.249E-10    0.717E-05
DAV:   5    -0.206651211713E+03    0.60027E-10   -0.18579E-12 23904   0.253E-10    0.717E-05
DAV:   6    -0.206651211713E+03    0.30923E-09   -0.14323E-12 23904   0.242E-10
  28 F= -.20665121E+03 E0= -.20665121E+03  d E =0.000000E+00
       N       E                     dE             d eps       ncg     rms          rms(c)
DAV:   1    -0.206651211713E+03    0.15280E-09   -0.99221E-14 23904   0.189E-10    0.717E-05
DAV:   2    -0.206651211714E+03   -0.63210E-09   -0.10218E-12 23904   0.312E-10    0.717E-05
DAV:   3    -0.206651211713E+03    0.12733E-09   -0.15174E-12 23904   0.279E-10    0.717E-05
DAV:   4    -0.206651211713E+03    0.68212E-10   -0.78819E-13 23904   0.166E-10    0.717E-05
DAV:   5    -0.206651211713E+03   -0.54570E-10    0.89215E-13 23904   0.203E-10    0.717E-05
DAV:   6    -0.206651211713E+03    0.31650E-09   -0.15646E-12 23904   0.266E-10
  29 F= -.20665121E+03 E0= -.20665121E+03  d E =0.000000E+00
       N       E                     dE             d eps       ncg     rms          rms(c)
DAV:   1    -0.206651211714E+03   -0.40018E-10   -0.13870E-12 23904   0.254E-10    0.717E-05
DAV:   2    -0.206651211713E+03    0.24102E-09   -0.43756E-13 23904   0.250E-10    0.717E-05
DAV:   3    -0.206651211713E+03   -0.17280E-10   -0.14676E-12 23904   0.276E-10    0.717E-05
DAV:   4    -0.206651211713E+03    0.27649E-09   -0.32259E-13 23904   0.187E-10    0.717E-05
DAV:   5    -0.206651211713E+03   -0.47476E-09   -0.87969E-13 23904   0.162E-10    0.717E-05
DAV:   6    -0.206651211713E+03    0.44383E-09   -0.18847E-13 23904   0.218E-10
  30 F= -.20665121E+03 E0= -.20665121E+03  d E =0.000000E+00
       N       E                     dE             d eps       ncg     rms          rms(c)
DAV:   1    -0.206651211713E+03    0.36016E-09   -0.13614E-13 23904   0.198E-10    0.717E-05
DAV:   2    -0.206651211714E+03   -0.48294E-09   -0.76139E-13 23904   0.298E-10    0.717E-05
DAV:   3    -0.206651211713E+03    0.22465E-09   -0.32019E-12 23904   0.342E-10    0.717E-05
DAV:   4    -0.206651211713E+03    0.35925E-09   -0.23897E-12 23904   0.281E-10    0.717E-05
DAV:   5    -0.206651211713E+03    0.62755E-10    0.11976E-13 23904   0.246E-10    0.717E-05
DAV:   6    -0.206651211713E+03   -0.16644E-09   -0.82959E-13 23904   0.218E-10
  31 F= -.20665121E+03 E0= -.20665121E+03  d E =0.000000E+00
       N       E                     dE             d eps       ncg     rms          rms(c)
DAV:   1    -0.206651211713E+03    0.33651E-10    0.12754E-13 23904   0.293E-10    0.717E-05
DAV:   2    -0.206651211713E+03   -0.40473E-09   -0.87789E-13 23904   0.341E-10    0.717E-05
DAV:   3    -0.206651211714E+03   -0.35106E-09   -0.15309E-12 23904   0.275E-10    0.717E-05
DAV:   4    -0.206651211713E+03    0.90222E-09   -0.65431E-13 23904   0.243E-10    0.717E-05
DAV:   5    -0.206651211713E+03   -0.56389E-10   -0.16167E-12 23904   0.232E-10    0.717E-05
DAV:   6    -0.206651211713E+03   -0.13279E-09   -0.13076E-12 23904   0.237E-10
  32 F= -.20665121E+03 E0= -.20665121E+03  d E =0.000000E+00
       N       E                     dE             d eps       ncg     rms          rms(c)
DAV:   1    -0.206651211713E+03   -0.39290E-09   -0.17632E-13 23904   0.215E-10    0.717E-05
DAV:   2    -0.206651211713E+03    0.60027E-10   -0.64557E-13 23904   0.258E-10    0.717E-05
DAV:   3    -0.206651211713E+03   -0.14552E-09   -0.13410E-12 23904   0.253E-10    0.717E-05
DAV:   4    -0.206651211714E+03   -0.27467E-09   -0.59705E-13 23904   0.230E-10    0.717E-05
DAV:   5    -0.206651211713E+03    0.40382E-09    0.64962E-13 23904   0.198E-10    0.717E-05
DAV:   6    -0.206651211713E+03   -0.80945E-10   -0.18767E-13 23904   0.212E-10
  33 F= -.20665121E+03 E0= -.20665121E+03  d E =0.000000E+00
       N       E                     dE             d eps       ncg     rms          rms(c)
DAV:   1    -0.206651211713E+03    0.31105E-09   -0.15591E-12 23904   0.268E-10    0.717E-05
DAV:   2    -0.206651211713E+03   -0.30013E-09   -0.48772E-13 23904   0.290E-10    0.717E-05
DAV:   3    -0.206651211713E+03   -0.65484E-10   -0.85180E-13 23904   0.282E-10    0.717E-05
DAV:   4    -0.206651211713E+03    0.48749E-09   -0.22346E-12 23904   0.276E-10    0.717E-05
DAV:   5    -0.206651211713E+03   -0.27285E-11   -0.15110E-12 23904   0.266E-10    0.717E-05
DAV:   6    -0.206651211713E+03   -0.26830E-09   -0.18498E-12 23904   0.249E-10
  34 F= -.20665121E+03 E0= -.20665121E+03  d E =0.000000E+00
       N       E                     dE             d eps       ncg     rms          rms(c)
DAV:   1    -0.206651211713E+03   -0.99135E-10   -0.15698E-12 23904   0.195E-10    0.717E-05
DAV:   2    -0.206651211713E+03   -0.52933E-09   -0.17800E-12 23904   0.205E-10    0.717E-05
DAV:   3    -0.206651211713E+03    0.50113E-09   -0.27549E-12 23904   0.223E-10    0.717E-05
DAV:   4    -0.206651211713E+03   -0.44838E-09   -0.24528E-12 23904   0.257E-10    0.717E-05
DAV:   5    -0.206651211713E+03    0.62755E-09   -0.22651E-12 23904   0.266E-10    0.717E-05
DAV:   6    -0.206651211713E+03   -0.49567E-09   -0.21953E-12 23904   0.208E-10
  35 F= -.20665121E+03 E0= -.20665121E+03  d E =0.000000E+00
       N       E                     dE             d eps       ncg     rms          rms(c)
DAV:   1    -0.206651211713E+03    0.60936E-10   -0.16175E-12 23904   0.227E-10    0.717E-05
DAV:   2    -0.206651211713E+03    0.90949E-12   -0.16095E-12 23904   0.304E-10    0.717E-05
DAV:   3    -0.206651211713E+03   -0.50386E-09   -0.15278E-12 23904   0.303E-10    0.717E-05
DAV:   4    -0.206651211714E+03   -0.52751E-09   -0.12922E-12 23904   0.201E-10    0.717E-05
DAV:   5    -0.206651211714E+03   -0.26375E-10   -0.28694E-12 23904   0.221E-10    0.717E-05
DAV:   6    -0.206651211713E+03    0.76670E-09   -0.29544E-12 23904   0.209E-10
  36 F= -.20665121E+03 E0= -.20665121E+03  d E =0.000000E+00
       N       E                     dE             d eps       ncg     rms          rms(c)
DAV:   1    -0.206651211713E+03    0.92314E-09   -0.13621E-12 23904   0.267E-10    0.717E-05
DAV:   2    -0.206651211714E+03   -0.96588E-09   -0.20012E-12 23904   0.273E-10    0.717E-05
DAV:   3    -0.206651211713E+03    0.55479E-09   -0.11660E-12 23904   0.223E-10    0.717E-05
DAV:   4    -0.206651211713E+03    0.45020E-09   -0.14804E-12 23904   0.230E-10    0.717E-05
DAV:   5    -0.206651211713E+03   -0.48476E-09   -0.21425E-12 23904   0.246E-10    0.717E-05
DAV:   6    -0.206651211714E+03   -0.29286E-09   -0.28592E-12 23904   0.211E-10
  37 F= -.20665121E+03 E0= -.20665121E+03  d E =0.000000E+00
       N       E                     dE             d eps       ncg     rms          rms(c)
DAV:   1    -0.206651211713E+03    0.60390E-09   -0.13047E-12 23904   0.222E-10    0.717E-05
DAV:   2    -0.206651211714E+03   -0.10077E-08   -0.14266E-12 23904   0.385E-10    0.717E-05
DAV:   3    -0.206651211714E+03   -0.10914E-10   -0.15247E-12 23904   0.359E-10    0.717E-05
DAV:   4    -0.206651211714E+03    0.69122E-10   -0.20240E-12 23904   0.301E-10    0.717E-05
DAV:   5    -0.206651211713E+03    0.79945E-09   -0.14939E-12 23904   0.266E-10    0.717E-05
DAV:   6    -0.206651211714E+03   -0.10214E-08   -0.13355E-12 23904   0.222E-10
  38 F= -.20665121E+03 E0= -.20665121E+03  d E =0.000000E+00
       N       E                     dE             d eps       ncg     rms          rms(c)
DAV:   1    -0.206651211713E+03   -0.59572E-09   -0.32501E-13 23904   0.366E-10    0.717E-05
DAV:   2    -0.206651211713E+03    0.17826E-09   -0.12936E-12 23904   0.352E-10    0.717E-05
DAV:   3    -0.206651211714E+03   -0.59663E-09   -0.16957E-12 23904   0.342E-10    0.717E-05
DAV:   4    -0.206651211713E+03    0.77125E-09   -0.12241E-12 23904   0.302E-10    0.717E-05
DAV:   5    -0.206651211713E+03   -0.33651E-10   -0.26058E-12 23904   0.310E-10    0.717E-05
DAV:   6    -0.206651211713E+03   -0.20100E-09   -0.15544E-12 23904   0.253E-10
  39 F= -.20665121E+03 E0= -.20665121E+03  d E =0.000000E+00
       N       E                     dE             d eps       ncg     rms          rms(c)
DAV:   1    -0.206651211713E+03   -0.43656E-09   -0.17154E-12 23904   0.243E-10    0.717E-05
DAV:   2    -0.206651211713E+03    0.12642E-09   -0.75287E-13 23904   0.278E-10    0.717E-05
DAV:   3    -0.206651211713E+03    0.10823E-09   -0.10635E-12 23904   0.241E-10    0.717E-05
DAV:   4    -0.206651211713E+03    0.38290E-09    0.12393E-13 23904   0.294E-10    0.717E-05
DAV:   5    -0.206651211713E+03    0.12824E-09   -0.20444E-13 23904   0.229E-10    0.717E-05
DAV:   6    -0.206651211713E+03   -0.90949E-12   -0.30666E-12 23904   0.200E-10
  40 F= -.20665121E+03 E0= -.20665121E+03  d E =0.000000E+00
       N       E                     dE             d eps       ncg     rms          rms(c)
DAV:   1    -0.206651211714E+03   -0.78035E-09   -0.22319E-12 23904   0.200E-10    0.717E-05
DAV:   2    -0.206651211713E+03    0.37562E-09   -0.32157E-12 23904   0.354E-10    0.717E-05
DAV:   3    -0.206651211713E+03   -0.13006E-09   -0.19713E-12 23904   0.251E-10    0.717E-05
DAV:   4    -0.206651211714E+03   -0.39017E-09   -0.98609E-13 23904   0.228E-10    0.717E-05
DAV:   5    -0.206651211713E+03    0.95406E-09   -0.78632E-13 23904   0.258E-10    0.717E-05
DAV:   6    -0.206651211713E+03   -0.30013E-10   -0.20415E-12 23904   0.264E-10
  41 F= -.20665121E+03 E0= -.20665121E+03  d E =0.000000E+00
       N       E                     dE             d eps       ncg     rms          rms(c)
DAV:   1    -0.206651211714E+03   -0.81400E-09    0.29609E-13 23904   0.216E-10    0.717E-05
DAV:   2    -0.206651211714E+03   -0.23647E-10   -0.76345E-13 23904   0.267E-10    0.717E-05
DAV:   3    -0.206651211713E+03    0.78580E-09   -0.12821E-12 23904   0.260E-10    0.717E-05
DAV:   4    -0.206651211713E+03   -0.58571E-09   -0.28695E-12 23904   0.256E-10    0.717E-05
DAV:   5    -0.206651211714E+03   -0.33015E-09   -0.57801E-13 23904   0.268E-10    0.717E-05
DAV:   6    -0.206651211713E+03    0.61573E-09   -0.11196E-13 23904   0.222E-10
  42 F= -.20665121E+03 E0= -.20665121E+03  d E =0.000000E+00
       N       E                     dE             d eps       ncg     rms          rms(c)
DAV:   1    -0.206651211713E+03    0.96497E-09   -0.22843E-12 23904   0.217E-10    0.717E-05
DAV:   2    -0.206651211713E+03   -0.39472E-09   -0.13237E-12 23904   0.419E-10    0.717E-05
DAV:   3    -0.206651211713E+03   -0.36380E-11   -0.19106E-12 23904   0.373E-10    0.717E-05
DAV:   4    -0.206651211713E+03    0.25921E-09   -0.22227E-12 23904   0.185E-10    0.717E-05
DAV:   5    -0.206651211713E+03   -0.63756E-09   -0.15830E-12 23904   0.260E-10    0.717E-05
DAV:   6    -0.206651211714E+03   -0.30013E-09   -0.12817E-12 23904   0.210E-10
  43 F= -.20665121E+03 E0= -.20665121E+03  d E =0.000000E+00
       N       E                     dE             d eps       ncg     rms          rms(c)
DAV:   1    -0.206651211713E+03    0.26466E-09   -0.30494E-12 23904   0.198E-10    0.717E-05
DAV:   2    -0.206651211713E+03   -0.14006E-09   -0.89352E-14 23904   0.268E-10    0.717E-05
DAV:   3    -0.206651211714E+03   -0.39017E-09   -0.13768E-12 23904   0.218E-10    0.717E-05
DAV:   4    -0.206651211713E+03    0.64301E-09   -0.23823E-13 23904   0.236E-10    0.717E-05
DAV:   5    -0.206651211714E+03   -0.48476E-09   -0.20107E-12 23904   0.266E-10    0.717E-05
DAV:   6    -0.206651211713E+03    0.66211E-09   -0.88348E-13 23904   0.206E-10
  44 F= -.20665121E+03 E0= -.20665121E+03  d E =0.000000E+00
       N       E                     dE             d eps       ncg     rms          rms(c)
DAV:   1    -0.206651211713E+03    0.47839E-09   -0.67323E-13 23904   0.202E-10    0.717E-05
DAV:   2    -0.206651211713E+03    0.87311E-10   -0.66548E-13 23904   0.182E-10    0.717E-05
DAV:   3    -0.206651211713E+03   -0.19099E-09   -0.21553E-12 23904   0.181E-10    0.717E-05
DAV:   4    -0.206651211713E+03    0.49295E-09   -0.63592E-13 23904   0.271E-10    0.717E-05
DAV:   5    -0.206651211713E+03   -0.48385E-09   -0.19275E-12 23904   0.216E-10    0.717E-05
DAV:   6    -0.206651211713E+03   -0.13642E-10   -0.24413E-12 23904   0.206E-10
  45 F= -.20665121E+03 E0= -.20665121E+03  d E =0.000000E+00
       N       E                     dE             d eps       ncg     rms          rms(c)
DAV:   1    -0.206651211713E+03   -0.18281E-09   -0.47622E-13 23904   0.205E-10    0.717E-05
DAV:   2    -0.206651211713E+03   -0.46384E-10   -0.74203E-13 23904   0.254E-10    0.717E-05
DAV:   3    -0.206651211713E+03    0.25830E-09   -0.87159E-13 23904   0.224E-10    0.717E-05
DAV:   4    -0.206651211714E+03   -0.51477E-09   -0.10522E-12 23904   0.197E-10    0.717E-05
DAV:   5    -0.206651211713E+03    0.97862E-09   -0.14735E-12 23904   0.273E-10    0.717E-05
DAV:   6    -0.206651211714E+03   -0.80399E-09   -0.15619E-12 23904   0.334E-10
  46 F= -.20665121E+03 E0= -.20665121E+03  d E =0.000000E+00
       N       E                     dE             d eps       ncg     rms          rms(c)
DAV:   1    -0.206651211713E+03   -0.41655E-09   -0.18477E-12 23904   0.285E-10    0.717E-05
DAV:   2    -0.206651211713E+03   -0.10914E-10   -0.13874E-12 23904   0.311E-10    0.717E-05
DAV:   3    -0.206651211714E+03   -0.53478E-09   -0.12718E-12 23904   0.349E-10    0.717E-05
DAV:   4    -0.206651211714E+03   -0.11005E-09   -0.56992E-13 23904   0.253E-10    0.717E-05
DAV:   5    -0.206651211713E+03    0.55570E-09   -0.12376E-12 23904   0.291E-10    0.717E-05
DAV:   6    -0.206651211713E+03    0.44747E-09    0.27014E-13 23904   0.189E-10
  47 F= -.20665121E+03 E0= -.20665121E+03  d E =0.000000E+00
       N       E                     dE             d eps       ncg     rms          rms(c)
DAV:   1    -0.206651211713E+03    0.32560E-09   -0.52062E-13 23904   0.318E-10    0.717E-05
DAV:   2    -0.206651211713E+03   -0.95497E-10   -0.19660E-12 23904   0.272E-10    0.717E-05
DAV:   3    -0.206651211713E+03   -0.32105E-09   -0.35995E-12 23904   0.224E-10    0.717E-05
DAV:   4    -0.206651211714E+03   -0.22192E-09   -0.19702E-12 23904   0.197E-10    0.717E-05
DAV:   5    -0.206651211714E+03    0.49113E-10   -0.44576E-13 23904   0.236E-10    0.717E-05
DAV:   6    -0.206651211713E+03    0.33651E-09   -0.64006E-14 23904   0.234E-10
  48 F= -.20665121E+03 E0= -.20665121E+03  d E =0.000000E+00
       N       E                     dE             d eps       ncg     rms          rms(c)
DAV:   1    -0.206651211713E+03    0.29922E-09   -0.60630E-13 23904   0.303E-10    0.717E-05
DAV:   2    -0.206651211713E+03    0.53569E-09   -0.23695E-12 23904   0.222E-10    0.717E-05
DAV:   3    -0.206651211713E+03   -0.20918E-09   -0.94579E-13 23904   0.204E-10    0.717E-05
DAV:   4    -0.206651211713E+03    0.95497E-10   -0.35267E-12 23904   0.192E-10    0.717E-05
DAV:   5    -0.206651211713E+03   -0.40836E-09   -0.21340E-12 23904   0.225E-10    0.717E-05
DAV:   6    -0.206651211713E+03    0.24193E-09   -0.54229E-13 23904   0.258E-10
  49 F= -.20665121E+03 E0= -.20665121E+03  d E =0.000000E+00
       N       E                     dE             d eps       ncg     rms          rms(c)
DAV:   1    -0.206651211713E+03    0.24556E-10   -0.26167E-12 23904   0.207E-10    0.717E-05
DAV:   2    -0.206651211713E+03    0.45566E-09   -0.29963E-12 23904   0.201E-10    0.717E-05
DAV:   3    -0.206651211713E+03    0.11823E-10   -0.47396E-13 23904   0.236E-10    0.717E-05
DAV:   4    -0.206651211713E+03   -0.68485E-09   -0.23443E-12 23904   0.201E-10    0.717E-05
DAV:   5    -0.206651211713E+03    0.42473E-09   -0.19540E-12 23904   0.240E-10    0.717E-05
DAV:   6    -0.206651211713E+03   -0.26648E-09   -0.26375E-12 23904   0.342E-10
  50 F= -.20665121E+03 E0= -.20665121E+03  d E =0.000000E+00
       N       E                     dE             d eps       ncg     rms          rms(c)
DAV:   1    -0.206651211713E+03    0.21828E-09   -0.87018E-13 23904   0.343E-10    0.717E-05
DAV:   2    -0.206651211713E+03   -0.21555E-09   -0.19534E-12 23904   0.275E-10    0.717E-05
DAV:   3    -0.206651211713E+03   -0.21828E-10   -0.11090E-12 23904   0.257E-10    0.717E-05
DAV:   4    -0.206651211713E+03   -0.26012E-09   -0.30100E-12 23904   0.225E-10    0.717E-05
DAV:   5    -0.206651211713E+03    0.33742E-09   -0.27143E-13 23904   0.170E-10    0.717E-05
DAV:   6    -0.206651211713E+03   -0.17189E-09   -0.98909E-13 23904   0.218E-10
  51 F= -.20665121E+03 E0= -.20665121E+03  d E =0.000000E+00
       N       E                     dE             d eps       ncg     rms          rms(c)
DAV:   1    -0.206651211713E+03   -0.58662E-09   -0.24261E-12 23904   0.213E-10    0.717E-05
DAV:   2    -0.206651211714E+03   -0.10095E-09   -0.25784E-12 23904   0.386E-10    0.717E-05
DAV:   3    -0.206651211713E+03    0.42473E-09   -0.19760E-12 23904   0.307E-10    0.717E-05
DAV:   4    -0.206651211713E+03    0.24374E-09   -0.62738E-13 23904   0.258E-10    0.717E-05
DAV:   5    -0.206651211713E+03   -0.32742E-10   -0.50005E-13 23904   0.296E-10    0.717E-05
DAV:   6    -0.206651211713E+03   -0.63665E-10   -0.45757E-13 23904   0.262E-10
  52 F= -.20665121E+03 E0= -.20665121E+03  d E =0.000000E+00
       N       E                     dE             d eps       ncg     rms          rms(c)
DAV:   1    -0.206651211714E+03   -0.67485E-09   -0.48723E-13 23904   0.316E-10    0.717E-05
DAV:   2    -0.206651211714E+03   -0.80945E-10   -0.91505E-13 23904   0.351E-10    0.717E-05
DAV:   3    -0.206651211713E+03    0.55024E-09   -0.31209E-12 23904   0.218E-10    0.717E-05
DAV:   4    -0.206651211713E+03    0.12187E-09   -0.77674E-13 23904   0.287E-10    0.717E-05
DAV:   5    -0.206651211713E+03   -0.37107E-09   -0.22147E-12 23904   0.211E-10    0.717E-05
DAV:   6    -0.206651211713E+03    0.24738E-09   -0.13694E-12 23904   0.274E-10
  53 F= -.20665121E+03 E0= -.20665121E+03  d E =0.000000E+00
       N       E                     dE             d eps       ncg     rms          rms(c)
DAV:   1    -0.206651211713E+03   -0.33651E-10   -0.40248E-13 23904   0.290E-10    0.717E-05
DAV:   2    -0.206651211713E+03    0.79399E-09    0.10967E-12 23904   0.337E-10    0.717E-05
DAV:   3    -0.206651211713E+03   -0.77307E-09   -0.21753E-12 23904   0.298E-10    0.717E-05
DAV:   4    -0.206651211713E+03    0.63847E-09   -0.50824E-13 23904   0.252E-10    0.717E-05
DAV:   5    -0.206651211713E+03   -0.48385E-09    0.11057E-12 23904   0.289E-10    0.717E-05
DAV:   6    -0.206651211714E+03   -0.42201E-09   -0.46768E-13 23904   0.326E-10
  54 F= -.20665121E+03 E0= -.20665121E+03  d E =0.000000E+00
       N       E                     dE             d eps       ncg     rms          rms(c)
DAV:   1    -0.206651211713E+03    0.60936E-09   -0.12610E-12 23904   0.254E-10    0.717E-05
DAV:   2    -0.206651211713E+03   -0.46748E-09    0.19070E-12 23904   0.429E-10    0.717E-05
DAV:   3    -0.206651211713E+03   -0.24647E-09   -0.79072E-13 23904   0.326E-10    0.717E-05
DAV:   4    -0.206651211714E+03   -0.22101E-09   -0.18200E-12 23904   0.227E-10    0.717E-05
DAV:   5    -0.206651211713E+03    0.10004E-09   -0.22927E-12 23904   0.299E-10    0.717E-05
DAV:   6    -0.206651211713E+03    0.72032E-09   -0.17774E-12 23904   0.253E-10
  55 F= -.20665121E+03 E0= -.20665121E+03  d E =0.000000E+00
       N       E                     dE             d eps       ncg     rms          rms(c)
DAV:   1    -0.206651211713E+03    0.62573E-09    0.22534E-13 23904   0.232E-10    0.717E-05
DAV:   2    -0.206651211714E+03   -0.76398E-09   -0.75845E-13 23904   0.287E-10    0.717E-05
DAV:   3    -0.206651211713E+03    0.35652E-09   -0.33592E-12 23904   0.315E-10    0.717E-05
DAV:   4    -0.206651211713E+03   -0.16917E-09   -0.17522E-12 23904   0.214E-10    0.717E-05
DAV:   5    -0.206651211714E+03   -0.32651E-09   -0.23528E-12 23904   0.269E-10    0.717E-05
DAV:   6    -0.206651211713E+03    0.79126E-09   -0.30014E-12 23904   0.189E-10
  56 F= -.20665121E+03 E0= -.20665121E+03  d E =0.000000E+00
       N       E                     dE             d eps       ncg     rms          rms(c)
DAV:   1    -0.206651211713E+03    0.11141E-08   -0.21871E-12 23904   0.191E-10    0.717E-05
DAV:   2    -0.206651211713E+03   -0.58481E-09   -0.12826E-12 23904   0.351E-10    0.717E-05
DAV:   3    -0.206651211714E+03   -0.50750E-09   -0.35048E-12 23904   0.320E-10    0.717E-05
DAV:   4    -0.206651211713E+03    0.11196E-08   -0.70304E-13 23904   0.229E-10    0.717E-05
DAV:   5    -0.206651211713E+03   -0.75306E-09   -0.17439E-12 23904   0.308E-10    0.717E-05
DAV:   6    -0.206651211713E+03    0.38563E-09   -0.12598E-12 23904   0.234E-10
  57 F= -.20665121E+03 E0= -.20665121E+03  d E =0.000000E+00
       N       E                     dE             d eps       ncg     rms          rms(c)
DAV:   1    -0.206651211713E+03    0.20555E-09   -0.21336E-12 23904   0.212E-10    0.717E-05
DAV:   2    -0.206651211713E+03    0.18917E-09   -0.22476E-13 23904   0.336E-10    0.717E-05
DAV:   3    -0.206651211713E+03    0.22737E-10   -0.18421E-12 23904   0.273E-10    0.717E-05
DAV:   4    -0.206651211714E+03   -0.55752E-09   -0.89720E-13 23904   0.233E-10    0.717E-05
DAV:   5    -0.206651211714E+03   -0.36380E-10   -0.26741E-12 23904   0.195E-10    0.717E-05
DAV:   6    -0.206651211713E+03    0.34743E-09   -0.31206E-12 23904   0.230E-10
  58 F= -.20665121E+03 E0= -.20665121E+03  d E =0.000000E+00
       N       E                     dE             d eps       ncg     rms          rms(c)
DAV:   1    -0.206651211713E+03    0.80399E-09   -0.30501E-12 23904   0.216E-10    0.717E-05
DAV:   2    -0.206651211713E+03   -0.37744E-09   -0.28457E-13 23904   0.258E-10    0.717E-05
DAV:   3    -0.206651211714E+03   -0.56389E-09   -0.38742E-12 23904   0.285E-10    0.717E-05
DAV:   4    -0.206651211714E+03   -0.93678E-10   -0.12042E-12 23904   0.326E-10    0.717E-05
DAV:   5    -0.206651211713E+03    0.36562E-09   -0.30346E-12 23904   0.282E-10    0.717E-05
DAV:   6    -0.206651211713E+03    0.21828E-10   -0.13369E-12 23904   0.289E-10
  59 F= -.20665121E+03 E0= -.20665121E+03  d E =0.000000E+00
       N       E                     dE             d eps       ncg     rms          rms(c)
DAV:   1    -0.206651211713E+03    0.47294E-10   -0.25043E-12 23904   0.197E-10    0.717E-05
DAV:   2    -0.206651211713E+03    0.19281E-09   -0.23031E-12 23904   0.329E-10    0.717E-05
DAV:   3    -0.206651211713E+03   -0.12733E-09   -0.32107E-13 23904   0.354E-10    0.717E-05
DAV:   4    -0.206651211713E+03    0.62573E-09   -0.24887E-12 23904   0.297E-10    0.717E-05
DAV:   5    -0.206651211713E+03   -0.69667E-09    0.62846E-13 23904   0.274E-10    0.717E-05
DAV:   6    -0.206651211713E+03    0.30377E-09   -0.70455E-13 23904   0.239E-10
  60 F= -.20665121E+03 E0= -.20665121E+03  d E =0.000000E+00
       N       E                     dE             d eps       ncg     rms          rms(c)
DAV:   1    -0.206651211713E+03   -0.85493E-10    0.25275E-13 23904   0.263E-10    0.717E-05
DAV:   2    -0.206651211714E+03   -0.10368E-09   -0.14447E-13 23904   0.259E-10    0.717E-05
DAV:   3    -0.206651211713E+03    0.95042E-09   -0.10134E-13 23904   0.204E-10    0.717E-05
DAV:   4    -0.206651211713E+03   -0.73669E-10   -0.24638E-12 23904   0.204E-10    0.717E-05
DAV:   5    -0.206651211713E+03   -0.24011E-09   -0.12553E-13 23904   0.258E-10    0.717E-05
DAV:   6    -0.206651211714E+03   -0.81036E-09   -0.31007E-12 23904   0.276E-10
  61 F= -.20665121E+03 E0= -.20665121E+03  d E =0.000000E+00
       N       E                     dE             d eps       ncg     rms          rms(c)
DAV:   1    -0.206651211714E+03   -0.75761E-09   -0.17682E-12 23904   0.227E-10    0.717E-05
DAV:   2    -0.206651211713E+03    0.44838E-09    0.35805E-13 23904   0.314E-10    0.717E-05
DAV:   3    -0.206651211714E+03   -0.40382E-09   -0.22869E-12 23904   0.270E-10    0.717E-05
DAV:   4    -0.206651211713E+03    0.65484E-09   -0.34189E-13 23904   0.258E-10    0.717E-05
DAV:   5    -0.206651211713E+03    0.15189E-09   -0.24139E-12 23904   0.236E-10    0.717E-05
DAV:   6    -0.206651211713E+03   -0.59936E-09    0.25890E-13 23904   0.270E-10
  62 F= -.20665121E+03 E0= -.20665121E+03  d E =0.000000E+00
       N       E                     dE             d eps       ncg     rms          rms(c)
DAV:   1    -0.206651211713E+03   -0.42019E-09   -0.10266E-12 23904   0.362E-10    0.717E-05
DAV:   2    -0.206651211713E+03    0.27103E-09    0.10792E-12 23904   0.252E-10    0.717E-05
DAV:   3    -0.206651211713E+03   -0.13188E-09    0.46324E-13 23904   0.255E-10    0.717E-05
DAV:   4    -0.206651211713E+03    0.18827E-09   -0.29429E-12 23904   0.219E-10    0.717E-05
DAV:   5    -0.206651211713E+03   -0.24647E-09   -0.12544E-12 23904   0.185E-10    0.717E-05
DAV:   6    -0.206651211714E+03   -0.62028E-09   -0.20738E-12 23904   0.239E-10
  63 F= -.20665121E+03 E0= -.20665121E+03  d E =0.000000E+00
       N       E                     dE             d eps       ncg     rms          rms(c)
DAV:   1    -0.206651211713E+03   -0.96406E-10   -0.16744E-12 23904   0.203E-10    0.717E-05
DAV:   2    -0.206651211714E+03   -0.27921E-09    0.55899E-13 23904   0.246E-10    0.717E-05
DAV:   3    -0.206651211713E+03    0.27012E-09   -0.20832E-12 23904   0.342E-10    0.717E-05
DAV:   4    -0.206651211713E+03   -0.94587E-10   -0.42054E-13 23904   0.187E-10    0.717E-05
DAV:   5    -0.206651211713E+03    0.42110E-09   -0.15832E-13 23904   0.253E-10    0.717E-05
DAV:   6    -0.206651211713E+03   -0.28467E-09    0.92007E-13 23904   0.230E-10
  64 F= -.20665121E+03 E0= -.20665121E+03  d E =0.000000E+00
       N       E                     dE             d eps       ncg     rms          rms(c)
DAV:   1    -0.206651211713E+03   -0.19463E-09    0.33121E-13 23904   0.251E-10    0.717E-05
DAV:   2    -0.206651211713E+03    0.10004E-10   -0.19621E-12 23904   0.219E-10    0.717E-05
DAV:   3    -0.206651211713E+03   -0.22737E-09   -0.39349E-13 23904   0.224E-10    0.717E-05
DAV:   4    -0.206651211713E+03    0.13006E-09   -0.15819E-12 23904   0.294E-10    0.717E-05
DAV:   5    -0.206651211713E+03    0.57116E-09   -0.14824E-12 23904   0.207E-10    0.717E-05
DAV:   6    -0.206651211714E+03   -0.97589E-09   -0.11568E-12 23904   0.268E-10
  65 F= -.20665121E+03 E0= -.20665121E+03  d E =0.000000E+00
       N       E                     dE             d eps       ncg     rms          rms(c)
DAV:   1    -0.206651211713E+03   -0.55570E-09   -0.20746E-12 23904   0.274E-10    0.717E-05
DAV:   2    -0.206651211713E+03    0.13733E-09   -0.44846E-13 23904   0.197E-10    0.717E-05
DAV:   3    -0.206651211713E+03    0.24556E-10   -0.20805E-12 23904   0.209E-10    0.717E-05
DAV:   4    -0.206651211713E+03   -0.19554E-09   -0.14940E-12 23904   0.214E-10    0.717E-05
DAV:   5    -0.206651211713E+03    0.19736E-09   -0.24692E-12 23904   0.250E-10    0.717E-05
DAV:   6    -0.206651211713E+03    0.79126E-10   -0.19711E-12 23904   0.222E-10
  66 F= -.20665121E+03 E0= -.20665121E+03  d E =0.000000E+00
       N       E                     dE             d eps       ncg     rms          rms(c)
DAV:   1    -0.206651211714E+03   -0.47203E-09   -0.14250E-12 23904   0.191E-10    0.717E-05
DAV:   2    -0.206651211713E+03    0.36835E-09   -0.24733E-12 23904   0.396E-10    0.717E-05
DAV:   3    -0.206651211714E+03   -0.45293E-09   -0.30252E-12 23904   0.287E-10    0.717E-05
DAV:   4    -0.206651211714E+03   -0.16098E-09    0.51472E-13 23904   0.196E-10    0.717E-05
DAV:   5    -0.206651211713E+03    0.98680E-09   -0.32218E-13 23904   0.220E-10    0.717E-05
DAV:   6    -0.206651211713E+03   -0.37562E-09   -0.30318E-12 23904   0.221E-10
  67 F= -.20665121E+03 E0= -.20665121E+03  d E =0.000000E+00
       N       E                     dE             d eps       ncg     rms          rms(c)
DAV:   1    -0.206651211714E+03   -0.85856E-09   -0.20662E-12 23904   0.254E-10    0.717E-05
DAV:   2    -0.206651211713E+03    0.38199E-09    0.52252E-13 23904   0.273E-10    0.717E-05
DAV:   3    -0.206651211713E+03    0.19281E-09   -0.18603E-12 23904   0.264E-10    0.717E-05
DAV:   4    -0.206651211713E+03    0.18099E-09   -0.38153E-13 23904   0.264E-10    0.717E-05
DAV:   5    -0.206651211713E+03   -0.10004E-10   -0.11166E-12 23904   0.292E-10    0.717E-05
DAV:   6    -0.206651211714E+03   -0.88494E-09   -0.17442E-12 23904   0.242E-10
  68 F= -.20665121E+03 E0= -.20665121E+03  d E =0.000000E+00
       N       E                     dE             d eps       ncg     rms          rms(c)
DAV:   1    -0.206651211713E+03   -0.80036E-10   -0.94523E-13 23904   0.288E-10    0.717E-05
DAV:   2    -0.206651211713E+03   -0.10186E-09   -0.15185E-12 23904   0.383E-10    0.717E-05
DAV:   3    -0.206651211713E+03    0.29286E-09   -0.20301E-12 23904   0.247E-10    0.717E-05
DAV:   4    -0.206651211714E+03   -0.78671E-09   -0.16673E-12 23904   0.191E-10    0.717E-05
DAV:   5    -0.206651211713E+03    0.62755E-09   -0.25215E-12 23904   0.261E-10    0.717E-05
DAV:   6    -0.206651211713E+03   -0.48840E-09   -0.31676E-12 23904   0.200E-10
  69 F= -.20665121E+03 E0= -.20665121E+03  d E =0.000000E+00
       N       E                     dE             d eps       ncg     rms          rms(c)
DAV:   1    -0.206651211713E+03    0.10004E-10   -0.19982E-12 23904   0.254E-10    0.717E-05
DAV:   2    -0.206651211713E+03    0.53660E-10   -0.16048E-12 23904   0.282E-10    0.717E-05
DAV:   3    -0.206651211714E+03   -0.68667E-09   -0.44651E-13 23904   0.242E-10    0.717E-05
DAV:   4    -0.206651211713E+03    0.17280E-09   -0.32541E-12 23904   0.279E-10    0.717E-05
DAV:   5    -0.206651211713E+03    0.12733E-09   -0.27012E-12 23904   0.178E-10    0.717E-05
DAV:   6    -0.206651211713E+03    0.47294E-09   -0.29224E-12 23904   0.297E-10
  70 F= -.20665121E+03 E0= -.20665121E+03  d E =0.000000E+00
       N       E                     dE             d eps       ncg     rms          rms(c)
DAV:   1    -0.206651211713E+03    0.64392E-09   -0.13547E-12 23904   0.219E-10    0.717E-05
DAV:   2    -0.206651211713E+03   -0.13642E-09   -0.16397E-12 23904   0.336E-10    0.717E-05
DAV:   3    -0.206651211713E+03    0.10914E-10   -0.18350E-12 23904   0.211E-10    0.717E-05
DAV:   4    -0.206651211713E+03   -0.43929E-09   -0.16568E-12 23904   0.203E-10    0.717E-05
DAV:   5    -0.206651211713E+03   -0.53660E-10   -0.25422E-12 23904   0.242E-10    0.717E-05
DAV:   6    -0.206651211713E+03    0.32196E-09   -0.21836E-12 23904   0.213E-10
  71 F= -.20665121E+03 E0= -.20665121E+03  d E =0.000000E+00
       N       E                     dE             d eps       ncg     rms          rms(c)
DAV:   1    -0.206651211713E+03   -0.20736E-09   -0.25653E-12 23904   0.204E-10    0.717E-05
DAV:   2    -0.206651211713E+03    0.63847E-09   -0.46878E-12 23904   0.410E-10    0.717E-05
DAV:   3    -0.206651211713E+03   -0.52205E-09   -0.35309E-12 23904   0.348E-10    0.717E-05
DAV:   4    -0.206651211713E+03    0.17553E-09   -0.26109E-12 23904   0.250E-10    0.717E-05
DAV:   5    -0.206651211713E+03    0.44292E-09   -0.28429E-12 23904   0.253E-10    0.717E-05
DAV:   6    -0.206651211713E+03   -0.29195E-09   -0.11374E-12 23904   0.266E-10
  72 F= -.20665121E+03 E0= -.20665121E+03  d E =0.000000E+00
       N       E                     dE             d eps       ncg     rms          rms(c)
DAV:   1    -0.206651211713E+03    0.15461E-10   -0.18797E-12 23904   0.233E-10    0.717E-05
DAV:   2    -0.206651211713E+03   -0.20827E-09   -0.19577E-12 23904   0.373E-10    0.717E-05
DAV:   3    -0.206651211714E+03   -0.69849E-09   -0.11662E-12 23904   0.243E-10    0.717E-05
DAV:   4    -0.206651211713E+03    0.24374E-09   -0.42561E-12 23904   0.215E-10    0.717E-05
DAV:   5    -0.206651211713E+03   -0.49113E-10   -0.42338E-12 23904   0.265E-10    0.717E-05
DAV:   6    -0.206651211713E+03    0.82764E-10   -0.74989E-13 23904   0.268E-10
  73 F= -.20665121E+03 E0= -.20665121E+03  d E =0.000000E+00
       N       E                     dE             d eps       ncg     rms          rms(c)
DAV:   1    -0.206651211714E+03   -0.27103E-09   -0.15651E-12 23904   0.283E-10    0.717E-05
DAV:   2    -0.206651211713E+03    0.49113E-09   -0.30610E-12 23904   0.471E-10    0.717E-05
DAV:   3    -0.206651211713E+03    0.31559E-09   -0.34143E-12 23904   0.351E-10    0.717E-05
DAV:   4    -0.206651211713E+03   -0.54843E-09   -0.10831E-12 23904   0.237E-10    0.717E-05
DAV:   5    -0.206651211713E+03    0.75852E-09   -0.75344E-13 23904   0.314E-10    0.717E-05
DAV:   6    -0.206651211713E+03   -0.45111E-09   -0.24317E-12 23904   0.275E-10
  74 F= -.20665121E+03 E0= -.20665121E+03  d E =0.000000E+00
       N       E                     dE             d eps       ncg     rms          rms(c)
DAV:   1    -0.206651211713E+03   -0.13461E-09   -0.90516E-13 23904   0.249E-10    0.717E-05
DAV:   2    -0.206651211713E+03    0.12642E-09   -0.50689E-13 23904   0.292E-10    0.717E-05
DAV:   3    -0.206651211713E+03   -0.79217E-09    0.18926E-13 23904   0.189E-10    0.717E-05
DAV:   4    -0.206651211713E+03    0.82036E-09   -0.29041E-12 23904   0.228E-10    0.717E-05
DAV:   5    -0.206651211713E+03   -0.54752E-09   -0.15247E-12 23904   0.291E-10    0.717E-05
DAV:   6    -0.206651211714E+03   -0.32560E-09   -0.63367E-13 23904   0.235E-10
  75 F= -.20665121E+03 E0= -.20665121E+03  d E =0.000000E+00
       N       E                     dE             d eps       ncg     rms          rms(c)
DAV:   1    -0.206651211713E+03    0.47658E-09   -0.24307E-12 23904   0.246E-10    0.717E-05
DAV:   2    -0.206651211713E+03   -0.32742E-10   -0.94003E-13 23904   0.253E-10    0.717E-05
DAV:   3    -0.206651211713E+03   -0.43656E-09   -0.23422E-12 23904   0.220E-10    0.717E-05
DAV:   4    -0.206651211713E+03    0.43474E-09   -0.26704E-12 23904   0.204E-10    0.717E-05
DAV:   5    -0.206651211713E+03   -0.71577E-09   -0.13093E-12 23904   0.268E-10    0.717E-05
DAV:   6    -0.206651211713E+03    0.80399E-09   -0.21180E-12 23904   0.321E-10
  76 F= -.20665121E+03 E0= -.20665121E+03  d E =0.000000E+00
       N       E                     dE             d eps       ncg     rms          rms(c)
DAV:   1    -0.206651211713E+03    0.69940E-09   -0.24830E-12 23904   0.282E-10    0.717E-05
DAV:   2    -0.206651211713E+03   -0.50477E-09   -0.16465E-12 23904   0.235E-10    0.717E-05
DAV:   3    -0.206651211713E+03    0.37016E-09   -0.14018E-12 23904   0.291E-10    0.717E-05
DAV:   4    -0.206651211713E+03   -0.38381E-09   -0.14228E-13 23904   0.188E-10    0.717E-05
DAV:   5    -0.206651211713E+03    0.39290E-09   -0.16788E-12 23904   0.170E-10    0.717E-05
DAV:   6    -0.206651211714E+03   -0.61118E-09   -0.23720E-12 23904   0.234E-10
  77 F= -.20665121E+03 E0= -.20665121E+03  d E =0.000000E+00
       N       E                     dE             d eps       ncg     rms          rms(c)
DAV:   1    -0.206651211713E+03   -0.53296E-09   -0.16029E-12 23904   0.277E-10    0.717E-05
DAV:   2    -0.206651211713E+03    0.11823E-09   -0.21065E-12 23904   0.409E-10    0.717E-05
DAV:   3    -0.206651211713E+03    0.12369E-09   -0.34517E-12 23904   0.376E-10    0.717E-05
DAV:   4    -0.206651211713E+03    0.31469E-09   -0.84168E-13 23904   0.284E-10    0.717E-05
DAV:   5    -0.206651211713E+03   -0.36744E-09    0.57662E-13 23904   0.253E-10    0.717E-05
DAV:   6    -0.206651211713E+03    0.34743E-09   -0.11968E-12 23904   0.195E-10
  78 F= -.20665121E+03 E0= -.20665121E+03  d E =0.000000E+00
       N       E                     dE             d eps       ncg     rms          rms(c)
DAV:   1    -0.206651211713E+03   -0.63665E-11   -0.22595E-12 23904   0.181E-10    0.717E-05
DAV:   2    -0.206651211713E+03    0.47112E-09   -0.16746E-12 23904   0.249E-10    0.717E-05
DAV:   3    -0.206651211713E+03    0.90949E-12   -0.19134E-12 23904   0.267E-10    0.717E-05
DAV:   4    -0.206651211713E+03   -0.40473E-09   -0.21831E-12 23904   0.206E-10    0.717E-05
DAV:   5    -0.206651211713E+03   -0.60936E-10   -0.74315E-13 23904   0.211E-10    0.717E-05
DAV:   6    -0.206651211714E+03   -0.38563E-09   -0.95458E-13 23904   0.209E-10
  79 F= -.20665121E+03 E0= -.20665121E+03  d E =0.000000E+00
       N       E                     dE             d eps       ncg     rms          rms(c)
DAV:   1    -0.206651211713E+03   -0.13915E-09   -0.44040E-14 23904   0.248E-10    0.717E-05
DAV:   2    -0.206651211713E+03    0.17735E-09   -0.16536E-12 23904   0.343E-10    0.717E-05
DAV:   3    -0.206651211713E+03    0.45111E-09   -0.22704E-12 23904   0.269E-10    0.717E-05
DAV:   4    -0.206651211713E+03    0.38199E-10   -0.99421E-13 23904   0.204E-10    0.717E-05
DAV:   5    -0.206651211714E+03   -0.96315E-09   -0.18472E-12 23904   0.233E-10    0.717E-05
DAV:   6    -0.206651211713E+03    0.45020E-09    0.23770E-12 23904   0.258E-10
  80 F= -.20665121E+03 E0= -.20665121E+03  d E =0.000000E+00
       N       E                     dE             d eps       ncg     rms          rms(c)
DAV:   1    -0.206651211713E+03    0.89040E-09   -0.18313E-13 23904   0.172E-10    0.717E-05
DAV:   2    -0.206651211713E+03   -0.55843E-09   -0.93092E-13 23904   0.320E-10    0.717E-05
DAV:   3    -0.206651211713E+03    0.62573E-09   -0.16387E-12 23904   0.263E-10    0.717E-05
DAV:   4    -0.206651211713E+03   -0.16735E-09   -0.59594E-13 23904   0.293E-10    0.717E-05
DAV:   5    -0.206651211713E+03    0.23738E-09   -0.17200E-12 23904   0.254E-10    0.717E-05
DAV:   6    -0.206651211713E+03   -0.66393E-10   -0.19710E-12 23904   0.235E-10
  81 F= -.20665121E+03 E0= -.20665121E+03  d E =0.000000E+00
       N       E                     dE             d eps       ncg     rms          rms(c)
DAV:   1    -0.206651211713E+03   -0.82673E-09   -0.12560E-12 23904   0.191E-10    0.717E-05
DAV:   2    -0.206651211713E+03    0.46475E-09   -0.15867E-12 23904   0.379E-10    0.717E-05
DAV:   3    -0.206651211713E+03   -0.20282E-09   -0.38425E-12 23904   0.262E-10    0.717E-05
DAV:   4    -0.206651211714E+03   -0.40382E-09   -0.10907E-12 23904   0.203E-10    0.717E-05
DAV:   5    -0.206651211713E+03    0.69303E-09   -0.88118E-13 23904   0.200E-10    0.717E-05
DAV:   6    -0.206651211713E+03   -0.55843E-09   -0.14655E-12 23904   0.278E-10
  82 F= -.20665121E+03 E0= -.20665121E+03  d E =0.000000E+00
       N       E                     dE             d eps       ncg     rms          rms(c)
DAV:   1    -0.206651211714E+03   -0.70850E-09   -0.41473E-13 23904   0.241E-10    0.717E-05
DAV:   2    -0.206651211713E+03    0.36471E-09    0.46976E-13 23904   0.299E-10    0.717E-05
DAV:   3    -0.206651211713E+03    0.44292E-09   -0.39275E-12 23904   0.293E-10    0.717E-05
DAV:   4    -0.206651211713E+03   -0.38654E-09   -0.48464E-14 23904   0.231E-10    0.717E-05
DAV:   5    -0.206651211713E+03   -0.12733E-10   -0.73607E-14 23904   0.176E-10    0.717E-05
DAV:   6    -0.206651211714E+03   -0.43747E-09   -0.13748E-12 23904   0.255E-10
  83 F= -.20665121E+03 E0= -.20665121E+03  d E =0.000000E+00
       N       E                     dE             d eps       ncg     rms          rms(c)
DAV:   1    -0.206651211714E+03   -0.54388E-09   -0.29555E-13 23904   0.217E-10    0.717E-05
DAV:   2    -0.206651211713E+03    0.10477E-08   -0.81497E-13 23904   0.359E-10    0.717E-05
DAV:   3    -0.206651211714E+03   -0.11023E-08   -0.25943E-12 23904   0.381E-10    0.717E-05
DAV:   4    -0.206651211713E+03    0.84583E-09   -0.12544E-13 23904   0.274E-10    0.717E-05
DAV:   5    -0.206651211713E+03   -0.13097E-09   -0.16662E-12 23904   0.202E-10    0.717E-05
DAV:   6    -0.206651211713E+03   -0.32560E-09    0.87818E-14 23904   0.200E-10
  84 F= -.20665121E+03 E0= -.20665121E+03  d E =0.000000E+00
       N       E                     dE             d eps       ncg     rms          rms(c)
DAV:   1    -0.206651211713E+03    0.36744E-09   -0.15818E-13 23904   0.244E-10    0.717E-05
DAV:   2    -0.206651211713E+03    0.36380E-10    0.30639E-13 23904   0.370E-10    0.717E-05
DAV:   3    -0.206651211714E+03   -0.10332E-08   -0.18659E-12 23904   0.253E-10    0.717E-05
DAV:   4    -0.206651211713E+03    0.49840E-09   -0.21325E-12 23904   0.219E-10    0.717E-05
DAV:   5    -0.206651211713E+03    0.53205E-09   -0.18700E-12 23904   0.247E-10    0.717E-05
DAV:   6    -0.206651211713E+03   -0.58117E-09   -0.14890E-12 23904   0.289E-10
  85 F= -.20665121E+03 E0= -.20665121E+03  d E =0.000000E+00
       N       E                     dE             d eps       ncg     rms          rms(c)
DAV:   1    -0.206651211713E+03   -0.51568E-09   -0.18543E-12 23904   0.269E-10    0.717E-05
DAV:   2    -0.206651211713E+03    0.19099E-09   -0.14524E-12 23904   0.222E-10    0.717E-05
DAV:   3    -0.206651211714E+03   -0.58390E-09   -0.70971E-13 23904   0.246E-10    0.717E-05
DAV:   4    -0.206651211714E+03    0.60936E-10   -0.15383E-12 23904   0.174E-10    0.717E-05
DAV:   5    -0.206651211713E+03    0.53569E-09   -0.24793E-13 23904   0.257E-10    0.717E-05
DAV:   6    -0.206651211713E+03   -0.18736E-09   -0.26112E-13 23904   0.162E-10
  86 F= -.20665121E+03 E0= -.20665121E+03  d E =0.000000E+00
       N       E                     dE             d eps       ncg     rms          rms(c)
DAV:   1    -0.206651211713E+03    0.17644E-09   -0.12156E-12 23904   0.286E-10    0.717E-05
DAV:   2    -0.206651211713E+03   -0.19281E-09   -0.16690E-12 23904   0.325E-10    0.717E-05
DAV:   3    -0.206651211713E+03    0.15280E-09   -0.20363E-12 23904   0.236E-10    0.717E-05
DAV:   4    -0.206651211713E+03   -0.23738E-09   -0.11615E-12 23904   0.214E-10    0.717E-05
DAV:   5    -0.206651211714E+03   -0.57753E-09   -0.19406E-12 23904   0.215E-10    0.717E-05
DAV:   6    -0.206651211714E+03   -0.79126E-10   -0.11064E-12 23904   0.314E-10
  87 F= -.20665121E+03 E0= -.20665121E+03  d E =0.000000E+00
       N       E                     dE             d eps       ncg     rms          rms(c)
DAV:   1    -0.206651211713E+03    0.72760E-09   -0.20863E-12 23904   0.481E-10    0.717E-05
DAV:   2    -0.206651211713E+03   -0.20373E-09   -0.26146E-12 23904   0.360E-10    0.717E-05
DAV:   3    -0.206651211713E+03    0.18190E-11   -0.13207E-13 23904   0.288E-10    0.717E-05
DAV:   4    -0.206651211713E+03    0.39108E-09   -0.30452E-12 23904   0.256E-10    0.717E-05
DAV:   5    -0.206651211713E+03   -0.68758E-09   -0.13834E-12 23904   0.336E-10    0.717E-05
DAV:   6    -0.206651211713E+03   -0.20009E-10   -0.29905E-12 23904   0.232E-10
  88 F= -.20665121E+03 E0= -.20665121E+03  d E =0.000000E+00
       N       E                     dE             d eps       ncg     rms          rms(c)
DAV:   1    -0.206651211713E+03    0.13915E-09   -0.31033E-12 23904   0.199E-10    0.717E-05
DAV:   2    -0.206651211714E+03   -0.37562E-09   -0.51594E-13 23904   0.246E-10    0.717E-05
DAV:   3    -0.206651211713E+03    0.40836E-09    0.24974E-13 23904   0.217E-10    0.717E-05
DAV:   4    -0.206651211714E+03   -0.32833E-09   -0.25981E-12 23904   0.224E-10    0.717E-05
DAV:   5    -0.206651211713E+03    0.30923E-09   -0.58879E-13 23904   0.261E-10    0.717E-05
DAV:   6    -0.206651211713E+03    0.54206E-09    0.40119E-13 23904   0.283E-10
  89 F= -.20665121E+03 E0= -.20665121E+03  d E =0.000000E+00
       N       E                     dE             d eps       ncg     rms          rms(c)
DAV:   1    -0.206651211713E+03    0.18190E-09   -0.12801E-12 23904   0.258E-10    0.717E-05
DAV:   2    -0.206651211713E+03    0.18190E-09   -0.97499E-13 23904   0.205E-10    0.717E-05
DAV:   3    -0.206651211713E+03   -0.11460E-09   -0.10865E-12 23904   0.205E-10    0.717E-05
DAV:   4    -0.206651211713E+03    0.32833E-09    0.17973E-13 23904   0.232E-10    0.717E-05
DAV:   5    -0.206651211713E+03   -0.65756E-09   -0.13058E-12 23904   0.212E-10    0.717E-05
DAV:   6    -0.206651211713E+03    0.30286E-09   -0.54408E-13 23904   0.205E-10
  90 F= -.20665121E+03 E0= -.20665121E+03  d E =0.000000E+00
       N       E                     dE             d eps       ncg     rms          rms(c)
DAV:   1    -0.206651211713E+03   -0.46384E-10   -0.10862E-12 23904   0.197E-10    0.717E-05
DAV:   2    -0.206651211713E+03    0.21191E-09   -0.77350E-13 23904   0.277E-10    0.717E-05
DAV:   3    -0.206651211713E+03    0.61300E-09   -0.14634E-12 23904   0.224E-10    0.717E-05
DAV:   4    -0.206651211714E+03   -0.10559E-08   -0.12761E-12 23904   0.242E-10    0.717E-05
DAV:   5    -0.206651211713E+03    0.50659E-09   -0.16046E-12 23904   0.194E-10    0.717E-05
DAV:   6    -0.206651211714E+03   -0.41382E-09   -0.16858E-12 23904   0.222E-10
  91 F= -.20665121E+03 E0= -.20665121E+03  d E =0.000000E+00
       N       E                     dE             d eps       ncg     rms          rms(c)
DAV:   1    -0.206651211714E+03   -0.52842E-09    0.27309E-13 23904   0.204E-10    0.717E-05
DAV:   2    -0.206651211713E+03    0.21737E-09   -0.12215E-12 23904   0.373E-10    0.717E-05
DAV:   3    -0.206651211713E+03   -0.12733E-10   -0.73272E-13 23904   0.248E-10    0.717E-05
DAV:   4    -0.206651211714E+03   -0.74579E-10   -0.17686E-12 23904   0.233E-10    0.717E-05
DAV:   5    -0.206651211713E+03    0.72760E-09    0.47697E-13 23904   0.123E-10    0.717E-05
DAV:   6    -0.206651211713E+03    0.12733E-09   -0.94818E-13 23904   0.266E-10
  92 F= -.20665121E+03 E0= -.20665121E+03  d E =0.000000E+00
       N       E                     dE             d eps       ncg     rms          rms(c)
DAV:   1    -0.206651211713E+03   -0.11823E-09   -0.16655E-12 23904   0.214E-10    0.717E-05
DAV:   2    -0.206651211713E+03    0.99135E-10   -0.12122E-12 23904   0.296E-10    0.717E-05
DAV:   3    -0.206651211713E+03   -0.24647E-09   -0.52321E-13 23904   0.220E-10    0.717E-05
DAV:   4    -0.206651211713E+03    0.23374E-09   -0.21579E-12 23904   0.274E-10    0.717E-05
DAV:   5    -0.206651211713E+03   -0.57844E-09    0.69388E-14 23904   0.356E-10    0.717E-05
DAV:   6    -0.206651211713E+03    0.30286E-09   -0.19846E-12 23904   0.374E-10
  93 F= -.20665121E+03 E0= -.20665121E+03  d E =0.000000E+00
       N       E                     dE             d eps       ncg     rms          rms(c)
DAV:   1    -0.206651211713E+03    0.25011E-09   -0.18289E-12 23904   0.187E-10    0.717E-05
DAV:   2    -0.206651211713E+03    0.35288E-09   -0.74256E-13 23904   0.276E-10    0.717E-05
DAV:   3    -0.206651211713E+03    0.81855E-11   -0.25642E-13 23904   0.238E-10    0.717E-05
DAV:   4    -0.206651211713E+03   -0.37380E-09   -0.78209E-13 23904   0.261E-10    0.717E-05
DAV:   5    -0.206651211713E+03    0.39017E-09   -0.23077E-12 23904   0.280E-10    0.717E-05
DAV:   6    -0.206651211714E+03   -0.91950E-09   -0.21505E-12 23904   0.221E-10
  94 F= -.20665121E+03 E0= -.20665121E+03  d E =0.000000E+00
       N       E                     dE             d eps       ncg     rms          rms(c)
DAV:   1    -0.206651211713E+03   -0.66120E-09   -0.15703E-12 23904   0.280E-10    0.717E-05
DAV:   2    -0.206651211713E+03    0.51659E-09   -0.63596E-13 23904   0.360E-10    0.717E-05
DAV:   3    -0.206651211713E+03    0.11823E-09   -0.17289E-12 23904   0.343E-10    0.717E-05
DAV:   4    -0.206651211713E+03   -0.36289E-09   -0.21392E-12 23904   0.245E-10    0.717E-05
DAV:   5    -0.206651211713E+03    0.33924E-09   -0.21712E-12 23904   0.289E-10    0.717E-05
DAV:   6    -0.206651211714E+03   -0.63301E-09   -0.29819E-12 23904   0.262E-10
  95 F= -.20665121E+03 E0= -.20665121E+03  d E =0.000000E+00
       N       E                     dE             d eps       ncg     rms          rms(c)
DAV:   1    -0.206651211714E+03   -0.76579E-09   -0.12408E-12 23904   0.222E-10    0.717E-05
DAV:   2    -0.206651211713E+03    0.16735E-09   -0.14013E-12 23904   0.382E-10    0.717E-05
DAV:   3    -0.206651211713E+03    0.25648E-09   -0.21718E-12 23904   0.365E-10    0.717E-05
DAV:   4    -0.206651211713E+03    0.22737E-10   -0.23587E-12 23904   0.287E-10    0.717E-05
DAV:   5    -0.206651211713E+03    0.18008E-09    0.36758E-13 23904   0.198E-10    0.717E-05
DAV:   6    -0.206651211713E+03   -0.23192E-09   -0.86900E-13 23904   0.264E-10
  96 F= -.20665121E+03 E0= -.20665121E+03  d E =0.000000E+00
       N       E                     dE             d eps       ncg     rms          rms(c)
DAV:   1    -0.206651211713E+03   -0.36835E-09   -0.26388E-13 23904   0.281E-10    0.717E-05
DAV:   2    -0.206651211713E+03    0.47112E-09    0.62624E-13 23904   0.291E-10    0.717E-05
DAV:   3    -0.206651211713E+03    0.19463E-09   -0.28508E-12 23904   0.183E-10    0.717E-05
DAV:   4    -0.206651211713E+03   -0.50841E-09   -0.15180E-12 23904   0.212E-10    0.717E-05
DAV:   5    -0.206651211713E+03   -0.46384E-10   -0.16528E-12 23904   0.359E-10    0.717E-05
DAV:   6    -0.206651211714E+03   -0.29559E-09   -0.55053E-13 23904   0.229E-10
  97 F= -.20665121E+03 E0= -.20665121E+03  d E =0.000000E+00
       N       E                     dE             d eps       ncg     rms          rms(c)
DAV:   1    -0.206651211713E+03    0.38926E-09   -0.51567E-13 23904   0.251E-10    0.717E-05
DAV:   2    -0.206651211713E+03   -0.38472E-09   -0.14219E-12 23904   0.344E-10    0.717E-05
DAV:   3    -0.206651211713E+03    0.40745E-09   -0.23347E-12 23904   0.306E-10    0.717E-05
DAV:   4    -0.206651211713E+03   -0.41746E-09   -0.43661E-13 23904   0.200E-10    0.717E-05
DAV:   5    -0.206651211713E+03    0.46748E-09   -0.26379E-12 23904   0.194E-10    0.717E-05
DAV:   6    -0.206651211713E+03    0.11187E-09   -0.15160E-12 23904   0.206E-10
  98 F= -.20665121E+03 E0= -.20665121E+03  d E =0.000000E+00
       N       E                     dE             d eps       ncg     rms          rms(c)
DAV:   1    -0.206651211713E+03   -0.66848E-09   -0.11136E-12 23904   0.183E-10    0.717E-05
DAV:   2    -0.206651211713E+03    0.81855E-11   -0.22455E-12 23904   0.287E-10    0.717E-05
DAV:   3    -0.206651211714E+03   -0.21100E-09   -0.22518E-12 23904   0.286E-10    0.717E-05
DAV:   4    -0.206651211713E+03    0.77125E-09   -0.35678E-12 23904   0.196E-10    0.717E-05
DAV:   5    -0.206651211713E+03    0.22737E-10   -0.24200E-12 23904   0.290E-10    0.717E-05
DAV:   6    -0.206651211713E+03    0.15189E-09   -0.82543E-13 23904   0.321E-10
  99 F= -.20665121E+03 E0= -.20665121E+03  d E =0.000000E+00
       N       E                     dE             d eps       ncg     rms          rms(c)
DAV:   1    -0.206651211713E+03   -0.58753E-09   -0.24058E-12 23904   0.227E-10    0.717E-05
DAV:   2    -0.206651211713E+03    0.37744E-09   -0.73472E-13 23904   0.266E-10    0.717E-05
DAV:   3    -0.206651211713E+03    0.14370E-09   -0.20315E-12 23904   0.260E-10    0.717E-05
DAV:   4    -0.206651211713E+03   -0.33106E-09   -0.23441E-12 23904   0.298E-10    0.717E-05
DAV:   5    -0.206651211713E+03    0.18008E-09    0.60139E-13 23904   0.279E-10    0.717E-05
DAV:   6    -0.206651211713E+03    0.25193E-09   -0.52942E-13 23904   0.195E-10
 100 F= -.20665121E+03 E0= -.20665121E+03  d E =0.000000E+00
