 B  C 
 1.0000000000000000
     9.3998842584769449    0.0000000000000000    0.0000000000000000
     2.2156054105381027    5.0730486315652659    0.0000000000000000
     2.7291728211624089    1.9649067997583667    4.8328030072388586
 B   C  
  23   7
Cartesian
  5.4495014449551871  5.6549985078078162  3.8730723920977876
 10.1530371238789971  5.6672183950943449  3.9103573989737823
  6.4181533176867269  4.7039658488187897  1.5334707672384620
 11.1197322931862619  4.6852097194928390  1.4930321179596782
  6.7005596237652716  3.1634890163444918  3.9286389926044536
 11.3823207455092135  3.1491474819038676  3.8872537989737936
  4.1919322393041698  1.3886829728787564  0.9583026457953394
  8.9052309635365177  1.3589855678860019  0.9336000298585210
  3.2230312733258635  2.3479924910694829  3.2885346658054555
  7.9344971726844236  2.3350517294147992  3.3573426446244201
  7.6657464965896089  3.8804477769627361  0.9588586904926399
  8.0782248154828835  6.9778484127391680  4.8301733582007405
 12.7675798291086302  6.9872989146456410  4.8019982139601716
  8.7149435554357559  6.3561047467310594  3.2659302421426051
 13.4100511539674354  6.3337509865345991  3.2318639079440610
  8.8811059064879974  5.3478745840737574  4.8260365116253361
 13.5608312976497860  5.3469862997571020  4.7891010376948770
  1.5832664317183958  0.0416854977751213  0.0017568732804101
  6.2819565773063877  0.0418975652379725  0.0503010621515986
  0.9411321721478733  0.6627002136980868  1.5713539998676411
  5.6397282698227835  0.6945231849844110  1.6247163314156616
  0.7780535166056917  1.6646725990581066  0.0210308932945847
  5.4846765265581796  1.6790378511360735  0.0542291537685905
  2.9119987073806866  3.9028724394416705  0.8683846663820227
  5.9020927297286727  4.2621558485109192  2.9952537244356932
 10.6032206523596209  4.2809587263954949  2.9459693872130033
  3.6953561025061910  2.8489541474391538  1.7961022508123570
  8.4620681255121379  2.7342927172187239  1.8884911452515372
  4.8093578595658197  3.5557211043951460  2.3784962321125884
  9.5205521595578855  3.5148072344051466  2.4283927361878384
