  15  15   0   0
  0.7680761E+01  0.5902431E-09  0.5145823E-09  0.4792388E-09  0.5000000E-15
  1.000000000000000E-004
  CAR 
 unknown system                          
     13.60138290    -13.52882388  301      6.59648540      1.00000000
    -13.529  0.0000E+00  0.0000E+00
    -13.438  0.0000E+00  0.0000E+00
    -13.348  0.0000E+00  0.0000E+00
    -13.258  0.0000E+00  0.0000E+00
    -13.167  0.0000E+00  0.0000E+00
    -13.077  0.0000E+00  0.0000E+00
    -12.986  0.0000E+00  0.0000E+00
    -12.896  0.0000E+00  0.0000E+00
    -12.805  0.0000E+00  0.0000E+00
    -12.715  0.0000E+00  0.0000E+00
    -12.624  0.0000E+00  0.0000E+00
    -12.534  0.0000E+00  0.0000E+00
    -12.444  0.0000E+00  0.0000E+00
    -12.353  0.0000E+00  0.0000E+00
    -12.263  0.0000E+00  0.0000E+00
    -12.172  0.0000E+00  0.0000E+00
    -12.082  0.0000E+00  0.0000E+00
    -11.991  0.0000E+00  0.0000E+00
    -11.901  0.0000E+00  0.0000E+00
    -11.811  0.0000E+00  0.0000E+00
    -11.720  0.0000E+00  0.0000E+00
    -11.630  0.0000E+00  0.0000E+00
    -11.539  0.0000E+00  0.0000E+00
    -11.449  0.5819E-02  0.2608E-03
    -11.358  0.9258E-02  0.9454E-03
    -11.268  0.1238E-01  0.1925E-02
    -11.178  0.1597E-01  0.3201E-02
    -11.087  0.2074E-01  0.4843E-02
    -10.997  0.2913E-01  0.7109E-02
    -10.906  0.4094E-01  0.1028E-01
    -10.816  0.3473E-01  0.1372E-01
    -10.725  0.4746E-01  0.1738E-01
    -10.635  0.0000E+00  0.2000E-01
    -10.545  0.0000E+00  0.2000E-01
    -10.454  0.0000E+00  0.2000E-01
    -10.364  0.3532E-02  0.2012E-01
    -10.273  0.6830E-02  0.2058E-01
    -10.183  0.2288E-01  0.2174E-01
    -10.092  0.4440E-01  0.2501E-01
    -10.002  0.5436E-01  0.2943E-01
     -9.911  0.3552E-01  0.3357E-01
     -9.821  0.2543E-01  0.3637E-01
     -9.731  0.1496E-01  0.3816E-01
     -9.640  0.9662E-02  0.3924E-01
     -9.550  0.4659E-02  0.3989E-01
     -9.459  0.0000E+00  0.4000E-01
     -9.369  0.0000E+00  0.4000E-01
     -9.278  0.0000E+00  0.4000E-01
     -9.188  0.0000E+00  0.4000E-01
     -9.098  0.0000E+00  0.4000E-01
     -9.007  0.0000E+00  0.4000E-01
     -8.917  0.2979E-02  0.4010E-01
     -8.826  0.6350E-02  0.4050E-01
     -8.736  0.1679E-01  0.4151E-01
     -8.645  0.3481E-01  0.4404E-01
     -8.555  0.3296E-01  0.4710E-01
     -8.465  0.3322E-01  0.5010E-01
     -8.374  0.3162E-01  0.5311E-01
     -8.284  0.2440E-01  0.5576E-01
     -8.193  0.2063E-01  0.5777E-01
     -8.103  0.1076E-01  0.5925E-01
     -8.012  0.4753E-02  0.5994E-01
     -7.922  0.0000E+00  0.6000E-01
     -7.831  0.0000E+00  0.6000E-01
     -7.741  0.0000E+00  0.6000E-01
     -7.651  0.0000E+00  0.6000E-01
     -7.560  0.0000E+00  0.6000E-01
     -7.470  0.2811E-02  0.6003E-01
     -7.379  0.1659E-01  0.6094E-01
     -7.289  0.2395E-01  0.6270E-01
     -7.198  0.2566E-01  0.6524E-01
     -7.108  0.2250E-01  0.6741E-01
     -7.018  0.2069E-01  0.6940E-01
     -6.927  0.2106E-01  0.7128E-01
     -6.837  0.1985E-01  0.7312E-01
     -6.746  0.1956E-01  0.7490E-01
     -6.656  0.2087E-01  0.7670E-01
     -6.565  0.2106E-01  0.7880E-01
     -6.475  0.1526E-01  0.8038E-01
     -6.385  0.1081E-01  0.8163E-01
     -6.294  0.3141E-01  0.8322E-01
     -6.204  0.4173E-01  0.8664E-01
     -6.113  0.4109E-01  0.9022E-01
     -6.023  0.3030E-01  0.9336E-01
     -5.932  0.2356E-01  0.9576E-01
     -5.842  0.1855E-01  0.9775E-01
     -5.751  0.9665E-02  0.9890E-01
     -5.661  0.7633E-02  0.9974E-01
     -5.571  0.0000E+00  0.1000E+00
     -5.480  0.0000E+00  0.1000E+00
     -5.390  0.7795E-02  0.1002E+00
     -5.299  0.1333E-01  0.1012E+00
     -5.209  0.2196E-01  0.1028E+00
     -5.118  0.1869E-01  0.1046E+00
     -5.028  0.2000E-01  0.1063E+00
     -4.938  0.1685E-01  0.1082E+00
     -4.847  0.1503E-01  0.1096E+00
     -4.757  0.1369E-01  0.1109E+00
     -4.666  0.1208E-01  0.1120E+00
     -4.576  0.1199E-01  0.1131E+00
     -4.485  0.1239E-01  0.1142E+00
     -4.395  0.1150E-01  0.1153E+00
     -4.305  0.1078E-01  0.1163E+00
     -4.214  0.1047E-01  0.1172E+00
     -4.124  0.1444E-01  0.1184E+00
     -4.033  0.1363E-01  0.1197E+00
     -3.943  0.1455E-01  0.1209E+00
     -3.852  0.2018E-01  0.1225E+00
     -3.762  0.2749E-01  0.1246E+00
     -3.672  0.3946E-01  0.1277E+00
     -3.581  0.4314E-01  0.1313E+00
     -3.491  0.3816E-01  0.1351E+00
     -3.400  0.2327E-01  0.1378E+00
     -3.310  0.1982E-01  0.1397E+00
     -3.219  0.2575E-01  0.1418E+00
     -3.129  0.3077E-01  0.1444E+00
     -3.038  0.3408E-01  0.1473E+00
     -2.948  0.4812E-01  0.1509E+00
     -2.858  0.5253E-01  0.1560E+00
     -2.767  0.4159E-01  0.1602E+00
     -2.677  0.3620E-01  0.1636E+00
     -2.586  0.3235E-01  0.1668E+00
     -2.496  0.3141E-01  0.1696E+00
     -2.405  0.3632E-01  0.1726E+00
     -2.315  0.3949E-01  0.1762E+00
     -2.225  0.3552E-01  0.1796E+00
     -2.134  0.3766E-01  0.1830E+00
     -2.044  0.3752E-01  0.1864E+00
     -1.953  0.3401E-01  0.1896E+00
     -1.863  0.3769E-01  0.1928E+00
     -1.772  0.4013E-01  0.1963E+00
     -1.682  0.3988E-01  0.2000E+00
     -1.592  0.4228E-01  0.2037E+00
     -1.501  0.4170E-01  0.2075E+00
     -1.411  0.3882E-01  0.2111E+00
     -1.320  0.3878E-01  0.2146E+00
     -1.230  0.4026E-01  0.2182E+00
     -1.139  0.4100E-01  0.2219E+00
     -1.049  0.4456E-01  0.2258E+00
     -0.958  0.4178E-01  0.2296E+00
     -0.868  0.4263E-01  0.2333E+00
     -0.778  0.4323E-01  0.2371E+00
     -0.687  0.3860E-01  0.2408E+00
     -0.597  0.3514E-01  0.2441E+00
     -0.506  0.3269E-01  0.2471E+00
     -0.416  0.3543E-01  0.2501E+00
     -0.325  0.4376E-01  0.2537E+00
     -0.235  0.4144E-01  0.2577E+00
     -0.145  0.4431E-01  0.2614E+00
     -0.054  0.5190E-01  0.2657E+00
      0.036  0.5233E-01  0.2705E+00
      0.127  0.5161E-01  0.2750E+00
      0.217  0.5086E-01  0.2796E+00
      0.308  0.4365E-01  0.2840E+00
      0.398  0.3297E-01  0.2875E+00
      0.488  0.3431E-01  0.2904E+00
      0.579  0.3926E-01  0.2937E+00
      0.669  0.4450E-01  0.2976E+00
      0.760  0.4476E-01  0.3017E+00
      0.850  0.4823E-01  0.3059E+00
      0.941  0.4477E-01  0.3100E+00
      1.031  0.4805E-01  0.3142E+00
      1.121  0.4788E-01  0.3187E+00
      1.212  0.4332E-01  0.3228E+00
      1.302  0.4708E-01  0.3269E+00
      1.393  0.4736E-01  0.3311E+00
      1.483  0.4245E-01  0.3351E+00
      1.574  0.5359E-01  0.3396E+00
      1.664  0.4853E-01  0.3442E+00
      1.755  0.4525E-01  0.3485E+00
      1.845  0.3827E-01  0.3523E+00
      1.935  0.3494E-01  0.3556E+00
      2.026  0.3801E-01  0.3588E+00
      2.116  0.5135E-01  0.3630E+00
      2.207  0.5612E-01  0.3680E+00
      2.297  0.4397E-01  0.3725E+00
      2.388  0.5711E-01  0.3769E+00
      2.478  0.5608E-01  0.3820E+00
      2.568  0.6765E-01  0.3875E+00
      2.659  0.6354E-01  0.3932E+00
      2.749  0.6416E-01  0.3989E+00
      2.840  0.5371E-01  0.4041E+00
      2.930  0.4741E-01  0.4086E+00
      3.021  0.4975E-01  0.4130E+00
      3.111  0.4995E-01  0.4175E+00
      3.201  0.5451E-01  0.4223E+00
      3.292  0.4444E-01  0.4269E+00
      3.382  0.3518E-01  0.4304E+00
      3.473  0.4372E-01  0.4339E+00
      3.563  0.4305E-01  0.4379E+00
      3.654  0.4303E-01  0.4419E+00
      3.744  0.4343E-01  0.4457E+00
      3.835  0.3218E-01  0.4493E+00
      3.925  0.2301E-01  0.4516E+00
      4.015  0.2246E-01  0.4536E+00
      4.106  0.3112E-01  0.4560E+00
      4.196  0.4769E-01  0.4597E+00
      4.287  0.4342E-01  0.4638E+00
      4.377  0.3919E-01  0.4676E+00
      4.468  0.2924E-01  0.4706E+00
      4.558  0.2663E-01  0.4731E+00
      4.648  0.2044E-01  0.4755E+00
      4.739  0.1467E-01  0.4770E+00
      4.829  0.1327E-01  0.4782E+00
      4.920  0.1071E-01  0.4794E+00
      5.010  0.3611E-02  0.4799E+00
      5.101  0.0000E+00  0.4800E+00
      5.191  0.0000E+00  0.4800E+00
      5.281  0.0000E+00  0.4800E+00
      5.372  0.0000E+00  0.4800E+00
      5.462  0.0000E+00  0.4800E+00
      5.553  0.0000E+00  0.4800E+00
      5.643  0.0000E+00  0.4800E+00
      5.734  0.0000E+00  0.4800E+00
      5.824  0.0000E+00  0.4800E+00
      5.914  0.0000E+00  0.4800E+00
      6.005  0.0000E+00  0.4800E+00
      6.095  0.2588E-03  0.4800E+00
      6.186  0.1691E-02  0.4801E+00
      6.276  0.9398E-02  0.4804E+00
      6.367  0.2125E-01  0.4818E+00
      6.457  0.3308E-01  0.4842E+00
      6.548  0.4149E-01  0.4876E+00
      6.638  0.4997E-01  0.4923E+00
      6.728  0.4192E-01  0.4964E+00
      6.819  0.2956E-01  0.4996E+00
      6.909  0.2353E-01  0.5019E+00
      7.000  0.2879E-01  0.5043E+00
      7.090  0.3640E-01  0.5074E+00
      7.181  0.3982E-01  0.5107E+00
      7.271  0.4771E-01  0.5145E+00
      7.361  0.2543E-01  0.5175E+00
      7.452  0.1846E-01  0.5194E+00
      7.542  0.1930E-01  0.5211E+00
      7.633  0.3142E-01  0.5233E+00
      7.723  0.2990E-01  0.5263E+00
      7.814  0.2984E-01  0.5290E+00
      7.904  0.2228E-01  0.5314E+00
      7.994  0.1731E-01  0.5331E+00
      8.085  0.1758E-01  0.5347E+00
      8.175  0.1724E-01  0.5363E+00
      8.266  0.1767E-01  0.5378E+00
      8.356  0.1745E-01  0.5394E+00
      8.447  0.1766E-01  0.5410E+00
      8.537  0.2035E-01  0.5427E+00
      8.628  0.2947E-01  0.5449E+00
      8.718  0.3467E-01  0.5479E+00
      8.808  0.3011E-01  0.5508E+00
      8.899  0.2348E-01  0.5532E+00
      8.989  0.2869E-01  0.5555E+00
      9.080  0.3956E-01  0.5585E+00
      9.170  0.4547E-01  0.5624E+00
      9.261  0.4454E-01  0.5665E+00
      9.351  0.3643E-01  0.5702E+00
      9.441  0.3086E-01  0.5731E+00
      9.532  0.3331E-01  0.5761E+00
      9.622  0.3151E-01  0.5790E+00
      9.713  0.3410E-01  0.5820E+00
      9.803  0.3769E-01  0.5852E+00
      9.894  0.3877E-01  0.5887E+00
      9.984  0.4007E-01  0.5923E+00
     10.074  0.4035E-01  0.5959E+00
     10.165  0.4075E-01  0.5997E+00
     10.255  0.3834E-01  0.6033E+00
     10.346  0.3207E-01  0.6064E+00
     10.436  0.3583E-01  0.6094E+00
     10.527  0.3446E-01  0.6127E+00
     10.617  0.4265E-01  0.6161E+00
     10.707  0.5174E-01  0.6204E+00
     10.798  0.4770E-01  0.6250E+00
     10.888  0.4385E-01  0.6291E+00
     10.979  0.3363E-01  0.6327E+00
     11.069  0.2479E-01  0.6352E+00
     11.160  0.1607E-01  0.6371E+00
     11.250  0.1010E-01  0.6383E+00
     11.341  0.7978E-02  0.6391E+00
     11.431  0.4205E-02  0.6396E+00
     11.521  0.2410E-02  0.6399E+00
     11.612  0.0000E+00  0.6400E+00
     11.702  0.0000E+00  0.6400E+00
     11.793  0.0000E+00  0.6400E+00
     11.883  0.0000E+00  0.6400E+00
     11.974  0.0000E+00  0.6400E+00
     12.064  0.0000E+00  0.6400E+00
     12.154  0.0000E+00  0.6400E+00
     12.245  0.0000E+00  0.6400E+00
     12.335  0.0000E+00  0.6400E+00
     12.426  0.0000E+00  0.6400E+00
     12.516  0.0000E+00  0.6400E+00
     12.607  0.0000E+00  0.6400E+00
     12.697  0.0000E+00  0.6400E+00
     12.787  0.0000E+00  0.6400E+00
     12.878  0.0000E+00  0.6400E+00
     12.968  0.0000E+00  0.6400E+00
     13.059  0.0000E+00  0.6400E+00
     13.149  0.0000E+00  0.6400E+00
     13.240  0.0000E+00  0.6400E+00
     13.330  0.0000E+00  0.6400E+00
     13.421  0.0000E+00  0.6400E+00
     13.511  0.0000E+00  0.6400E+00
     13.601  0.0000E+00  0.6400E+00
