       N       E                     dE             d eps       ncg     rms          rms(c)
DAV:   1     0.934239264919E+02    0.93424E+02   -0.20751E+04 46336   0.113E+03
DAV:   2    -0.105149997778E+03   -0.19857E+03   -0.19737E+03 65088   0.213E+02
DAV:   3    -0.110424171731E+03   -0.52742E+01   -0.52504E+01 65456   0.397E+01
DAV:   4    -0.110469984726E+03   -0.45813E-01   -0.45792E-01 64368   0.370E+00
DAV:   5    -0.110470883102E+03   -0.89838E-03   -0.89823E-03 66352   0.476E-01    0.137E+01
DAV:   6    -0.105489306960E+03    0.49816E+01   -0.11849E+01 63504   0.138E+01    0.742E+00
DAV:   7    -0.104455587883E+03    0.10337E+01   -0.27807E+00 65920   0.792E+00    0.346E+00
DAV:   8    -0.104330512459E+03    0.12508E+00   -0.68782E-01 65488   0.395E+00    0.121E+00
DAV:   9    -0.104331026062E+03   -0.51360E-03   -0.55037E-02 64000   0.123E+00    0.401E-01
DAV:  10    -0.104332005720E+03   -0.97966E-03   -0.70762E-03 65696   0.436E-01    0.107E-01
DAV:  11    -0.104332235223E+03   -0.22950E-03   -0.94228E-04 65504   0.166E-01    0.352E-02
DAV:  12    -0.104332298537E+03   -0.63314E-04   -0.14452E-04 66416   0.665E-02    0.146E-02
DAV:  13    -0.104332305650E+03   -0.71124E-05   -0.18689E-05 67408   0.241E-02    0.683E-03
DAV:  14    -0.104332308861E+03   -0.32108E-05   -0.53599E-06 63056   0.130E-02    0.174E-03
DAV:  15    -0.104332308954E+03   -0.93804E-07   -0.22278E-07 68832   0.259E-03    0.817E-04
DAV:  16    -0.104332309072E+03   -0.11795E-06   -0.45895E-08 64320   0.114E-03    0.302E-04
DAV:  17    -0.104332309110E+03   -0.37626E-07   -0.67179E-09 47104   0.464E-04    0.112E-04
DAV:  18    -0.104332309122E+03   -0.12456E-07   -0.10914E-09 39648   0.199E-04    0.753E-05
DAV:  19    -0.104332309125E+03   -0.25557E-08   -0.12340E-10 37200   0.640E-05
   1 F= -.10433231E+03 E0= -.10433231E+03  d E =0.000000E+00
       N       E                     dE             d eps       ncg     rms          rms(c)
DAV:   1    -0.104332309125E+03   -0.23329E-08   -0.35414E-11 34048   0.346E-05    0.685E-05
DAV:   2    -0.104332309125E+03   -0.17099E-09   -0.65658E-12 32976   0.130E-05    0.684E-05
DAV:   3    -0.104332309125E+03    0.25238E-09   -0.24436E-12 31744   0.613E-06    0.684E-05
DAV:   4    -0.104332309125E+03   -0.10596E-09   -0.13088E-12 30960   0.310E-06    0.684E-05
DAV:   5    -0.104332309125E+03   -0.78262E-09   -0.52011E-13 29536   0.155E-06    0.684E-05
DAV:   6    -0.104332309126E+03   -0.22283E-09   -0.11543E-12 28560   0.837E-07
   2 F= -.10433231E+03 E0= -.10433231E+03  d E =0.000000E+00
       N       E                     dE             d eps       ncg     rms          rms(c)
DAV:   1    -0.104332309125E+03   -0.86402E-11   -0.74966E-13 27936   0.396E-07    0.684E-05
DAV:   2    -0.104332309125E+03    0.18190E-09   -0.74626E-13 27456   0.202E-07    0.684E-05
DAV:   3    -0.104332309125E+03    0.70941E-10   -0.23783E-13 26976   0.125E-07    0.684E-05
DAV:   4    -0.104332309125E+03    0.33424E-09   -0.32670E-13 26416   0.731E-08    0.684E-05
DAV:   5    -0.104332309125E+03   -0.14279E-09   -0.42369E-13 26080   0.418E-08    0.684E-05
DAV:   6    -0.104332309125E+03   -0.27740E-10   -0.52625E-13 25696   0.242E-08
   3 F= -.10433231E+03 E0= -.10433231E+03  d E =0.000000E+00
       N       E                     dE             d eps       ncg     rms          rms(c)
DAV:   1    -0.104332309125E+03    0.23874E-09   -0.83696E-13 25344   0.152E-08    0.684E-05
DAV:   2    -0.104332309126E+03   -0.82036E-09   -0.84598E-13 24992   0.921E-09    0.684E-05
DAV:   3    -0.104332309125E+03    0.83628E-09   -0.80458E-13 24928   0.602E-09    0.684E-05
DAV:   4    -0.104332309125E+03   -0.56389E-10   -0.13871E-12 24752   0.396E-09    0.684E-05
DAV:   5    -0.104332309125E+03   -0.18144E-09   -0.10616E-12 24512   0.277E-09    0.684E-05
DAV:   6    -0.104332309125E+03    0.32060E-09   -0.12001E-12 24224   0.178E-09
   4 F= -.10433231E+03 E0= -.10433231E+03  d E =0.000000E+00
       N       E                     dE             d eps       ncg     rms          rms(c)
DAV:   1    -0.104332309126E+03   -0.65666E-09   -0.14237E-12 24048   0.130E-09    0.684E-05
DAV:   2    -0.104332309125E+03    0.84583E-09   -0.14283E-12 23968   0.130E-09    0.684E-05
DAV:   3    -0.104332309125E+03    0.59117E-11    0.26573E-13 23840   0.896E-10    0.684E-05
DAV:   4    -0.104332309126E+03   -0.95179E-09   -0.68060E-13 23728   0.606E-10    0.684E-05
DAV:   5    -0.104332309126E+03    0.94587E-10   -0.97368E-13 23616   0.497E-10    0.684E-05
DAV:   6    -0.104332309126E+03   -0.13642E-09   -0.84579E-13 23600   0.325E-10
   5 F= -.10433231E+03 E0= -.10433231E+03  d E =0.000000E+00
       N       E                     dE             d eps       ncg     rms          rms(c)
DAV:   1    -0.104332309126E+03    0.19190E-09   -0.10867E-12 23600   0.397E-10    0.684E-05
DAV:   2    -0.104332309125E+03    0.27285E-09   -0.12336E-12 23600   0.453E-10    0.684E-05
DAV:   3    -0.104332309125E+03    0.17280E-10   -0.58300E-14 23600   0.297E-10    0.684E-05
DAV:   4    -0.104332309125E+03    0.43110E-09   -0.43446E-13 23568   0.225E-10    0.684E-05
DAV:   5    -0.104332309125E+03   -0.29013E-09   -0.13301E-12 23552   0.320E-10    0.684E-05
DAV:   6    -0.104332309125E+03    0.50022E-10   -0.10264E-12 23552   0.221E-10
   6 F= -.10433231E+03 E0= -.10433231E+03  d E =0.000000E+00
       N       E                     dE             d eps       ncg     rms          rms(c)
DAV:   1    -0.104332309125E+03    0.86402E-11   -0.55437E-13 23552   0.235E-10    0.684E-05
DAV:   2    -0.104332309125E+03    0.80490E-10   -0.82827E-13 23552   0.276E-10    0.684E-05
DAV:   3    -0.104332309125E+03   -0.22283E-10   -0.51932E-13 23552   0.292E-10    0.684E-05
DAV:   4    -0.104332309125E+03    0.31150E-09   -0.45754E-13 23552   0.254E-10    0.684E-05
DAV:   5    -0.104332309125E+03   -0.59208E-09   -0.35606E-13 23552   0.206E-10    0.684E-05
DAV:   6    -0.104332309126E+03   -0.44793E-09   -0.37106E-13 23488   0.233E-10
   7 F= -.10433231E+03 E0= -.10433231E+03  d E =0.000000E+00
       N       E                     dE             d eps       ncg     rms          rms(c)
DAV:   1    -0.104332309125E+03    0.35925E-09   -0.47012E-13 23456   0.321E-10    0.684E-05
DAV:   2    -0.104332309125E+03   -0.32742E-10   -0.38168E-13 23456   0.274E-10    0.684E-05
DAV:   3    -0.104332309125E+03    0.34606E-09   -0.55314E-13 23456   0.260E-10    0.684E-05
DAV:   4    -0.104332309125E+03   -0.45884E-09   -0.55596E-13 23456   0.243E-10    0.684E-05
DAV:   5    -0.104332309125E+03   -0.22601E-09   -0.76662E-13 23456   0.171E-10    0.684E-05
DAV:   6    -0.104332309125E+03    0.51978E-09   -0.12546E-12 23456   0.223E-10
   8 F= -.10433231E+03 E0= -.10433231E+03  d E =0.000000E+00
       N       E                     dE             d eps       ncg     rms          rms(c)
DAV:   1    -0.104332309125E+03    0.24329E-09   -0.75226E-14 23456   0.292E-10    0.684E-05
DAV:   2    -0.104332309126E+03   -0.59299E-09   -0.87066E-13 23456   0.357E-10    0.684E-05
DAV:   3    -0.104332309125E+03    0.50159E-09   -0.80267E-13 23440   0.308E-10    0.684E-05
DAV:   4    -0.104332309125E+03   -0.17053E-09   -0.33260E-13 23408   0.245E-10    0.684E-05
DAV:   5    -0.104332309125E+03    0.28103E-09   -0.38626E-13 23408   0.283E-10    0.684E-05
DAV:   6    -0.104332309125E+03    0.40745E-09   -0.90903E-13 23376   0.198E-10
   9 F= -.10433231E+03 E0= -.10433231E+03  d E =0.000000E+00
       N       E                     dE             d eps       ncg     rms          rms(c)
DAV:   1    -0.104332309125E+03   -0.38926E-09   -0.65026E-13 23360   0.250E-10    0.684E-05
DAV:   2    -0.104332309125E+03    0.65256E-09   -0.19920E-13 23360   0.420E-10    0.684E-05
DAV:   3    -0.104332309126E+03   -0.96134E-09   -0.74844E-13 23360   0.320E-10    0.684E-05
DAV:   4    -0.104332309125E+03    0.85720E-09   -0.39941E-13 23344   0.282E-10    0.684E-05
DAV:   5    -0.104332309125E+03   -0.23010E-09   -0.12245E-12 23360   0.238E-10    0.684E-05
DAV:   6    -0.104332309125E+03   -0.35016E-10   -0.10851E-12 23360   0.263E-10
  10 F= -.10433231E+03 E0= -.10433231E+03  d E =0.000000E+00
       N       E                     dE             d eps       ncg     rms          rms(c)
DAV:   1    -0.104332309125E+03    0.40927E-09   -0.48929E-14 23328   0.323E-10    0.684E-05
DAV:   2    -0.104332309126E+03   -0.83082E-09   -0.26827E-13 23312   0.395E-10    0.684E-05
DAV:   3    -0.104332309125E+03    0.57707E-09   -0.65706E-13 23312   0.421E-10    0.684E-05
DAV:   4    -0.104332309125E+03    0.13097E-09   -0.35233E-13 23312   0.243E-10    0.684E-05
DAV:   5    -0.104332309125E+03   -0.31378E-10   -0.14734E-13 23312   0.243E-10    0.684E-05
DAV:   6    -0.104332309125E+03   -0.28467E-09   -0.85482E-13 23312   0.248E-10
  11 F= -.10433231E+03 E0= -.10433231E+03  d E =0.000000E+00
       N       E                     dE             d eps       ncg     rms          rms(c)
DAV:   1    -0.104332309125E+03   -0.14870E-09   -0.60836E-13 23312   0.299E-10    0.684E-05
DAV:   2    -0.104332309125E+03   -0.48112E-09   -0.50128E-13 23312   0.210E-10    0.684E-05
DAV:   3    -0.104332309126E+03   -0.14188E-09   -0.59205E-13 23312   0.199E-10    0.684E-05
DAV:   4    -0.104332309126E+03   -0.10368E-09   -0.35661E-13 23312   0.164E-10    0.684E-05
DAV:   5    -0.104332309125E+03    0.80945E-09   -0.56323E-13 23312   0.177E-10    0.684E-05
DAV:   6    -0.104332309126E+03   -0.80263E-09   -0.47533E-13 23280   0.202E-10
  12 F= -.10433231E+03 E0= -.10433231E+03  d E =0.000000E+00
       N       E                     dE             d eps       ncg     rms          rms(c)
DAV:   1    -0.104332309126E+03   -0.85311E-09   -0.80686E-13 23264   0.247E-10    0.684E-05
DAV:   2    -0.104332309125E+03    0.11032E-08   -0.70096E-13 23264   0.447E-10    0.684E-05
DAV:   3    -0.104332309125E+03   -0.22374E-09   -0.81820E-13 23264   0.423E-10    0.684E-05
DAV:   4    -0.104332309125E+03    0.16689E-09   -0.10029E-12 23264   0.257E-10    0.684E-05
DAV:   5    -0.104332309126E+03   -0.11073E-08   -0.23683E-13 23264   0.196E-10    0.684E-05
DAV:   6    -0.104332309125E+03    0.85993E-09   -0.41893E-13 23264   0.305E-10
  13 F= -.10433231E+03 E0= -.10433231E+03  d E =0.000000E+00
       N       E                     dE             d eps       ncg     rms          rms(c)
DAV:   1    -0.104332309125E+03    0.59572E-09   -0.12339E-12 23264   0.246E-10    0.684E-05
DAV:   2    -0.104332309125E+03    0.33288E-09   -0.63165E-13 23264   0.214E-10    0.684E-05
DAV:   3    -0.104332309126E+03   -0.71668E-09   -0.79532E-13 23264   0.295E-10    0.684E-05
DAV:   4    -0.104332309125E+03    0.41837E-09   -0.96361E-13 23264   0.283E-10    0.684E-05
DAV:   5    -0.104332309125E+03   -0.62755E-10   -0.61114E-13 23264   0.239E-10    0.684E-05
DAV:   6    -0.104332309126E+03   -0.32924E-09   -0.54629E-13 23264   0.223E-10
  14 F= -.10433231E+03 E0= -.10433231E+03  d E =0.000000E+00
       N       E                     dE             d eps       ncg     rms          rms(c)
DAV:   1    -0.104332309126E+03   -0.28012E-09   -0.12696E-12 23264   0.175E-10    0.684E-05
DAV:   2    -0.104332309126E+03   -0.10459E-10   -0.14755E-12 23264   0.276E-10    0.684E-05
DAV:   3    -0.104332309126E+03   -0.16053E-09   -0.10022E-12 23264   0.296E-10    0.684E-05
DAV:   4    -0.104332309125E+03    0.44611E-09   -0.31438E-13 23264   0.222E-10    0.684E-05
DAV:   5    -0.104332309126E+03   -0.53979E-09   -0.12243E-12 23264   0.232E-10    0.684E-05
DAV:   6    -0.104332309126E+03   -0.91859E-10   -0.11382E-12 23264   0.184E-10
  15 F= -.10433231E+03 E0= -.10433231E+03  d E =0.000000E+00
       N       E                     dE             d eps       ncg     rms          rms(c)
DAV:   1    -0.104332309125E+03    0.39927E-09   -0.53897E-13 23264   0.254E-10    0.684E-05
DAV:   2    -0.104332309125E+03    0.30968E-09   -0.20081E-13 23264   0.194E-10    0.684E-05
DAV:   3    -0.104332309125E+03   -0.23783E-09   -0.52587E-15 23232   0.162E-10    0.684E-05
DAV:   4    -0.104332309125E+03    0.40973E-09   -0.84032E-13 23216   0.260E-10    0.684E-05
DAV:   5    -0.104332309126E+03   -0.71259E-09   -0.29527E-13 23216   0.263E-10    0.684E-05
DAV:   6    -0.104332309126E+03   -0.20009E-09   -0.11564E-12 23216   0.246E-10
  16 F= -.10433231E+03 E0= -.10433231E+03  d E =0.000000E+00
       N       E                     dE             d eps       ncg     rms          rms(c)
DAV:   1    -0.104332309125E+03    0.92905E-09   -0.13054E-12 23216   0.169E-10    0.684E-05
DAV:   2    -0.104332309125E+03   -0.36607E-09   -0.13919E-13 23216   0.519E-10    0.684E-05
DAV:   3    -0.104332309125E+03   -0.52751E-10   -0.30806E-13 23216   0.332E-10    0.684E-05
DAV:   4    -0.104332309126E+03   -0.44383E-09   -0.14385E-12 23216   0.199E-10    0.684E-05
DAV:   5    -0.104332309125E+03    0.62028E-09    0.41516E-13 23216   0.232E-10    0.684E-05
DAV:   6    -0.104332309125E+03   -0.49113E-09   -0.75342E-13 23216   0.286E-10
  17 F= -.10433231E+03 E0= -.10433231E+03  d E =0.000000E+00
       N       E                     dE             d eps       ncg     rms          rms(c)
DAV:   1    -0.104332309125E+03   -0.46066E-09   -0.92366E-13 23216   0.250E-10    0.684E-05
DAV:   2    -0.104332309126E+03   -0.51887E-09   -0.66305E-13 23216   0.250E-10    0.684E-05
DAV:   3    -0.104332309125E+03    0.61209E-09   -0.86808E-13 23216   0.265E-10    0.684E-05
DAV:   4    -0.104332309126E+03   -0.56025E-09   -0.90403E-13 23216   0.309E-10    0.684E-05
DAV:   5    -0.104332309126E+03    0.25329E-09   -0.71557E-13 23216   0.309E-10    0.684E-05
DAV:   6    -0.104332309125E+03    0.47794E-09   -0.65940E-13 23200   0.203E-10
  18 F= -.10433231E+03 E0= -.10433231E+03  d E =0.000000E+00
       N       E                     dE             d eps       ncg     rms          rms(c)
DAV:   1    -0.104332309125E+03    0.75670E-09   -0.57674E-13 23216   0.232E-10    0.684E-05
DAV:   2    -0.104332309126E+03   -0.97543E-09   -0.10861E-12 23200   0.390E-10    0.684E-05
DAV:   3    -0.104332309126E+03    0.10186E-09   -0.13272E-12 23216   0.368E-10    0.684E-05
DAV:   4    -0.104332309126E+03    0.34561E-10   -0.70061E-13 23216   0.260E-10    0.684E-05
DAV:   5    -0.104332309126E+03   -0.17826E-09   -0.99878E-13 23216   0.172E-10    0.684E-05
DAV:   6    -0.104332309126E+03    0.14279E-09   -0.13289E-12 23216   0.213E-10
  19 F= -.10433231E+03 E0= -.10433231E+03  d E =0.000000E+00
       N       E                     dE             d eps       ncg     rms          rms(c)
DAV:   1    -0.104332309125E+03    0.12378E-08   -0.13323E-12 23216   0.259E-10    0.684E-05
DAV:   2    -0.104332309126E+03   -0.11119E-08   -0.91554E-15 23216   0.426E-10    0.684E-05
DAV:   3    -0.104332309126E+03    0.19554E-10   -0.11121E-12 23216   0.369E-10    0.684E-05
DAV:   4    -0.104332309125E+03    0.69349E-09   -0.49529E-13 23216   0.234E-10    0.684E-05
DAV:   5    -0.104332309125E+03   -0.30059E-09   -0.80627E-13 23216   0.263E-10    0.684E-05
DAV:   6    -0.104332309125E+03    0.73396E-09   -0.94317E-13 23216   0.301E-10
  20 F= -.10433231E+03 E0= -.10433231E+03  d E =0.000000E+00
       N       E                     dE             d eps       ncg     rms          rms(c)
DAV:   1    -0.104332309126E+03   -0.23556E-09   -0.42418E-13 23216   0.271E-10    0.684E-05
DAV:   2    -0.104332309126E+03    0.81855E-10   -0.53856E-13 23216   0.370E-10    0.684E-05
DAV:   3    -0.104332309125E+03    0.11960E-09   -0.31511E-13 23216   0.302E-10    0.684E-05
DAV:   4    -0.104332309125E+03    0.44702E-09   -0.32621E-13 23216   0.301E-10    0.684E-05
DAV:   5    -0.104332309125E+03    0.38654E-10   -0.93569E-13 23216   0.296E-10    0.684E-05
DAV:   6    -0.104332309125E+03   -0.23510E-09   -0.98764E-13 23216   0.274E-10
  21 F= -.10433231E+03 E0= -.10433231E+03  d E =0.000000E+00
       N       E                     dE             d eps       ncg     rms          rms(c)
DAV:   1    -0.104332309126E+03   -0.91450E-09   -0.11122E-12 23216   0.227E-10    0.684E-05
DAV:   2    -0.104332309125E+03    0.84447E-09   -0.13157E-12 23216   0.415E-10    0.684E-05
DAV:   3    -0.104332309125E+03   -0.42155E-09   -0.61758E-13 23216   0.363E-10    0.684E-05
DAV:   4    -0.104332309125E+03    0.33560E-09   -0.67871E-13 23216   0.327E-10    0.684E-05
DAV:   5    -0.104332309126E+03   -0.45202E-09   -0.84223E-13 23216   0.275E-10    0.684E-05
DAV:   6    -0.104332309125E+03    0.68940E-09   -0.13229E-12 23216   0.191E-10
  22 F= -.10433231E+03 E0= -.10433231E+03  d E =0.000000E+00
       N       E                     dE             d eps       ncg     rms          rms(c)
DAV:   1    -0.104332309125E+03    0.33197E-09   -0.10174E-12 23216   0.209E-10    0.684E-05
DAV:   2    -0.104332309125E+03   -0.24738E-09   -0.81124E-13 23216   0.341E-10    0.684E-05
DAV:   3    -0.104332309125E+03    0.50431E-09   -0.43870E-13 23216   0.240E-10    0.684E-05
DAV:   4    -0.104332309126E+03   -0.75352E-09   -0.73388E-13 23216   0.203E-10    0.684E-05
DAV:   5    -0.104332309125E+03    0.74215E-09   -0.91214E-13 23216   0.226E-10    0.684E-05
DAV:   6    -0.104332309125E+03   -0.21191E-09   -0.90176E-13 23216   0.200E-10
  23 F= -.10433231E+03 E0= -.10433231E+03  d E =0.000000E+00
       N       E                     dE             d eps       ncg     rms          rms(c)
DAV:   1    -0.104332309125E+03   -0.17189E-09   -0.63910E-13 23184   0.158E-10    0.684E-05
DAV:   2    -0.104332309126E+03   -0.64028E-09   -0.57880E-13 23216   0.225E-10    0.684E-05
DAV:   3    -0.104332309125E+03    0.10491E-08   -0.63928E-13 23216   0.370E-10    0.684E-05
DAV:   4    -0.104332309125E+03   -0.32560E-09   -0.55251E-13 23216   0.338E-10    0.684E-05
DAV:   5    -0.104332309125E+03    0.13597E-09   -0.86063E-13 23216   0.191E-10    0.684E-05
DAV:   6    -0.104332309125E+03    0.16826E-09   -0.54556E-13 23216   0.191E-10
  24 F= -.10433231E+03 E0= -.10433231E+03  d E =0.000000E+00
       N       E                     dE             d eps       ncg     rms          rms(c)
DAV:   1    -0.104332309125E+03   -0.49113E-10   -0.66320E-13 23216   0.248E-10    0.684E-05
DAV:   2    -0.104332309125E+03   -0.47930E-09   -0.36721E-13 23216   0.285E-10    0.684E-05
DAV:   3    -0.104332309125E+03    0.46066E-09   -0.21121E-13 23216   0.216E-10    0.684E-05
DAV:   4    -0.104332309125E+03   -0.37835E-09   -0.72138E-13 23216   0.243E-10    0.684E-05
DAV:   5    -0.104332309125E+03   -0.90949E-10   -0.54914E-13 23216   0.248E-10    0.684E-05
DAV:   6    -0.104332309125E+03    0.67394E-09   -0.10487E-12 23216   0.300E-10
  25 F= -.10433231E+03 E0= -.10433231E+03  d E =0.000000E+00
       N       E                     dE             d eps       ncg     rms          rms(c)
DAV:   1    -0.104332309125E+03   -0.68212E-11   -0.43274E-13 23216   0.268E-10    0.684E-05
DAV:   2    -0.104332309125E+03    0.26648E-09   -0.13246E-12 23216   0.418E-10    0.684E-05
DAV:   3    -0.104332309126E+03   -0.62528E-09   -0.10101E-12 23216   0.320E-10    0.684E-05
DAV:   4    -0.104332309125E+03    0.80763E-09   -0.46142E-13 23216   0.237E-10    0.684E-05
DAV:   5    -0.104332309125E+03    0.28149E-09   -0.30589E-13 23216   0.262E-10    0.684E-05
DAV:   6    -0.104332309126E+03   -0.10582E-08   -0.83300E-13 23216   0.252E-10
  26 F= -.10433231E+03 E0= -.10433231E+03  d E =0.000000E+00
       N       E                     dE             d eps       ncg     rms          rms(c)
DAV:   1    -0.104332309125E+03   -0.33197E-10   -0.11060E-12 23216   0.307E-10    0.684E-05
DAV:   2    -0.104332309125E+03   -0.21373E-10   -0.52941E-13 23216   0.532E-10    0.684E-05
DAV:   3    -0.104332309125E+03   -0.47567E-09   -0.58866E-13 23216   0.300E-10    0.684E-05
DAV:   4    -0.104332309125E+03    0.42655E-09   -0.10546E-12 23216   0.227E-10    0.684E-05
DAV:   5    -0.104332309125E+03   -0.46202E-09   -0.31546E-13 23216   0.208E-10    0.684E-05
DAV:   6    -0.104332309126E+03   -0.28376E-09   -0.50236E-13 23216   0.199E-10
  27 F= -.10433231E+03 E0= -.10433231E+03  d E =0.000000E+00
       N       E                     dE             d eps       ncg     rms          rms(c)
DAV:   1    -0.104332309125E+03   -0.59572E-10   -0.86429E-13 23216   0.255E-10    0.684E-05
DAV:   2    -0.104332309126E+03   -0.28194E-09   -0.10143E-12 23216   0.349E-10    0.684E-05
DAV:   3    -0.104332309125E+03    0.38290E-09   -0.13636E-12 23216   0.353E-10    0.684E-05
DAV:   4    -0.104332309125E+03    0.24056E-09   -0.13325E-12 23216   0.286E-10    0.684E-05
DAV:   5    -0.104332309125E+03   -0.13006E-09   -0.30752E-14 23216   0.263E-10    0.684E-05
DAV:   6    -0.104332309125E+03    0.30923E-09   -0.92481E-13 23216   0.279E-10
  28 F= -.10433231E+03 E0= -.10433231E+03  d E =0.000000E+00
       N       E                     dE             d eps       ncg     rms          rms(c)
DAV:   1    -0.104332309125E+03   -0.22010E-09   -0.23275E-13 23216   0.231E-10    0.684E-05
DAV:   2    -0.104332309125E+03    0.15916E-10   -0.69567E-13 23216   0.327E-10    0.684E-05
DAV:   3    -0.104332309125E+03    0.43519E-09   -0.77362E-13 23216   0.259E-10    0.684E-05
DAV:   4    -0.104332309125E+03    0.15552E-09   -0.52407E-13 23216   0.231E-10    0.684E-05
DAV:   5    -0.104332309125E+03   -0.26466E-09   -0.85514E-13 23216   0.206E-10    0.684E-05
DAV:   6    -0.104332309126E+03   -0.66393E-09   -0.84559E-13 23216   0.255E-10
  29 F= -.10433231E+03 E0= -.10433231E+03  d E =0.000000E+00
       N       E                     dE             d eps       ncg     rms          rms(c)
DAV:   1    -0.104332309125E+03    0.10550E-09   -0.61424E-13 23216   0.248E-10    0.684E-05
DAV:   2    -0.104332309125E+03    0.18645E-09   -0.83071E-13 23216   0.399E-10    0.684E-05
DAV:   3    -0.104332309125E+03   -0.82764E-10   -0.81079E-13 23216   0.339E-10    0.684E-05
DAV:   4    -0.104332309125E+03   -0.23192E-10   -0.70076E-13 23216   0.323E-10    0.684E-05
DAV:   5    -0.104332309126E+03   -0.71304E-09   -0.13682E-12 23216   0.304E-10    0.684E-05
DAV:   6    -0.104332309125E+03    0.30514E-09   -0.80379E-13 23216   0.402E-10
  30 F= -.10433231E+03 E0= -.10433231E+03  d E =0.000000E+00
       N       E                     dE             d eps       ncg     rms          rms(c)
DAV:   1    -0.104332309126E+03   -0.18963E-09   -0.10994E-12 23216   0.421E-10    0.684E-05
DAV:   2    -0.104332309125E+03    0.92314E-09   -0.87625E-13 23216   0.464E-10    0.684E-05
DAV:   3    -0.104332309125E+03   -0.50841E-09   -0.59999E-13 23216   0.392E-10    0.684E-05
DAV:   4    -0.104332309125E+03    0.10641E-09   -0.94984E-13 23216   0.256E-10    0.684E-05
DAV:   5    -0.104332309125E+03    0.37426E-09   -0.63566E-13 23216   0.201E-10    0.684E-05
DAV:   6    -0.104332309125E+03   -0.66393E-09   -0.61881E-14 23216   0.167E-10
  31 F= -.10433231E+03 E0= -.10433231E+03  d E =0.000000E+00
       N       E                     dE             d eps       ncg     rms          rms(c)
DAV:   1    -0.104332309126E+03   -0.10837E-08   -0.33912E-13 23216   0.319E-10    0.684E-05
DAV:   2    -0.104332309126E+03    0.11460E-09   -0.88885E-13 23216   0.497E-10    0.684E-05
DAV:   3    -0.104332309125E+03    0.85447E-09   -0.39393E-13 23216   0.311E-10    0.684E-05
DAV:   4    -0.104332309126E+03   -0.98680E-09   -0.74013E-13 23216   0.327E-10    0.684E-05
DAV:   5    -0.104332309125E+03    0.99089E-09   -0.18332E-12 23216   0.350E-10    0.684E-05
DAV:   6    -0.104332309125E+03   -0.39745E-09   -0.99814E-13 23216   0.410E-10
  32 F= -.10433231E+03 E0= -.10433231E+03  d E =0.000000E+00
       N       E                     dE             d eps       ncg     rms          rms(c)
DAV:   1    -0.104332309126E+03   -0.91268E-09   -0.11475E-12 23216   0.365E-10    0.684E-05
DAV:   2    -0.104332309125E+03    0.78899E-09   -0.11022E-12 23216   0.386E-10    0.684E-05
DAV:   3    -0.104332309125E+03   -0.32878E-09   -0.10799E-13 23216   0.376E-10    0.684E-05
DAV:   4    -0.104332309126E+03   -0.24602E-09   -0.12178E-12 23216   0.217E-10    0.684E-05
DAV:   5    -0.104332309125E+03    0.88039E-09   -0.50693E-13 23216   0.195E-10    0.684E-05
DAV:   6    -0.104332309125E+03   -0.63665E-10   -0.40736E-13 23216   0.305E-10
  33 F= -.10433231E+03 E0= -.10433231E+03  d E =0.000000E+00
       N       E                     dE             d eps       ncg     rms          rms(c)
DAV:   1    -0.104332309126E+03   -0.99089E-09   -0.41899E-13 23216   0.233E-10    0.684E-05
DAV:   2    -0.104332309125E+03    0.55888E-09   -0.10955E-12 23216   0.341E-10    0.684E-05
DAV:   3    -0.104332309126E+03   -0.64483E-09   -0.11470E-12 23216   0.457E-10    0.684E-05
DAV:   4    -0.104332309126E+03    0.00000E+00   -0.77304E-13 23216   0.444E-10    0.684E-05
DAV:   5    -0.104332309125E+03    0.60345E-09   -0.39586E-13 23216   0.163E-10    0.684E-05
DAV:   6    -0.104332309125E+03    0.21373E-10   -0.81869E-13 23216   0.219E-10
  34 F= -.10433231E+03 E0= -.10433231E+03  d E =0.000000E+00
       N       E                     dE             d eps       ncg     rms          rms(c)
DAV:   1    -0.104332309125E+03    0.49567E-10   -0.43074E-13 23216   0.137E-10    0.684E-05
DAV:   2    -0.104332309126E+03   -0.45657E-09   -0.10502E-12 23216   0.362E-10    0.684E-05
DAV:   3    -0.104332309125E+03    0.37198E-09   -0.11221E-12 23216   0.404E-10    0.684E-05
DAV:   4    -0.104332309125E+03    0.10368E-09   -0.47491E-13 23216   0.278E-10    0.684E-05
DAV:   5    -0.104332309125E+03    0.21373E-09   -0.71094E-13 23216   0.302E-10    0.684E-05
DAV:   6    -0.104332309126E+03   -0.87311E-09   -0.58994E-13 23216   0.340E-10
  35 F= -.10433231E+03 E0= -.10433231E+03  d E =0.000000E+00
       N       E                     dE             d eps       ncg     rms          rms(c)
DAV:   1    -0.104332309125E+03    0.26375E-10   -0.64983E-13 23216   0.245E-10    0.684E-05
DAV:   2    -0.104332309125E+03   -0.38199E-10   -0.82696E-13 23216   0.341E-10    0.684E-05
DAV:   3    -0.104332309125E+03   -0.29013E-09   -0.13422E-12 23216   0.323E-10    0.684E-05
DAV:   4    -0.104332309125E+03   -0.23465E-09   -0.43016E-13 23216   0.305E-10    0.684E-05
DAV:   5    -0.104332309125E+03    0.18008E-09   -0.82630E-13 23216   0.309E-10    0.684E-05
DAV:   6    -0.104332309126E+03   -0.43065E-09   -0.66746E-13 23216   0.272E-10
  36 F= -.10433231E+03 E0= -.10433231E+03  d E =0.000000E+00
       N       E                     dE             d eps       ncg     rms          rms(c)
DAV:   1    -0.104332309125E+03    0.53706E-09   -0.11758E-12 23216   0.297E-10    0.684E-05
DAV:   2    -0.104332309126E+03   -0.78535E-09   -0.79011E-13 23216   0.473E-10    0.684E-05
DAV:   3    -0.104332309125E+03    0.26012E-09   -0.12079E-12 23216   0.383E-10    0.684E-05
DAV:   4    -0.104332309125E+03   -0.17553E-09   -0.47217E-13 23216   0.241E-10    0.684E-05
DAV:   5    -0.104332309125E+03    0.47294E-10   -0.30627E-13 23216   0.210E-10    0.684E-05
DAV:   6    -0.104332309125E+03    0.57207E-09   -0.75723E-13 23216   0.196E-10
  37 F= -.10433231E+03 E0= -.10433231E+03  d E =0.000000E+00
       N       E                     dE             d eps       ncg     rms          rms(c)
DAV:   1    -0.104332309125E+03    0.63801E-09   -0.71263E-13 23216   0.239E-10    0.684E-05
DAV:   2    -0.104332309125E+03   -0.64483E-09   -0.53471E-14 23216   0.313E-10    0.684E-05
DAV:   3    -0.104332309125E+03    0.10687E-09   -0.81121E-13 23216   0.294E-10    0.684E-05
DAV:   4    -0.104332309125E+03    0.24920E-09   -0.84883E-13 23216   0.286E-10    0.684E-05
DAV:   5    -0.104332309125E+03   -0.11596E-09    0.11108E-13 23216   0.225E-10    0.684E-05
DAV:   6    -0.104332309125E+03    0.44065E-09   -0.14302E-13 23216   0.370E-10
  38 F= -.10433231E+03 E0= -.10433231E+03  d E =0.000000E+00
       N       E                     dE             d eps       ncg     rms          rms(c)
DAV:   1    -0.104332309125E+03   -0.28967E-09   -0.54283E-13 23216   0.176E-10    0.684E-05
DAV:   2    -0.104332309125E+03    0.40018E-09   -0.10957E-12 23216   0.326E-10    0.684E-05
DAV:   3    -0.104332309125E+03   -0.31014E-09   -0.93287E-13 23216   0.341E-10    0.684E-05
DAV:   4    -0.104332309125E+03    0.65438E-09   -0.72885E-13 23216   0.241E-10    0.684E-05
DAV:   5    -0.104332309125E+03   -0.74942E-09   -0.64635E-13 23216   0.216E-10    0.684E-05
DAV:   6    -0.104332309125E+03    0.61618E-09   -0.83825E-13 23216   0.243E-10
  39 F= -.10433231E+03 E0= -.10433231E+03  d E =0.000000E+00
       N       E                     dE             d eps       ncg     rms          rms(c)
DAV:   1    -0.104332309125E+03   -0.23192E-10   -0.55625E-13 23200   0.227E-10    0.684E-05
DAV:   2    -0.104332309125E+03    0.66484E-09   -0.10879E-12 23216   0.278E-10    0.684E-05
DAV:   3    -0.104332309126E+03   -0.80308E-09   -0.37396E-13 23216   0.261E-10    0.684E-05
DAV:   4    -0.104332309125E+03    0.87675E-09   -0.11008E-12 23216   0.281E-10    0.684E-05
DAV:   5    -0.104332309125E+03   -0.25921E-10   -0.72268E-13 23216   0.360E-10    0.684E-05
DAV:   6    -0.104332309125E+03    0.65484E-10   -0.63902E-13 23216   0.243E-10
  40 F= -.10433231E+03 E0= -.10433231E+03  d E =0.000000E+00
       N       E                     dE             d eps       ncg     rms          rms(c)
DAV:   1    -0.104332309126E+03   -0.88448E-09   -0.54102E-13 23216   0.169E-10    0.684E-05
DAV:   2    -0.104332309126E+03    0.80036E-10   -0.80858E-13 23216   0.349E-10    0.684E-05
DAV:   3    -0.104332309125E+03    0.71577E-09   -0.77672E-13 23216   0.295E-10    0.684E-05
DAV:   4    -0.104332309125E+03   -0.24465E-09   -0.28144E-13 23216   0.322E-10    0.684E-05
DAV:   5    -0.104332309125E+03   -0.28058E-09   -0.89747E-13 23216   0.189E-10    0.684E-05
DAV:   6    -0.104332309125E+03   -0.30468E-10   -0.11106E-12 23216   0.271E-10
  41 F= -.10433231E+03 E0= -.10433231E+03  d E =0.000000E+00
       N       E                     dE             d eps       ncg     rms          rms(c)
DAV:   1    -0.104332309126E+03   -0.46521E-09   -0.14777E-12 23216   0.169E-10    0.684E-05
DAV:   2    -0.104332309125E+03    0.86266E-09   -0.95534E-13 23216   0.402E-10    0.684E-05
DAV:   3    -0.104332309125E+03    0.20782E-09   -0.56751E-14 23216   0.328E-10    0.684E-05
DAV:   4    -0.104332309125E+03   -0.86402E-10    0.14065E-14 23216   0.319E-10    0.684E-05
DAV:   5    -0.104332309125E+03    0.16826E-10   -0.56374E-13 23216   0.176E-10    0.684E-05
DAV:   6    -0.104332309126E+03   -0.77534E-09   -0.42614E-13 23216   0.213E-10
  42 F= -.10433231E+03 E0= -.10433231E+03  d E =0.000000E+00
       N       E                     dE             d eps       ncg     rms          rms(c)
DAV:   1    -0.104332309126E+03   -0.95451E-09   -0.98474E-13 23216   0.325E-10    0.684E-05
DAV:   2    -0.104332309125E+03    0.40882E-09   -0.10713E-12 23216   0.322E-10    0.684E-05
DAV:   3    -0.104332309125E+03    0.60800E-09   -0.10709E-12 23216   0.286E-10    0.684E-05
DAV:   4    -0.104332309125E+03   -0.52341E-09   -0.90070E-13 23216   0.235E-10    0.684E-05
DAV:   5    -0.104332309125E+03    0.41473E-09   -0.28730E-13 23216   0.304E-10    0.684E-05
DAV:   6    -0.104332309125E+03   -0.53251E-09   -0.11237E-12 23216   0.250E-10
  43 F= -.10433231E+03 E0= -.10433231E+03  d E =0.000000E+00
       N       E                     dE             d eps       ncg     rms          rms(c)
DAV:   1    -0.104332309125E+03   -0.37517E-09   -0.13834E-12 23216   0.186E-10    0.684E-05
DAV:   2    -0.104332309125E+03    0.10368E-09   -0.12234E-12 23216   0.267E-10    0.684E-05
DAV:   3    -0.104332309125E+03   -0.20100E-09   -0.11831E-12 23216   0.317E-10    0.684E-05
DAV:   4    -0.104332309125E+03    0.00000E+00   -0.52769E-13 23216   0.180E-10    0.684E-05
DAV:   5    -0.104332309125E+03    0.39063E-09   -0.44438E-13 23216   0.245E-10    0.684E-05
DAV:   6    -0.104332309125E+03   -0.22874E-09   -0.67121E-13 23216   0.248E-10
  44 F= -.10433231E+03 E0= -.10433231E+03  d E =0.000000E+00
       N       E                     dE             d eps       ncg     rms          rms(c)
DAV:   1    -0.104332309125E+03    0.25511E-09   -0.70143E-13 23216   0.249E-10    0.684E-05
DAV:   2    -0.104332309125E+03   -0.58253E-09   -0.47107E-13 23216   0.483E-10    0.684E-05
DAV:   3    -0.104332309125E+03   -0.17690E-09   -0.66894E-13 23216   0.406E-10    0.684E-05
DAV:   4    -0.104332309125E+03    0.40200E-09   -0.50332E-13 23216   0.246E-10    0.684E-05
DAV:   5    -0.104332309125E+03   -0.41382E-09   -0.83323E-13 23216   0.243E-10    0.684E-05
DAV:   6    -0.104332309125E+03    0.53478E-09   -0.71006E-13 23216   0.272E-10
  45 F= -.10433231E+03 E0= -.10433231E+03  d E =0.000000E+00
       N       E                     dE             d eps       ncg     rms          rms(c)
DAV:   1    -0.104332309125E+03    0.18917E-09   -0.56239E-13 23216   0.437E-10    0.684E-05
DAV:   2    -0.104332309125E+03    0.94587E-10   -0.56451E-13 23216   0.301E-10    0.684E-05
DAV:   3    -0.104332309125E+03   -0.10186E-09   -0.76506E-13 23216   0.221E-10    0.684E-05
DAV:   4    -0.104332309125E+03    0.50431E-09   -0.50743E-13 23216   0.188E-10    0.684E-05
DAV:   5    -0.104332309125E+03   -0.73669E-10   -0.52843E-13 23216   0.232E-10    0.684E-05
DAV:   6    -0.104332309126E+03   -0.88721E-09   -0.42764E-13 23216   0.187E-10
  46 F= -.10433231E+03 E0= -.10433231E+03  d E =0.000000E+00
       N       E                     dE             d eps       ncg     rms          rms(c)
DAV:   1    -0.104332309126E+03   -0.66848E-09   -0.61561E-13 23216   0.260E-10    0.684E-05
DAV:   2    -0.104332309125E+03    0.49158E-09   -0.11347E-12 23216   0.289E-10    0.684E-05
DAV:   3    -0.104332309125E+03   -0.68667E-10   -0.49079E-13 23216   0.390E-10    0.684E-05
DAV:   4    -0.104332309125E+03   -0.19691E-09   -0.11276E-12 23216   0.256E-10    0.684E-05
DAV:   5    -0.104332309126E+03   -0.45611E-09   -0.15846E-12 23216   0.232E-10    0.684E-05
DAV:   6    -0.104332309125E+03    0.63164E-09   -0.93642E-13 23216   0.305E-10
  47 F= -.10433231E+03 E0= -.10433231E+03  d E =0.000000E+00
       N       E                     dE             d eps       ncg     rms          rms(c)
DAV:   1    -0.104332309125E+03    0.84356E-09   -0.75281E-13 23216   0.275E-10    0.684E-05
DAV:   2    -0.104332309125E+03    0.21646E-09   -0.48282E-13 23216   0.381E-10    0.684E-05
DAV:   3    -0.104332309125E+03   -0.70031E-09   -0.12796E-12 23216   0.296E-10    0.684E-05
DAV:   4    -0.104332309125E+03    0.74670E-09   -0.73494E-13 23216   0.303E-10    0.684E-05
DAV:   5    -0.104332309125E+03   -0.81127E-09   -0.52540E-13 23216   0.233E-10    0.684E-05
DAV:   6    -0.104332309125E+03    0.82855E-09   -0.10877E-12 23216   0.362E-10
  48 F= -.10433231E+03 E0= -.10433231E+03  d E =0.000000E+00
       N       E                     dE             d eps       ncg     rms          rms(c)
DAV:   1    -0.104332309126E+03   -0.33651E-09   -0.33182E-13 23216   0.248E-10    0.684E-05
DAV:   2    -0.104332309125E+03    0.40836E-09   -0.33594E-13 23216   0.548E-10    0.684E-05
DAV:   3    -0.104332309125E+03    0.29559E-09   -0.45732E-13 23216   0.360E-10    0.684E-05
DAV:   4    -0.104332309126E+03   -0.45338E-09   -0.41348E-13 23216   0.284E-10    0.684E-05
DAV:   5    -0.104332309125E+03    0.67075E-09   -0.78621E-13 23216   0.244E-10    0.684E-05
DAV:   6    -0.104332309126E+03   -0.85402E-09   -0.57984E-13 23216   0.329E-10
  49 F= -.10433231E+03 E0= -.10433231E+03  d E =0.000000E+00
       N       E                     dE             d eps       ncg     rms          rms(c)
DAV:   1    -0.104332309125E+03    0.27740E-10   -0.87813E-13 23216   0.299E-10    0.684E-05
DAV:   2    -0.104332309125E+03    0.41382E-10   -0.10405E-12 23216   0.406E-10    0.684E-05
DAV:   3    -0.104332309126E+03   -0.90859E-09   -0.10595E-12 23216   0.315E-10    0.684E-05
DAV:   4    -0.104332309125E+03    0.37244E-09   -0.10422E-12 23216   0.392E-10    0.684E-05
DAV:   5    -0.104332309125E+03    0.33697E-09   -0.13514E-12 23216   0.230E-10    0.684E-05
DAV:   6    -0.104332309125E+03    0.32878E-09   -0.48294E-13 23216   0.230E-10
  50 F= -.10433231E+03 E0= -.10433231E+03  d E =0.000000E+00
       N       E                     dE             d eps       ncg     rms          rms(c)
DAV:   1    -0.104332309125E+03   -0.39245E-09    0.37834E-14 23216   0.302E-10    0.684E-05
DAV:   2    -0.104332309125E+03    0.64483E-09   -0.54358E-13 23216   0.407E-10    0.684E-05
DAV:   3    -0.104332309126E+03   -0.90267E-09   -0.64671E-13 23216   0.296E-10    0.684E-05
DAV:   4    -0.104332309125E+03    0.74942E-09   -0.96497E-13 23216   0.241E-10    0.684E-05
DAV:   5    -0.104332309125E+03   -0.42110E-09   -0.98368E-13 23216   0.201E-10    0.684E-05
DAV:   6    -0.104332309125E+03    0.12733E-09   -0.53675E-13 23216   0.143E-10
  51 F= -.10433231E+03 E0= -.10433231E+03  d E =0.000000E+00
       N       E                     dE             d eps       ncg     rms          rms(c)
DAV:   1    -0.104332309126E+03   -0.14461E-09   -0.57716E-13 23216   0.269E-10    0.684E-05
DAV:   2    -0.104332309125E+03    0.25921E-09   -0.92089E-13 23216   0.323E-10    0.684E-05
DAV:   3    -0.104332309126E+03   -0.44611E-09   -0.33055E-13 23216   0.355E-10    0.684E-05
DAV:   4    -0.104332309125E+03    0.23829E-09   -0.15308E-12 23216   0.216E-10    0.684E-05
DAV:   5    -0.104332309126E+03   -0.20464E-09   -0.11714E-12 23216   0.230E-10    0.684E-05
DAV:   6    -0.104332309125E+03    0.66530E-09   -0.14072E-12 23216   0.248E-10
  52 F= -.10433231E+03 E0= -.10433231E+03  d E =0.000000E+00
       N       E                     dE             d eps       ncg     rms          rms(c)
DAV:   1    -0.104332309125E+03    0.72441E-09   -0.31348E-13 23216   0.246E-10    0.684E-05
DAV:   2    -0.104332309125E+03   -0.16689E-09   -0.95617E-13 23216   0.445E-10    0.684E-05
DAV:   3    -0.104332309125E+03   -0.11778E-09   -0.79959E-13 23216   0.334E-10    0.684E-05
DAV:   4    -0.104332309126E+03   -0.42928E-09   -0.11940E-12 23200   0.400E-10    0.684E-05
DAV:   5    -0.104332309125E+03    0.86220E-09   -0.66456E-13 23216   0.259E-10    0.684E-05
DAV:   6    -0.104332309125E+03   -0.35834E-09   -0.99510E-13 23216   0.256E-10
  53 F= -.10433231E+03 E0= -.10433231E+03  d E =0.000000E+00
       N       E                     dE             d eps       ncg     rms          rms(c)
DAV:   1    -0.104332309126E+03   -0.72032E-09   -0.60487E-13 23216   0.236E-10    0.684E-05
DAV:   2    -0.104332309126E+03   -0.17735E-09   -0.88589E-13 23216   0.316E-10    0.684E-05
DAV:   3    -0.104332309125E+03    0.26739E-09   -0.59032E-13 23216   0.276E-10    0.684E-05
DAV:   4    -0.104332309126E+03   -0.16416E-09   -0.99960E-13 23216   0.218E-10    0.684E-05
DAV:   5    -0.104332309125E+03    0.34697E-09   -0.45935E-13 23216   0.151E-10    0.684E-05
DAV:   6    -0.104332309126E+03   -0.64847E-09   -0.78359E-13 23216   0.259E-10
  54 F= -.10433231E+03 E0= -.10433231E+03  d E =0.000000E+00
       N       E                     dE             d eps       ncg     rms          rms(c)
DAV:   1    -0.104332309125E+03   -0.13461E-09   -0.68488E-13 23216   0.202E-10    0.684E-05
DAV:   2    -0.104332309125E+03    0.27012E-09   -0.78690E-13 23216   0.359E-10    0.684E-05
DAV:   3    -0.104332309126E+03   -0.52660E-09   -0.77253E-13 23216   0.316E-10    0.684E-05
DAV:   4    -0.104332309125E+03    0.49567E-09   -0.66341E-13 23216   0.203E-10    0.684E-05
DAV:   5    -0.104332309126E+03   -0.66666E-09   -0.42325E-13 23216   0.355E-10    0.684E-05
DAV:   6    -0.104332309125E+03    0.84583E-09   -0.38967E-13 23216   0.307E-10
  55 F= -.10433231E+03 E0= -.10433231E+03  d E =0.000000E+00
       N       E                     dE             d eps       ncg     rms          rms(c)
DAV:   1    -0.104332309125E+03    0.39972E-09   -0.19655E-13 23216   0.405E-10    0.684E-05
DAV:   2    -0.104332309126E+03   -0.22874E-09   -0.73730E-13 23216   0.392E-10    0.684E-05
DAV:   3    -0.104332309125E+03    0.66393E-09   -0.83032E-13 23216   0.193E-10    0.684E-05
DAV:   4    -0.104332309126E+03   -0.83401E-09   -0.97094E-13 23184   0.247E-10    0.684E-05
DAV:   5    -0.104332309125E+03    0.63847E-09   -0.13552E-12 23168   0.289E-10    0.684E-05
DAV:   6    -0.104332309125E+03    0.43201E-09   -0.97421E-13 23168   0.236E-10
  56 F= -.10433231E+03 E0= -.10433231E+03  d E =0.000000E+00
       N       E                     dE             d eps       ncg     rms          rms(c)
DAV:   1    -0.104332309126E+03   -0.69258E-09   -0.10794E-12 23168   0.275E-10    0.684E-05
DAV:   2    -0.104332309126E+03    0.17235E-09   -0.14025E-12 23168   0.353E-10    0.684E-05
DAV:   3    -0.104332309125E+03    0.59936E-09   -0.54159E-13 23168   0.257E-10    0.684E-05
DAV:   4    -0.104332309126E+03   -0.65302E-09   -0.48533E-14 23168   0.228E-10    0.684E-05
DAV:   5    -0.104332309125E+03    0.54388E-09   -0.13968E-12 23168   0.224E-10    0.684E-05
DAV:   6    -0.104332309125E+03    0.19190E-09   -0.66365E-13 23168   0.298E-10
  57 F= -.10433231E+03 E0= -.10433231E+03  d E =0.000000E+00
       N       E                     dE             d eps       ncg     rms          rms(c)
DAV:   1    -0.104332309125E+03    0.70031E-10   -0.56942E-13 23168   0.254E-10    0.684E-05
DAV:   2    -0.104332309125E+03   -0.19281E-09   -0.38878E-13 23168   0.409E-10    0.684E-05
DAV:   3    -0.104332309126E+03   -0.29286E-09   -0.44468E-13 23168   0.172E-10    0.684E-05
DAV:   4    -0.104332309125E+03    0.91995E-09   -0.26367E-13 23168   0.186E-10    0.684E-05
DAV:   5    -0.104332309125E+03   -0.53387E-09   -0.34637E-13 23168   0.290E-10    0.684E-05
DAV:   6    -0.104332309125E+03    0.45611E-09   -0.78032E-13 23168   0.209E-10
  58 F= -.10433231E+03 E0= -.10433231E+03  d E =0.000000E+00
       N       E                     dE             d eps       ncg     rms          rms(c)
DAV:   1    -0.104332309126E+03   -0.48885E-09   -0.14846E-13 23168   0.215E-10    0.684E-05
DAV:   2    -0.104332309125E+03    0.73305E-09   -0.14769E-12 23168   0.378E-10    0.684E-05
DAV:   3    -0.104332309126E+03   -0.76307E-09   -0.70470E-13 23168   0.335E-10    0.684E-05
DAV:   4    -0.104332309125E+03    0.30923E-09   -0.95109E-13 23168   0.292E-10    0.684E-05
DAV:   5    -0.104332309126E+03   -0.15643E-09   -0.85501E-13 23168   0.264E-10    0.684E-05
DAV:   6    -0.104332309125E+03    0.87584E-09   -0.94031E-13 23168   0.238E-10
  59 F= -.10433231E+03 E0= -.10433231E+03  d E =0.000000E+00
       N       E                     dE             d eps       ncg     rms          rms(c)
DAV:   1    -0.104332309125E+03    0.84083E-09   -0.12770E-13 23168   0.259E-10    0.684E-05
DAV:   2    -0.104332309125E+03   -0.39881E-09   -0.70601E-13 23168   0.505E-10    0.684E-05
DAV:   3    -0.104332309125E+03    0.17553E-09   -0.46639E-13 23168   0.336E-10    0.684E-05
DAV:   4    -0.104332309126E+03   -0.71577E-09   -0.52078E-13 23168   0.195E-10    0.684E-05
DAV:   5    -0.104332309125E+03    0.62755E-09   -0.25301E-13 23168   0.274E-10    0.684E-05
DAV:   6    -0.104332309125E+03   -0.30604E-09   -0.25444E-14 23168   0.263E-10
  60 F= -.10433231E+03 E0= -.10433231E+03  d E =0.000000E+00
       N       E                     dE             d eps       ncg     rms          rms(c)
DAV:   1    -0.104332309125E+03    0.11596E-09   -0.90598E-13 23168   0.250E-10    0.684E-05
DAV:   2    -0.104332309125E+03   -0.24238E-09   -0.45537E-13 23168   0.264E-10    0.684E-05
DAV:   3    -0.104332309126E+03   -0.49431E-09   -0.10368E-12 23168   0.276E-10    0.684E-05
DAV:   4    -0.104332309125E+03    0.92859E-09   -0.56373E-13 23168   0.265E-10    0.684E-05
DAV:   5    -0.104332309126E+03   -0.96907E-09   -0.89051E-13 23168   0.393E-10    0.684E-05
DAV:   6    -0.104332309125E+03    0.53888E-09    0.51052E-14 23168   0.330E-10
  61 F= -.10433231E+03 E0= -.10433231E+03  d E =0.000000E+00
       N       E                     dE             d eps       ncg     rms          rms(c)
DAV:   1    -0.104332309126E+03    0.24556E-10   -0.70159E-13 23168   0.260E-10    0.684E-05
DAV:   2    -0.104332309126E+03    0.18281E-09   -0.11661E-12 23168   0.331E-10    0.684E-05
DAV:   3    -0.104332309125E+03    0.60572E-09   -0.69328E-13 23168   0.259E-10    0.684E-05
DAV:   4    -0.104332309125E+03   -0.39563E-09   -0.13011E-12 23168   0.272E-10    0.684E-05
DAV:   5    -0.104332309125E+03    0.27376E-09   -0.71957E-13 23168   0.180E-10    0.684E-05
DAV:   6    -0.104332309125E+03    0.10914E-10   -0.73020E-13 23168   0.290E-10
  62 F= -.10433231E+03 E0= -.10433231E+03  d E =0.000000E+00
       N       E                     dE             d eps       ncg     rms          rms(c)
DAV:   1    -0.104332309126E+03   -0.78398E-09   -0.67518E-13 23168   0.271E-10    0.684E-05
DAV:   2    -0.104332309125E+03    0.72396E-09   -0.10751E-12 23168   0.423E-10    0.684E-05
DAV:   3    -0.104332309126E+03   -0.84265E-09   -0.20208E-13 23168   0.295E-10    0.684E-05
DAV:   4    -0.104332309125E+03    0.11264E-08   -0.14503E-12 23168   0.309E-10    0.684E-05
DAV:   5    -0.104332309126E+03   -0.81764E-09   -0.31523E-13 23168   0.257E-10    0.684E-05
DAV:   6    -0.104332309125E+03    0.20509E-09   -0.55202E-13 23168   0.362E-10
  63 F= -.10433231E+03 E0= -.10433231E+03  d E =0.000000E+00
       N       E                     dE             d eps       ncg     rms          rms(c)
DAV:   1    -0.104332309125E+03    0.29559E-09   -0.78312E-13 23168   0.179E-10    0.684E-05
DAV:   2    -0.104332309125E+03    0.85493E-10   -0.10790E-12 23168   0.262E-10    0.684E-05
DAV:   3    -0.104332309125E+03   -0.85947E-10   -0.36301E-13 23168   0.229E-10    0.684E-05
DAV:   4    -0.104332309125E+03    0.27876E-09   -0.25157E-14 23168   0.213E-10    0.684E-05
DAV:   5    -0.104332309125E+03    0.18827E-09   -0.63252E-13 23168   0.285E-10    0.684E-05
DAV:   6    -0.104332309126E+03   -0.65938E-09   -0.63689E-13 23168   0.331E-10
  64 F= -.10433231E+03 E0= -.10433231E+03  d E =0.000000E+00
       N       E                     dE             d eps       ncg     rms          rms(c)
DAV:   1    -0.104332309125E+03   -0.49022E-09   -0.17916E-13 23168   0.321E-10    0.684E-05
DAV:   2    -0.104332309125E+03    0.13370E-09   -0.20658E-13 23168   0.205E-10    0.684E-05
DAV:   3    -0.104332309126E+03   -0.57526E-09   -0.14995E-12 23168   0.194E-10    0.684E-05
DAV:   4    -0.104332309126E+03   -0.19554E-10   -0.13725E-12 23168   0.222E-10    0.684E-05
DAV:   5    -0.104332309125E+03    0.10941E-08   -0.11878E-12 23168   0.218E-10    0.684E-05
DAV:   6    -0.104332309126E+03   -0.85811E-09   -0.66948E-13 23168   0.345E-10
  65 F= -.10433231E+03 E0= -.10433231E+03  d E =0.000000E+00
       N       E                     dE             d eps       ncg     rms          rms(c)
DAV:   1    -0.104332309125E+03   -0.53160E-09   -0.51412E-13 23168   0.226E-10    0.684E-05
DAV:   2    -0.104332309126E+03   -0.43474E-09   -0.12154E-12 23168   0.185E-10    0.684E-05
DAV:   3    -0.104332309125E+03    0.37335E-09   -0.55768E-13 23168   0.200E-10    0.684E-05
DAV:   4    -0.104332309125E+03    0.58844E-09   -0.85138E-13 23168   0.184E-10    0.684E-05
DAV:   5    -0.104332309125E+03   -0.90949E-12   -0.50635E-13 23168   0.264E-10    0.684E-05
DAV:   6    -0.104332309125E+03   -0.73123E-09   -0.11672E-12 23168   0.262E-10
  66 F= -.10433231E+03 E0= -.10433231E+03  d E =0.000000E+00
       N       E                     dE             d eps       ncg     rms          rms(c)
DAV:   1    -0.104332309125E+03   -0.49977E-09   -0.11561E-12 23168   0.286E-10    0.684E-05
DAV:   2    -0.104332309125E+03    0.56616E-09   -0.66066E-13 23168   0.331E-10    0.684E-05
DAV:   3    -0.104332309125E+03   -0.25557E-09   -0.56041E-13 23168   0.259E-10    0.684E-05
DAV:   4    -0.104332309125E+03   -0.39290E-09   -0.35642E-13 23168   0.234E-10    0.684E-05
DAV:   5    -0.104332309126E+03   -0.28376E-09   -0.92414E-13 23168   0.436E-10    0.684E-05
DAV:   6    -0.104332309125E+03    0.48567E-09   -0.91574E-13 23168   0.235E-10
  67 F= -.10433231E+03 E0= -.10433231E+03  d E =0.000000E+00
       N       E                     dE             d eps       ncg     rms          rms(c)
DAV:   1    -0.104332309126E+03   -0.29104E-10   -0.92817E-13 23168   0.325E-10    0.684E-05
DAV:   2    -0.104332309125E+03    0.28103E-09   -0.87366E-13 23168   0.301E-10    0.684E-05
DAV:   3    -0.104332309125E+03   -0.14325E-09   -0.60706E-13 23168   0.309E-10    0.684E-05
DAV:   4    -0.104332309125E+03    0.35334E-09   -0.92566E-13 23168   0.270E-10    0.684E-05
DAV:   5    -0.104332309126E+03   -0.50795E-09   -0.10711E-12 23168   0.342E-10    0.684E-05
DAV:   6    -0.104332309125E+03    0.91177E-09   -0.15277E-12 23168   0.212E-10
  68 F= -.10433231E+03 E0= -.10433231E+03  d E =0.000000E+00
       N       E                     dE             d eps       ncg     rms          rms(c)
DAV:   1    -0.104332309125E+03    0.31696E-09   -0.48784E-13 23168   0.264E-10    0.684E-05
DAV:   2    -0.104332309125E+03    0.40836E-09   -0.89491E-13 23168   0.226E-10    0.684E-05
DAV:   3    -0.104332309125E+03   -0.24193E-09   -0.44551E-13 23168   0.243E-10    0.684E-05
DAV:   4    -0.104332309125E+03    0.40927E-09   -0.60714E-13 23168   0.232E-10    0.684E-05
DAV:   5    -0.104332309125E+03    0.68212E-10   -0.37513E-13 23168   0.212E-10    0.684E-05
DAV:   6    -0.104332309126E+03   -0.95224E-09   -0.28798E-13 23168   0.191E-10
  69 F= -.10433231E+03 E0= -.10433231E+03  d E =0.000000E+00
       N       E                     dE             d eps       ncg     rms          rms(c)
DAV:   1    -0.104332309126E+03   -0.10468E-08   -0.13443E-12 23168   0.354E-10    0.684E-05
DAV:   2    -0.104332309125E+03    0.50568E-09   -0.84007E-13 23168   0.287E-10    0.684E-05
DAV:   3    -0.104332309125E+03    0.48476E-09   -0.33254E-13 23168   0.343E-10    0.684E-05
DAV:   4    -0.104332309125E+03   -0.77489E-09   -0.39487E-13 23168   0.241E-10    0.684E-05
DAV:   5    -0.104332309125E+03    0.13915E-09   -0.65298E-13 23168   0.274E-10    0.684E-05
DAV:   6    -0.104332309125E+03    0.38199E-10   -0.12418E-12 23168   0.207E-10
  70 F= -.10433231E+03 E0= -.10433231E+03  d E =0.000000E+00
       N       E                     dE             d eps       ncg     rms          rms(c)
DAV:   1    -0.104332309125E+03    0.38608E-09   -0.10037E-12 23168   0.177E-10    0.684E-05
DAV:   2    -0.104332309126E+03   -0.94087E-09   -0.62708E-13 23168   0.378E-10    0.684E-05
DAV:   3    -0.104332309125E+03    0.98726E-09   -0.78093E-13 23168   0.390E-10    0.684E-05
DAV:   4    -0.104332309125E+03    0.18963E-09   -0.92116E-13 23168   0.265E-10    0.684E-05
DAV:   5    -0.104332309125E+03   -0.12415E-09   -0.38071E-13 23168   0.225E-10    0.684E-05
DAV:   6    -0.104332309126E+03   -0.99271E-09   -0.54874E-13 23168   0.259E-10
  71 F= -.10433231E+03 E0= -.10433231E+03  d E =0.000000E+00
       N       E                     dE             d eps       ncg     rms          rms(c)
DAV:   1    -0.104332309125E+03    0.14916E-09   -0.45620E-13 23168   0.304E-10    0.684E-05
DAV:   2    -0.104332309125E+03   -0.39063E-09   -0.17185E-13 23168   0.480E-10    0.684E-05
DAV:   3    -0.104332309125E+03    0.19600E-09   -0.17391E-12 23168   0.303E-10    0.684E-05
DAV:   4    -0.104332309125E+03   -0.30104E-09   -0.63037E-13 23168   0.262E-10    0.684E-05
DAV:   5    -0.104332309125E+03    0.19418E-09   -0.78687E-13 23168   0.229E-10    0.684E-05
DAV:   6    -0.104332309125E+03   -0.27967E-09   -0.32152E-13 23168   0.271E-10
  72 F= -.10433231E+03 E0= -.10433231E+03  d E =0.000000E+00
       N       E                     dE             d eps       ncg     rms          rms(c)
DAV:   1    -0.104332309126E+03   -0.84356E-09   -0.87228E-13 23168   0.230E-10    0.684E-05
DAV:   2    -0.104332309125E+03    0.79353E-09   -0.10264E-12 23168   0.601E-10    0.684E-05
DAV:   3    -0.104332309125E+03   -0.39563E-09   -0.39038E-13 23168   0.440E-10    0.684E-05
DAV:   4    -0.104332309125E+03    0.95497E-10   -0.91613E-13 23168   0.229E-10    0.684E-05
DAV:   5    -0.104332309125E+03    0.37198E-09   -0.99726E-13 23168   0.158E-10    0.684E-05
DAV:   6    -0.104332309125E+03   -0.37426E-09   -0.50224E-13 23168   0.228E-10
  73 F= -.10433231E+03 E0= -.10433231E+03  d E =0.000000E+00
       N       E                     dE             d eps       ncg     rms          rms(c)
DAV:   1    -0.104332309126E+03   -0.56389E-09   -0.88071E-13 23168   0.220E-10    0.684E-05
DAV:   2    -0.104332309126E+03    0.15461E-10   -0.17025E-12 23168   0.291E-10    0.684E-05
DAV:   3    -0.104332309126E+03   -0.15007E-10   -0.24498E-13 23168   0.460E-10    0.684E-05
DAV:   4    -0.104332309126E+03   -0.15052E-09   -0.12011E-12 23168   0.312E-10    0.684E-05
DAV:   5    -0.104332309125E+03    0.65620E-09   -0.79828E-13 23168   0.171E-10    0.684E-05
DAV:   6    -0.104332309126E+03   -0.77534E-09   -0.12030E-12 23168   0.222E-10
  74 F= -.10433231E+03 E0= -.10433231E+03  d E =0.000000E+00
       N       E                     dE             d eps       ncg     rms          rms(c)
DAV:   1    -0.104332309125E+03    0.25511E-09   -0.14583E-12 23168   0.322E-10    0.684E-05
DAV:   2    -0.104332309126E+03   -0.77307E-09   -0.79907E-13 23168   0.518E-10    0.684E-05
DAV:   3    -0.104332309125E+03    0.71213E-09   -0.10009E-12 23168   0.372E-10    0.684E-05
DAV:   4    -0.104332309125E+03   -0.21691E-09   -0.92471E-13 23168   0.444E-10    0.684E-05
DAV:   5    -0.104332309125E+03    0.20282E-09   -0.55766E-13 23168   0.265E-10    0.684E-05
DAV:   6    -0.104332309126E+03   -0.67985E-09   -0.25969E-13 23168   0.190E-10
  75 F= -.10433231E+03 E0= -.10433231E+03  d E =0.000000E+00
       N       E                     dE             d eps       ncg     rms          rms(c)
DAV:   1    -0.104332309125E+03   -0.24693E-09   -0.12897E-12 23168   0.266E-10    0.684E-05
DAV:   2    -0.104332309125E+03    0.19827E-09   -0.10168E-12 23168   0.331E-10    0.684E-05
DAV:   3    -0.104332309126E+03   -0.66530E-09   -0.51707E-13 23168   0.380E-10    0.684E-05
DAV:   4    -0.104332309126E+03   -0.27785E-09   -0.77704E-13 23168   0.281E-10    0.684E-05
DAV:   5    -0.104332309125E+03    0.93496E-09   -0.34105E-13 23168   0.203E-10    0.684E-05
DAV:   6    -0.104332309126E+03   -0.81400E-09   -0.68981E-13 23168   0.232E-10
  76 F= -.10433231E+03 E0= -.10433231E+03  d E =0.000000E+00
       N       E                     dE             d eps       ncg     rms          rms(c)
DAV:   1    -0.104332309125E+03   -0.41700E-09   -0.88121E-13 23168   0.243E-10    0.684E-05
DAV:   2    -0.104332309125E+03   -0.19554E-10   -0.57054E-13 23168   0.352E-10    0.684E-05
DAV:   3    -0.104332309125E+03    0.37244E-09   -0.71949E-13 23168   0.522E-10    0.684E-05
DAV:   4    -0.104332309125E+03    0.34470E-09   -0.51176E-13 23168   0.370E-10    0.684E-05
DAV:   5    -0.104332309126E+03   -0.10323E-08   -0.77017E-13 23168   0.201E-10    0.684E-05
DAV:   6    -0.104332309126E+03   -0.13642E-11   -0.10414E-12 23168   0.320E-10
  77 F= -.10433231E+03 E0= -.10433231E+03  d E =0.000000E+00
       N       E                     dE             d eps       ncg     rms          rms(c)
DAV:   1    -0.104332309125E+03    0.61254E-09   -0.73941E-13 23168   0.237E-10    0.684E-05
DAV:   2    -0.104332309126E+03   -0.60572E-09   -0.57822E-13 23168   0.249E-10    0.684E-05
DAV:   3    -0.104332309125E+03    0.20009E-09   -0.81978E-13 23168   0.218E-10    0.684E-05
DAV:   4    -0.104332309125E+03    0.77216E-09   -0.11882E-12 23168   0.526E-10    0.684E-05
DAV:   5    -0.104332309126E+03   -0.10295E-08   -0.17508E-13 23168   0.489E-10    0.684E-05
DAV:   6    -0.104332309126E+03    0.12551E-09   -0.55125E-13 23168   0.262E-10
  78 F= -.10433231E+03 E0= -.10433231E+03  d E =0.000000E+00
       N       E                     dE             d eps       ncg     rms          rms(c)
DAV:   1    -0.104332309126E+03    0.65029E-10   -0.36261E-13 23168   0.182E-10    0.684E-05
DAV:   2    -0.104332309125E+03    0.42428E-09   -0.10264E-12 23168   0.458E-10    0.684E-05
DAV:   3    -0.104332309126E+03   -0.58844E-09   -0.56106E-13 23168   0.326E-10    0.684E-05
DAV:   4    -0.104332309125E+03    0.33560E-09   -0.91646E-13 23168   0.224E-10    0.684E-05
DAV:   5    -0.104332309126E+03   -0.23920E-09   -0.89715E-13 23168   0.201E-10    0.684E-05
DAV:   6    -0.104332309125E+03    0.67666E-09   -0.14391E-12 23168   0.263E-10
  79 F= -.10433231E+03 E0= -.10433231E+03  d E =0.000000E+00
       N       E                     dE             d eps       ncg     rms          rms(c)
DAV:   1    -0.104332309125E+03    0.53524E-09   -0.87988E-13 23168   0.333E-10    0.684E-05
DAV:   2    -0.104332309126E+03   -0.48885E-09   -0.50672E-13 23168   0.273E-10    0.684E-05
DAV:   3    -0.104332309125E+03    0.43565E-09   -0.10849E-12 23168   0.272E-10    0.684E-05
DAV:   4    -0.104332309125E+03   -0.34561E-10   -0.78617E-13 23168   0.259E-10    0.684E-05
DAV:   5    -0.104332309126E+03   -0.52250E-09   -0.86778E-13 23168   0.172E-10    0.684E-05
DAV:   6    -0.104332309125E+03    0.76307E-09   -0.90190E-13 23168   0.143E-10
  80 F= -.10433231E+03 E0= -.10433231E+03  d E =0.000000E+00
       N       E                     dE             d eps       ncg     rms          rms(c)
DAV:   1    -0.104332309125E+03    0.64620E-09   -0.53313E-13 23168   0.264E-10    0.684E-05
DAV:   2    -0.104332309125E+03    0.32105E-09   -0.66883E-13 23168   0.261E-10    0.684E-05
DAV:   3    -0.104332309125E+03   -0.20646E-09   -0.42279E-13 23168   0.258E-10    0.684E-05
DAV:   4    -0.104332309125E+03   -0.39927E-09   -0.75301E-13 23168   0.372E-10    0.684E-05
DAV:   5    -0.104332309125E+03    0.79308E-09   -0.77731E-13 23168   0.299E-10    0.684E-05
DAV:   6    -0.104332309125E+03   -0.36380E-10   -0.57665E-13 23168   0.292E-10
  81 F= -.10433231E+03 E0= -.10433231E+03  d E =0.000000E+00
       N       E                     dE             d eps       ncg     rms          rms(c)
DAV:   1    -0.104332309125E+03   -0.61345E-09   -0.24474E-13 23168   0.205E-10    0.684E-05
DAV:   2    -0.104332309125E+03    0.23510E-09   -0.90666E-13 23168   0.231E-10    0.684E-05
DAV:   3    -0.104332309125E+03   -0.24193E-09   -0.68152E-13 23168   0.269E-10    0.684E-05
DAV:   4    -0.104332309125E+03    0.49749E-09   -0.79233E-14 23168   0.184E-10    0.684E-05
DAV:   5    -0.104332309125E+03   -0.35288E-09   -0.53514E-13 23168   0.284E-10    0.684E-05
DAV:   6    -0.104332309125E+03   -0.72760E-11   -0.95971E-13 23168   0.193E-10
  82 F= -.10433231E+03 E0= -.10433231E+03  d E =0.000000E+00
       N       E                     dE             d eps       ncg     rms          rms(c)
DAV:   1    -0.104332309125E+03   -0.12642E-09   -0.62233E-13 23168   0.205E-10    0.684E-05
DAV:   2    -0.104332309125E+03   -0.84583E-10   -0.67502E-13 23168   0.298E-10    0.684E-05
DAV:   3    -0.104332309126E+03   -0.25557E-09   -0.62165E-13 23168   0.304E-10    0.684E-05
DAV:   4    -0.104332309126E+03   -0.26830E-10   -0.14192E-12 23168   0.400E-10    0.684E-05
DAV:   5    -0.104332309125E+03    0.23056E-09   -0.17442E-12 23168   0.275E-10    0.684E-05
DAV:   6    -0.104332309125E+03    0.25375E-09   -0.67072E-13 23168   0.256E-10
  83 F= -.10433231E+03 E0= -.10433231E+03  d E =0.000000E+00
       N       E                     dE             d eps       ncg     rms          rms(c)
DAV:   1    -0.104332309125E+03   -0.92314E-10   -0.51445E-13 23168   0.213E-10    0.684E-05
DAV:   2    -0.104332309126E+03   -0.23238E-09   -0.11559E-12 23168   0.205E-10    0.684E-05
DAV:   3    -0.104332309125E+03    0.81855E-09   -0.10526E-12 23168   0.225E-10    0.684E-05
DAV:   4    -0.104332309125E+03   -0.24511E-09    0.14389E-13 23168   0.203E-10    0.684E-05
DAV:   5    -0.104332309126E+03   -0.59799E-09   -0.60523E-13 23168   0.220E-10    0.684E-05
DAV:   6    -0.104332309125E+03    0.53024E-09   -0.26149E-13 23168   0.285E-10
  84 F= -.10433231E+03 E0= -.10433231E+03  d E =0.000000E+00
       N       E                     dE             d eps       ncg     rms          rms(c)
DAV:   1    -0.104332309125E+03    0.86357E-09   -0.54365E-13 23168   0.387E-10    0.684E-05
DAV:   2    -0.104332309126E+03   -0.87039E-09   -0.48637E-13 23168   0.362E-10    0.684E-05
DAV:   3    -0.104332309126E+03    0.12051E-09   -0.54955E-13 23168   0.306E-10    0.684E-05
DAV:   4    -0.104332309126E+03   -0.97316E-10   -0.76242E-13 23168   0.334E-10    0.684E-05
DAV:   5    -0.104332309125E+03    0.69394E-09   -0.11241E-12 23168   0.372E-10    0.684E-05
DAV:   6    -0.104332309125E+03    0.11960E-09   -0.73072E-13 23168   0.321E-10
  85 F= -.10433231E+03 E0= -.10433231E+03  d E =0.000000E+00
       N       E                     dE             d eps       ncg     rms          rms(c)
DAV:   1    -0.104332309125E+03   -0.32742E-10    0.40058E-13 23168   0.283E-10    0.684E-05
DAV:   2    -0.104332309125E+03   -0.36835E-10   -0.13233E-12 23168   0.312E-10    0.684E-05
DAV:   3    -0.104332309125E+03   -0.81855E-10   -0.11644E-12 23168   0.248E-10    0.684E-05
DAV:   4    -0.104332309125E+03   -0.30059E-09   -0.46251E-13 23168   0.280E-10    0.684E-05
DAV:   5    -0.104332309125E+03   -0.54570E-11   -0.22576E-13 23168   0.295E-10    0.684E-05
DAV:   6    -0.104332309126E+03   -0.25648E-09   -0.34825E-13 23168   0.173E-10
  86 F= -.10433231E+03 E0= -.10433231E+03  d E =0.000000E+00
       N       E                     dE             d eps       ncg     rms          rms(c)
DAV:   1    -0.104332309125E+03    0.76625E-09   -0.11111E-12 23168   0.214E-10    0.684E-05
DAV:   2    -0.104332309126E+03   -0.10054E-08   -0.60569E-13 23168   0.415E-10    0.684E-05
DAV:   3    -0.104332309125E+03    0.10291E-08   -0.12463E-12 23168   0.374E-10    0.684E-05
DAV:   4    -0.104332309125E+03   -0.29195E-09   -0.59551E-13 23168   0.267E-10    0.684E-05
DAV:   5    -0.104332309125E+03   -0.13870E-09   -0.79317E-13 23168   0.263E-10    0.684E-05
DAV:   6    -0.104332309126E+03   -0.40109E-09   -0.44821E-13 23168   0.214E-10
  87 F= -.10433231E+03 E0= -.10433231E+03  d E =0.000000E+00
       N       E                     dE             d eps       ncg     rms          rms(c)
DAV:   1    -0.104332309125E+03   -0.87311E-10   -0.61192E-13 23168   0.303E-10    0.684E-05
DAV:   2    -0.104332309125E+03    0.51841E-10   -0.58275E-13 23168   0.248E-10    0.684E-05
DAV:   3    -0.104332309125E+03    0.35698E-09   -0.91285E-13 23168   0.246E-10    0.684E-05
DAV:   4    -0.104332309125E+03   -0.62073E-09   -0.12740E-12 23168   0.229E-10    0.684E-05
DAV:   5    -0.104332309126E+03   -0.11096E-09   -0.31860E-13 23168   0.237E-10    0.684E-05
DAV:   6    -0.104332309126E+03   -0.18053E-09   -0.38724E-13 23168   0.243E-10
  88 F= -.10433231E+03 E0= -.10433231E+03  d E =0.000000E+00
       N       E                     dE             d eps       ncg     rms          rms(c)
DAV:   1    -0.104332309125E+03    0.90040E-10   -0.84596E-13 23168   0.259E-10    0.684E-05
DAV:   2    -0.104332309125E+03    0.65620E-09   -0.12310E-12 23168   0.365E-10    0.684E-05
DAV:   3    -0.104332309125E+03   -0.62573E-09   -0.85040E-13 23168   0.362E-10    0.684E-05
DAV:   4    -0.104332309126E+03   -0.16689E-09   -0.79057E-13 23168   0.325E-10    0.684E-05
DAV:   5    -0.104332309125E+03    0.73260E-09   -0.79397E-13 23168   0.246E-10    0.684E-05
DAV:   6    -0.104332309125E+03   -0.42155E-09   -0.11857E-13 23168   0.331E-10
  89 F= -.10433231E+03 E0= -.10433231E+03  d E =0.000000E+00
       N       E                     dE             d eps       ncg     rms          rms(c)
DAV:   1    -0.104332309125E+03   -0.44520E-09   -0.18438E-13 23168   0.210E-10    0.684E-05
DAV:   2    -0.104332309125E+03   -0.18917E-09   -0.12882E-12 23168   0.231E-10    0.684E-05
DAV:   3    -0.104332309125E+03    0.13188E-10   -0.89867E-13 23168   0.304E-10    0.684E-05
DAV:   4    -0.104332309125E+03    0.93223E-10   -0.52306E-13 23168   0.418E-10    0.684E-05
DAV:   5    -0.104332309126E+03   -0.34925E-09   -0.65566E-13 23168   0.368E-10    0.684E-05
DAV:   6    -0.104332309125E+03    0.10341E-08   -0.86817E-13 23168   0.346E-10
  90 F= -.10433231E+03 E0= -.10433231E+03  d E =0.000000E+00
       N       E                     dE             d eps       ncg     rms          rms(c)
DAV:   1    -0.104332309125E+03    0.67075E-09   -0.65369E-13 23168   0.245E-10    0.684E-05
DAV:   2    -0.104332309125E+03    0.34152E-09   -0.10909E-12 23168   0.422E-10    0.684E-05
DAV:   3    -0.104332309125E+03    0.59572E-10   -0.31737E-13 23168   0.283E-10    0.684E-05
DAV:   4    -0.104332309126E+03   -0.95815E-09   -0.82386E-13 23168   0.269E-10    0.684E-05
DAV:   5    -0.104332309125E+03    0.34379E-09   -0.12273E-12 23168   0.298E-10    0.684E-05
DAV:   6    -0.104332309125E+03    0.47294E-09   -0.48638E-13 23168   0.238E-10
  91 F= -.10433231E+03 E0= -.10433231E+03  d E =0.000000E+00
       N       E                     dE             d eps       ncg     rms          rms(c)
DAV:   1    -0.104332309126E+03   -0.45384E-09   -0.32002E-13 23168   0.267E-10    0.684E-05
DAV:   2    -0.104332309125E+03    0.50113E-09   -0.87493E-13 23168   0.511E-10    0.684E-05
DAV:   3    -0.104332309125E+03   -0.22374E-09   -0.36639E-13 23168   0.381E-10    0.684E-05
DAV:   4    -0.104332309125E+03   -0.45475E-10   -0.26372E-13 23168   0.225E-10    0.684E-05
DAV:   5    -0.104332309125E+03    0.13642E-09   -0.71772E-13 23168   0.203E-10    0.684E-05
DAV:   6    -0.104332309125E+03   -0.11551E-09   -0.15259E-13 23168   0.146E-10
  92 F= -.10433231E+03 E0= -.10433231E+03  d E =0.000000E+00
       N       E                     dE             d eps       ncg     rms          rms(c)
DAV:   1    -0.104332309125E+03    0.26193E-09   -0.43788E-13 23168   0.226E-10    0.684E-05
DAV:   2    -0.104332309126E+03   -0.64756E-09   -0.88658E-13 23168   0.416E-10    0.684E-05
DAV:   3    -0.104332309125E+03    0.76761E-09   -0.77011E-13 23168   0.375E-10    0.684E-05
DAV:   4    -0.104332309126E+03   -0.84583E-09   -0.64267E-13 23168   0.268E-10    0.684E-05
DAV:   5    -0.104332309126E+03    0.30559E-09   -0.77014E-13 23168   0.236E-10    0.684E-05
DAV:   6    -0.104332309125E+03    0.94587E-10   -0.14205E-12 23168   0.224E-10
  93 F= -.10433231E+03 E0= -.10433231E+03  d E =0.000000E+00
       N       E                     dE             d eps       ncg     rms          rms(c)
DAV:   1    -0.104332309125E+03    0.64119E-10   -0.81917E-13 23168   0.310E-10    0.684E-05
DAV:   2    -0.104332309125E+03    0.48612E-09   -0.53693E-13 23168   0.278E-10    0.684E-05
DAV:   3    -0.104332309126E+03   -0.78671E-09   -0.77246E-13 23168   0.281E-10    0.684E-05
DAV:   4    -0.104332309126E+03   -0.11369E-10   -0.75415E-13 23168   0.290E-10    0.684E-05
DAV:   5    -0.104332309125E+03    0.85765E-09   -0.10516E-12 23168   0.224E-10    0.684E-05
DAV:   6    -0.104332309126E+03   -0.98044E-09   -0.10500E-12 23168   0.262E-10
  94 F= -.10433231E+03 E0= -.10433231E+03  d E =0.000000E+00
       N       E                     dE             d eps       ncg     rms          rms(c)
DAV:   1    -0.104332309125E+03    0.79126E-10   -0.49495E-13 23168   0.356E-10    0.684E-05
DAV:   2    -0.104332309125E+03   -0.59572E-10   -0.48147E-13 23168   0.535E-10    0.684E-05
DAV:   3    -0.104332309125E+03   -0.40473E-09   -0.14400E-12 23168   0.390E-10    0.684E-05
DAV:   4    -0.104332309125E+03   -0.50477E-10   -0.28455E-13 23168   0.261E-10    0.684E-05
DAV:   5    -0.104332309125E+03    0.25693E-09   -0.91783E-13 23168   0.231E-10    0.684E-05
DAV:   6    -0.104332309125E+03   -0.26375E-09   -0.46785E-13 23168   0.344E-10
  95 F= -.10433231E+03 E0= -.10433231E+03  d E =0.000000E+00
       N       E                     dE             d eps       ncg     rms          rms(c)
DAV:   1    -0.104332309125E+03    0.11278E-09   -0.72478E-13 23168   0.232E-10    0.684E-05
DAV:   2    -0.104332309125E+03   -0.38881E-09   -0.41787E-13 23168   0.366E-10    0.684E-05
DAV:   3    -0.104332309125E+03    0.11960E-09   -0.91886E-13 23168   0.303E-10    0.684E-05
DAV:   4    -0.104332309126E+03   -0.32833E-09   -0.75163E-13 23168   0.220E-10    0.684E-05
DAV:   5    -0.104332309125E+03    0.64574E-09   -0.97172E-13 23168   0.313E-10    0.684E-05
DAV:   6    -0.104332309125E+03   -0.47748E-10   -0.68913E-13 23168   0.387E-10
  96 F= -.10433231E+03 E0= -.10433231E+03  d E =0.000000E+00
       N       E                     dE             d eps       ncg     rms          rms(c)
DAV:   1    -0.104332309125E+03    0.21373E-09   -0.50420E-13 23168   0.344E-10    0.684E-05
DAV:   2    -0.104332309125E+03   -0.28786E-09   -0.16572E-13 23168   0.381E-10    0.684E-05
DAV:   3    -0.104332309126E+03   -0.59799E-09   -0.25217E-13 23168   0.219E-10    0.684E-05
DAV:   4    -0.104332309126E+03   -0.16189E-09   -0.72064E-13 23168   0.193E-10    0.684E-05
DAV:   5    -0.104332309125E+03    0.91131E-09   -0.50810E-13 23168   0.224E-10    0.684E-05
DAV:   6    -0.104332309125E+03   -0.45020E-09   -0.47525E-13 23168   0.256E-10
  97 F= -.10433231E+03 E0= -.10433231E+03  d E =0.000000E+00
       N       E                     dE             d eps       ncg     rms          rms(c)
DAV:   1    -0.104332309125E+03   -0.19963E-09   -0.70110E-13 23168   0.247E-10    0.684E-05
DAV:   2    -0.104332309125E+03   -0.35789E-09   -0.86888E-13 23168   0.210E-10    0.684E-05
DAV:   3    -0.104332309125E+03    0.59663E-09   -0.10618E-12 23168   0.261E-10    0.684E-05
DAV:   4    -0.104332309126E+03   -0.85493E-09   -0.46104E-13 23168   0.246E-10    0.684E-05
DAV:   5    -0.104332309125E+03    0.42292E-09   -0.40602E-13 23168   0.272E-10    0.684E-05
DAV:   6    -0.104332309126E+03   -0.42519E-09   -0.91683E-13 23168   0.159E-10
  98 F= -.10433231E+03 E0= -.10433231E+03  d E =0.000000E+00
       N       E                     dE             d eps       ncg     rms          rms(c)
DAV:   1    -0.104332309125E+03    0.44020E-09   -0.86099E-13 23168   0.303E-10    0.684E-05
DAV:   2    -0.104332309125E+03   -0.61300E-09   -0.69456E-13 23168   0.387E-10    0.684E-05
DAV:   3    -0.104332309125E+03    0.65893E-09   -0.23442E-13 23168   0.239E-10    0.684E-05
DAV:   4    -0.104332309125E+03   -0.48794E-09   -0.81569E-13 23168   0.194E-10    0.684E-05
DAV:   5    -0.104332309125E+03   -0.42746E-10   -0.10917E-12 23168   0.209E-10    0.684E-05
DAV:   6    -0.104332309126E+03   -0.48158E-09   -0.84002E-13 23168   0.193E-10
  99 F= -.10433231E+03 E0= -.10433231E+03  d E =0.000000E+00
       N       E                     dE             d eps       ncg     rms          rms(c)
DAV:   1    -0.104332309125E+03    0.72760E-11   -0.67060E-14 23168   0.381E-10    0.684E-05
DAV:   2    -0.104332309126E+03   -0.59254E-09   -0.72682E-13 23168   0.405E-10    0.684E-05
DAV:   3    -0.104332309125E+03    0.68621E-09   -0.91507E-13 23168   0.357E-10    0.684E-05
DAV:   4    -0.104332309125E+03    0.49658E-09   -0.17142E-12 23168   0.268E-10    0.684E-05
DAV:   5    -0.104332309125E+03   -0.98225E-10   -0.26649E-13 23168   0.219E-10    0.684E-05
DAV:   6    -0.104332309126E+03   -0.93405E-09   -0.28047E-13 23168   0.279E-10
 100 F= -.10433231E+03 E0= -.10433231E+03  d E =0.000000E+00
