 B  C 
 1.0000000000000000
     5.9024304979286688    0.0000000000000000    0.0000000000000000
     2.2726604838965643    4.6167636522022510    0.0000000000000000
     1.6735062917338377    1.5136173988337849    4.2279221717415973
 B   C  
  11   4
Cartesian
  5.0092585289472700  4.9258722292958268  3.3988241062940840
  7.0919501659852733  4.1804348214802101  1.3166259585184643
  6.8460173039820642  2.6749282907476721  3.4223082794659825
  4.8261267470628155  1.2086254021340066  0.8338258461702504
  2.7598257405904794  1.9481962721793853  2.8996372471029113
  3.0001672313894368  3.4609635977096804  0.8024414724462581
  7.8756981302516422  6.0830215338242759  4.2053779326245389
  9.2464246630642037  5.5924108186990047  2.8349761904854476
  9.0167518087737104  4.5509061174332608  4.1942955118722889
  1.9591959763644058  0.0627426840445021  0.0163700935001596
  0.5965659115685285  0.5504555097188928  1.3786772860608298
  0.7745329455005096  1.4903116278297941  0.0253199369915068
  6.0792995212004941  3.7430962297693591  2.6222973997701273
  3.8254212788954018  2.4328393054910262  1.6264824878769193
  4.9572443761558658  3.0730539267134112  2.1319568728880145
