  30  30   0   0
  0.6461258E+01  0.1040158E-08  0.4717314E-09  0.5240224E-09  0.5000000E-15
  1.000000000000000E-004
  CAR 
 unknown system                          
     18.51878142    -13.78420353  301      7.86429357      1.00000000
    -13.784  0.0000E+00  0.0000E+00
    -13.677  0.0000E+00  0.0000E+00
    -13.569  0.0000E+00  0.0000E+00
    -13.461  0.0000E+00  0.0000E+00
    -13.353  0.0000E+00  0.0000E+00
    -13.246  0.0000E+00  0.0000E+00
    -13.138  0.0000E+00  0.0000E+00
    -13.030  0.0000E+00  0.0000E+00
    -12.923  0.0000E+00  0.0000E+00
    -12.815  0.0000E+00  0.0000E+00
    -12.707  0.0000E+00  0.0000E+00
    -12.600  0.0000E+00  0.0000E+00
    -12.492  0.0000E+00  0.0000E+00
    -12.384  0.0000E+00  0.0000E+00
    -12.277  0.0000E+00  0.0000E+00
    -12.169  0.0000E+00  0.0000E+00
    -12.061  0.0000E+00  0.0000E+00
    -11.954  0.0000E+00  0.0000E+00
    -11.846  0.0000E+00  0.0000E+00
    -11.738  0.1442E-01  0.3298E-03
    -11.631  0.2065E-01  0.2472E-02
    -11.523  0.2292E-01  0.4835E-02
    -11.415  0.2679E-01  0.7505E-02
    -11.308  0.3619E-01  0.1081E-01
    -11.200  0.4724E-01  0.1556E-01
    -11.092  0.0000E+00  0.2000E-01
    -10.985  0.9080E-02  0.2031E-01
    -10.877  0.2328E-01  0.2198E-01
    -10.769  0.3391E-01  0.2519E-01
    -10.662  0.5599E-01  0.2968E-01
    -10.554  0.6102E-01  0.3743E-01
    -10.446  0.0000E+00  0.4000E-01
    -10.339  0.9895E-02  0.4039E-01
    -10.231  0.1427E-01  0.4179E-01
    -10.123  0.1961E-01  0.4362E-01
    -10.016  0.3897E-01  0.4639E-01
     -9.908  0.5639E-01  0.5162E-01
     -9.800  0.3337E-01  0.5726E-01
     -9.692  0.1313E-01  0.5960E-01
     -9.585  0.0000E+00  0.6000E-01
     -9.477  0.0000E+00  0.6000E-01
     -9.369  0.0000E+00  0.6000E-01
     -9.262  0.2313E-02  0.6004E-01
     -9.154  0.9743E-02  0.6071E-01
     -9.046  0.2277E-01  0.6235E-01
     -8.939  0.3431E-01  0.6579E-01
     -8.831  0.5150E-01  0.7002E-01
     -8.723  0.4720E-01  0.7545E-01
     -8.616  0.1749E-01  0.7915E-01
     -8.508  0.4708E-01  0.8187E-01
     -8.400  0.4574E-01  0.8755E-01
     -8.293  0.3052E-01  0.9147E-01
     -8.185  0.4582E-01  0.9542E-01
     -8.077  0.4723E-01  0.1007E+00
     -7.970  0.4111E-01  0.1054E+00
     -7.862  0.3893E-01  0.1098E+00
     -7.754  0.3437E-01  0.1135E+00
     -7.647  0.2183E-01  0.1168E+00
     -7.539  0.1202E-01  0.1185E+00
     -7.431  0.6527E-02  0.1195E+00
     -7.324  0.1690E-02  0.1200E+00
     -7.216  0.0000E+00  0.1200E+00
     -7.108  0.0000E+00  0.1200E+00
     -7.001  0.0000E+00  0.1200E+00
     -6.893  0.0000E+00  0.1200E+00
     -6.785  0.0000E+00  0.1200E+00
     -6.678  0.0000E+00  0.1200E+00
     -6.570  0.0000E+00  0.1200E+00
     -6.462  0.6582E-01  0.1244E+00
     -6.355  0.6423E-01  0.1318E+00
     -6.247  0.4331E-01  0.1393E+00
     -6.139  0.0000E+00  0.1400E+00
     -6.031  0.1781E-01  0.1406E+00
     -5.924  0.3180E-01  0.1433E+00
     -5.816  0.5004E-01  0.1481E+00
     -5.708  0.3101E-01  0.1520E+00
     -5.601  0.3136E-01  0.1554E+00
     -5.493  0.4713E-01  0.1596E+00
     -5.385  0.5078E-01  0.1646E+00
     -5.278  0.4834E-01  0.1710E+00
     -5.170  0.4020E-01  0.1756E+00
     -5.062  0.6115E-01  0.1807E+00
     -4.955  0.6458E-01  0.1880E+00
     -4.847  0.4666E-01  0.1944E+00
     -4.739  0.5693E-01  0.1995E+00
     -4.632  0.4748E-01  0.2054E+00
     -4.524  0.5667E-01  0.2103E+00
     -4.416  0.4067E-01  0.2163E+00
     -4.309  0.2890E-01  0.2196E+00
     -4.201  0.3728E-01  0.2236E+00
     -4.093  0.3511E-01  0.2274E+00
     -3.986  0.2096E-01  0.2306E+00
     -3.878  0.1217E-01  0.2323E+00
     -3.770  0.1117E-01  0.2336E+00
     -3.663  0.1764E-01  0.2351E+00
     -3.555  0.2184E-01  0.2372E+00
     -3.447  0.3561E-01  0.2403E+00
     -3.340  0.3882E-01  0.2444E+00
     -3.232  0.4262E-01  0.2488E+00
     -3.124  0.4273E-01  0.2530E+00
     -3.017  0.4832E-01  0.2577E+00
     -2.909  0.5567E-01  0.2635E+00
     -2.801  0.5324E-01  0.2694E+00
     -2.694  0.5416E-01  0.2750E+00
     -2.586  0.5415E-01  0.2812E+00
     -2.478  0.5833E-01  0.2875E+00
     -2.370  0.5430E-01  0.2936E+00
     -2.263  0.6226E-01  0.2997E+00
     -2.155  0.5619E-01  0.3063E+00
     -2.047  0.6836E-01  0.3130E+00
     -1.940  0.5953E-01  0.3200E+00
     -1.832  0.6065E-01  0.3265E+00
     -1.724  0.6251E-01  0.3332E+00
     -1.617  0.5722E-01  0.3397E+00
     -1.509  0.6870E-01  0.3467E+00
     -1.401  0.6380E-01  0.3538E+00
     -1.294  0.6871E-01  0.3607E+00
     -1.186  0.6259E-01  0.3680E+00
     -1.078  0.6583E-01  0.3749E+00
     -0.971  0.7169E-01  0.3827E+00
     -0.863  0.7353E-01  0.3903E+00
     -0.755  0.7485E-01  0.3984E+00
     -0.648  0.7851E-01  0.4067E+00
     -0.540  0.7388E-01  0.4143E+00
     -0.432  0.7421E-01  0.4228E+00
     -0.325  0.9185E-01  0.4315E+00
     -0.217  0.8616E-01  0.4412E+00
     -0.109  0.9183E-01  0.4506E+00
     -0.002  0.9280E-01  0.4599E+00
      0.106  0.6517E-01  0.4693E+00
      0.214  0.7570E-01  0.4764E+00
      0.321  0.7282E-01  0.4849E+00
      0.429  0.7443E-01  0.4925E+00
      0.537  0.6976E-01  0.5001E+00
      0.644  0.7781E-01  0.5079E+00
      0.752  0.8138E-01  0.5161E+00
      0.860  0.7873E-01  0.5249E+00
      0.967  0.6886E-01  0.5324E+00
      1.075  0.8094E-01  0.5405E+00
      1.183  0.7635E-01  0.5488E+00
      1.291  0.7746E-01  0.5574E+00
      1.398  0.7400E-01  0.5650E+00
      1.506  0.8444E-01  0.5739E+00
      1.614  0.6600E-01  0.5823E+00
      1.721  0.6480E-01  0.5894E+00
      1.829  0.4187E-01  0.5957E+00
      1.937  0.6242E-01  0.6007E+00
      2.044  0.6584E-01  0.6079E+00
      2.152  0.6820E-01  0.6146E+00
      2.260  0.5888E-01  0.6214E+00
      2.367  0.7767E-01  0.6285E+00
      2.475  0.7157E-01  0.6368E+00
      2.583  0.7437E-01  0.6451E+00
      2.690  0.7811E-01  0.6531E+00
      2.798  0.9694E-01  0.6625E+00
      2.906  0.8054E-01  0.6725E+00
      3.013  0.1157E+00  0.6825E+00
      3.121  0.9054E-01  0.6940E+00
      3.229  0.1073E+00  0.7051E+00
      3.336  0.1097E+00  0.7162E+00
      3.444  0.1151E+00  0.7284E+00
      3.552  0.1143E+00  0.7400E+00
      3.659  0.1043E+00  0.7522E+00
      3.767  0.1033E+00  0.7634E+00
      3.875  0.9892E-01  0.7750E+00
      3.982  0.1179E+00  0.7874E+00
      4.090  0.8825E-01  0.7980E+00
      4.198  0.1071E+00  0.8086E+00
      4.305  0.9767E-01  0.8201E+00
      4.413  0.1116E+00  0.8312E+00
      4.521  0.9340E-01  0.8415E+00
      4.628  0.1045E+00  0.8530E+00
      4.736  0.1076E+00  0.8633E+00
      4.844  0.8835E-01  0.8738E+00
      4.952  0.8170E-01  0.8832E+00
      5.059  0.8814E-01  0.8921E+00
      5.167  0.7428E-01  0.9008E+00
      5.275  0.6915E-01  0.9079E+00
      5.382  0.7994E-01  0.9161E+00
      5.490  0.6842E-01  0.9244E+00
      5.598  0.5595E-01  0.9305E+00
      5.705  0.5225E-01  0.9362E+00
      5.813  0.4589E-01  0.9424E+00
      5.921  0.3426E-01  0.9463E+00
      6.028  0.3195E-01  0.9500E+00
      6.136  0.2388E-01  0.9529E+00
      6.244  0.2953E-01  0.9555E+00
      6.351  0.1722E-01  0.9580E+00
      6.459  0.1250E-01  0.9595E+00
      6.567  0.0000E+00  0.9600E+00
      6.674  0.0000E+00  0.9600E+00
      6.782  0.0000E+00  0.9600E+00
      6.890  0.0000E+00  0.9600E+00
      6.997  0.0000E+00  0.9600E+00
      7.105  0.0000E+00  0.9600E+00
      7.213  0.0000E+00  0.9600E+00
      7.320  0.0000E+00  0.9600E+00
      7.428  0.2292E-02  0.9600E+00
      7.536  0.8756E-02  0.9606E+00
      7.643  0.1845E-01  0.9620E+00
      7.751  0.3844E-01  0.9651E+00
      7.859  0.3922E-01  0.9698E+00
      7.966  0.4831E-01  0.9743E+00
      8.074  0.4927E-01  0.9798E+00
      8.182  0.7401E-01  0.9867E+00
      8.290  0.7141E-01  0.9948E+00
      8.397  0.2235E-01  0.9994E+00
      8.505  0.4157E-01  0.1002E+01
      8.613  0.5257E-01  0.1008E+01
      8.720  0.5048E-01  0.1014E+01
      8.828  0.4245E-01  0.1019E+01
      8.936  0.5710E-01  0.1024E+01
      9.043  0.5570E-01  0.1030E+01
      9.151  0.4700E-01  0.1036E+01
      9.259  0.1291E-01  0.1039E+01
      9.366  0.1365E-02  0.1040E+01
      9.474  0.0000E+00  0.1040E+01
      9.582  0.4468E-03  0.1040E+01
      9.689  0.3144E-02  0.1040E+01
      9.797  0.6834E-02  0.1041E+01
      9.905  0.1539E-01  0.1042E+01
     10.012  0.2587E-01  0.1044E+01
     10.120  0.3824E-01  0.1048E+01
     10.228  0.3854E-01  0.1052E+01
     10.335  0.3317E-01  0.1056E+01
     10.443  0.3338E-01  0.1059E+01
     10.551  0.4195E-01  0.1063E+01
     10.658  0.3808E-01  0.1068E+01
     10.766  0.3180E-01  0.1071E+01
     10.874  0.4277E-01  0.1075E+01
     10.981  0.4349E-01  0.1080E+01
     11.089  0.4681E-01  0.1085E+01
     11.197  0.4838E-01  0.1090E+01
     11.304  0.5713E-01  0.1096E+01
     11.412  0.5468E-01  0.1102E+01
     11.520  0.5592E-01  0.1108E+01
     11.627  0.6225E-01  0.1114E+01
     11.735  0.6369E-01  0.1121E+01
     11.843  0.5539E-01  0.1127E+01
     11.951  0.6301E-01  0.1134E+01
     12.058  0.6592E-01  0.1141E+01
     12.166  0.6701E-01  0.1148E+01
     12.274  0.6686E-01  0.1155E+01
     12.381  0.5663E-01  0.1162E+01
     12.489  0.5269E-01  0.1168E+01
     12.597  0.6159E-01  0.1174E+01
     12.704  0.7232E-01  0.1181E+01
     12.812  0.8233E-01  0.1190E+01
     12.920  0.8815E-01  0.1198E+01
     13.027  0.6865E-01  0.1206E+01
     13.135  0.6292E-01  0.1213E+01
     13.243  0.5586E-01  0.1219E+01
     13.350  0.5938E-01  0.1225E+01
     13.458  0.5172E-01  0.1231E+01
     13.566  0.5517E-01  0.1237E+01
     13.673  0.4760E-01  0.1242E+01
     13.781  0.6335E-01  0.1248E+01
     13.889  0.6365E-01  0.1255E+01
     13.996  0.5681E-01  0.1261E+01
     14.104  0.4813E-01  0.1267E+01
     14.212  0.5615E-01  0.1273E+01
     14.319  0.6741E-01  0.1279E+01
     14.427  0.7951E-01  0.1287E+01
     14.535  0.7620E-01  0.1295E+01
     14.642  0.8403E-01  0.1304E+01
     14.750  0.9463E-01  0.1314E+01
     14.858  0.7909E-01  0.1323E+01
     14.965  0.8184E-01  0.1331E+01
     15.073  0.8121E-01  0.1340E+01
     15.181  0.6933E-01  0.1349E+01
     15.288  0.9580E-01  0.1357E+01
     15.396  0.8213E-01  0.1367E+01
     15.504  0.8169E-01  0.1376E+01
     15.612  0.7888E-01  0.1385E+01
     15.719  0.8388E-01  0.1394E+01
     15.827  0.8926E-01  0.1403E+01
     15.935  0.7954E-01  0.1412E+01
     16.042  0.9144E-01  0.1421E+01
     16.150  0.6022E-01  0.1429E+01
     16.258  0.3604E-01  0.1434E+01
     16.365  0.3354E-01  0.1438E+01
     16.473  0.2219E-02  0.1440E+01
     16.581  0.0000E+00  0.1440E+01
     16.688  0.0000E+00  0.1440E+01
     16.796  0.0000E+00  0.1440E+01
     16.904  0.0000E+00  0.1440E+01
     17.011  0.0000E+00  0.1440E+01
     17.119  0.0000E+00  0.1440E+01
     17.227  0.0000E+00  0.1440E+01
     17.334  0.0000E+00  0.1440E+01
     17.442  0.0000E+00  0.1440E+01
     17.550  0.0000E+00  0.1440E+01
     17.657  0.0000E+00  0.1440E+01
     17.765  0.0000E+00  0.1440E+01
     17.873  0.0000E+00  0.1440E+01
     17.980  0.0000E+00  0.1440E+01
     18.088  0.0000E+00  0.1440E+01
     18.196  0.0000E+00  0.1440E+01
     18.303  0.0000E+00  0.1440E+01
     18.411  0.0000E+00  0.1440E+01
     18.519  0.0000E+00  0.1440E+01
