       N       E                     dE             d eps       ncg     rms          rms(c)
DAV:   1     0.152477276514E+03    0.15248E+03   -0.42203E+04 61920   0.102E+03
DAV:   2    -0.220806848015E+03   -0.37328E+03   -0.36941E+03 85464   0.205E+02
DAV:   3    -0.228270121333E+03   -0.74633E+01   -0.74468E+01 90468   0.318E+01
DAV:   4    -0.228312694131E+03   -0.42573E-01   -0.42572E-01 85824   0.244E+00
DAV:   5    -0.228313253397E+03   -0.55927E-03   -0.55925E-03 90936   0.262E-01    0.228E+01
DAV:   6    -0.213649733612E+03    0.14664E+02   -0.24293E+01 91044   0.156E+01    0.123E+01
DAV:   7    -0.210737252316E+03    0.29125E+01   -0.78735E+00 92736   0.863E+00    0.535E+00
DAV:   8    -0.210650688964E+03    0.86563E-01   -0.47052E+00 92448   0.484E+00    0.312E+00
DAV:   9    -0.210490988718E+03    0.15970E+00   -0.63675E-01 86580   0.256E+00    0.133E+00
DAV:  10    -0.210487387766E+03    0.36010E-02   -0.32730E-01 92592   0.163E+00    0.695E-01
DAV:  11    -0.210483118819E+03    0.42689E-02   -0.15321E-01 87840   0.929E-01    0.271E-01
DAV:  12    -0.210482456080E+03    0.66274E-03   -0.14232E-02 89820   0.321E-01    0.686E-02
DAV:  13    -0.210482540323E+03   -0.84243E-04   -0.70104E-04 85716   0.998E-02    0.366E-02
DAV:  14    -0.210482532401E+03    0.79220E-05   -0.16438E-04 92520   0.370E-02    0.110E-02
DAV:  15    -0.210482541092E+03   -0.86906E-05   -0.25400E-05 90072   0.165E-02    0.496E-03
DAV:  16    -0.210482541135E+03   -0.43796E-07   -0.24782E-06 89352   0.570E-03    0.201E-03
DAV:  17    -0.210482542165E+03   -0.10297E-05   -0.60509E-07 92772   0.221E-03    0.116E-03
DAV:  18    -0.210482541266E+03    0.89951E-06   -0.22484E-07 92304   0.112E-03    0.416E-04
DAV:  19    -0.210482541509E+03   -0.24303E-06   -0.23075E-08 68976   0.499E-04    0.115E-04
DAV:  20    -0.210482541511E+03   -0.24320E-08   -0.29776E-09 73116   0.191E-04
   1 F= -.21048254E+03 E0= -.21048254E+03  d E =0.000000E+00
       N       E                     dE             d eps       ncg     rms          rms(c)
DAV:   1    -0.210482541500E+03    0.90422E-08   -0.37760E-10 70344   0.763E-05    0.817E-05
DAV:   2    -0.210482541511E+03   -0.11816E-07   -0.84052E-11 68184   0.287E-05    0.800E-05
DAV:   3    -0.210482541503E+03    0.86093E-08   -0.27716E-11 65016   0.134E-05    0.795E-05
DAV:   4    -0.210482541506E+03   -0.33961E-08   -0.52851E-12 52812   0.806E-06    0.790E-05
DAV:   5    -0.210482541506E+03    0.33469E-09   -0.31426E-12 57060   0.362E-06    0.789E-05
DAV:   6    -0.210482541506E+03    0.20009E-10   -0.28046E-13 55332   0.145E-06
   2 F= -.21048254E+03 E0= -.21048254E+03  d E =0.000000E+00
       N       E                     dE             d eps       ncg     rms          rms(c)
DAV:   1    -0.210482541506E+03    0.29104E-10   -0.11782E-12 52452   0.659E-07    0.789E-05
DAV:   2    -0.210482541506E+03   -0.54570E-11   -0.16665E-12 50724   0.231E-07    0.789E-05
DAV:   3    -0.210482541506E+03    0.92768E-10    0.13931E-12 49176   0.139E-07    0.789E-05
DAV:   4    -0.210482541506E+03   -0.87311E-10   -0.16505E-12 47988   0.690E-08    0.789E-05
DAV:   5    -0.210482541506E+03   -0.55479E-09   -0.30879E-13 45504   0.350E-08    0.789E-05
DAV:   6    -0.210482541506E+03    0.82036E-09   -0.17883E-12 43956   0.227E-08
   3 F= -.21048254E+03 E0= -.21048254E+03  d E =0.000000E+00
       N       E                     dE             d eps       ncg     rms          rms(c)
DAV:   1    -0.210482541506E+03    0.77125E-09   -0.18169E-12 42984   0.659E-09    0.789E-05
DAV:   2    -0.210482541506E+03   -0.67303E-10   -0.51365E-13 42012   0.251E-09    0.789E-05
DAV:   3    -0.210482541506E+03   -0.67303E-10   -0.76999E-13 41652   0.144E-09    0.789E-05
DAV:   4    -0.210482541506E+03   -0.42201E-09    0.56088E-13 40644   0.102E-09    0.789E-05
DAV:   5    -0.210482541506E+03    0.40200E-09   -0.11512E-12 38592   0.536E-10    0.789E-05
DAV:   6    -0.210482541506E+03    0.15643E-09   -0.78077E-13 37836   0.393E-10
   4 F= -.21048254E+03 E0= -.21048254E+03  d E =0.000000E+00
       N       E                     dE             d eps       ncg     rms          rms(c)
DAV:   1    -0.210482541506E+03    0.13642E-09   -0.99356E-13 37404   0.283E-10    0.789E-05
DAV:   2    -0.210482541505E+03    0.29831E-09   -0.93230E-13 36972   0.323E-10    0.789E-05
DAV:   3    -0.210482541506E+03   -0.92041E-09   -0.33664E-13 36900   0.284E-10    0.789E-05
DAV:   4    -0.210482541506E+03   -0.21828E-10   -0.75679E-13 36792   0.215E-10    0.789E-05
DAV:   5    -0.210482541506E+03    0.17280E-09   -0.14358E-14 36432   0.164E-10    0.789E-05
DAV:   6    -0.210482541506E+03    0.28740E-09    0.52837E-13 36108   0.312E-10
   5 F= -.21048254E+03 E0= -.21048254E+03  d E =0.000000E+00
       N       E                     dE             d eps       ncg     rms          rms(c)
DAV:   1    -0.210482541506E+03    0.44565E-09   -0.31934E-13 36000   0.317E-10    0.789E-05
DAV:   2    -0.210482541505E+03    0.39654E-09   -0.33405E-13 35964   0.204E-10    0.789E-05
DAV:   3    -0.210482541505E+03   -0.23465E-09   -0.99851E-13 35676   0.169E-10    0.789E-05
DAV:   4    -0.210482541506E+03   -0.40200E-09    0.76449E-14 35208   0.182E-10    0.789E-05
DAV:   5    -0.210482541506E+03   -0.37471E-09   -0.10604E-12 34740   0.231E-10    0.789E-05
DAV:   6    -0.210482541505E+03    0.81855E-09   -0.29776E-13 34560   0.215E-10
   6 F= -.21048254E+03 E0= -.21048254E+03  d E =0.000000E+00
       N       E                     dE             d eps       ncg     rms          rms(c)
DAV:   1    -0.210482541505E+03    0.84765E-09    0.45195E-13 34488   0.166E-10    0.789E-05
DAV:   2    -0.210482541505E+03    0.23283E-09   -0.43960E-13 34344   0.312E-10    0.789E-05
DAV:   3    -0.210482541505E+03   -0.26012E-09   -0.20443E-12 34308   0.189E-10    0.789E-05
DAV:   4    -0.210482541505E+03    0.26012E-09    0.20221E-13 33768   0.262E-10    0.789E-05
DAV:   5    -0.210482541505E+03   -0.26921E-09   -0.70141E-13 33768   0.272E-10    0.789E-05
DAV:   6    -0.210482541506E+03   -0.60390E-09    0.11617E-12 33408   0.184E-10
   7 F= -.21048254E+03 E0= -.21048254E+03  d E =0.000000E+00
       N       E                     dE             d eps       ncg     rms          rms(c)
DAV:   1    -0.210482541506E+03   -0.26012E-09   -0.42951E-13 33372   0.172E-10    0.789E-05
DAV:   2    -0.210482541506E+03   -0.74579E-10   -0.69659E-13 33228   0.236E-10    0.789E-05
DAV:   3    -0.210482541506E+03   -0.21828E-10    0.48263E-13 33264   0.250E-10    0.789E-05
DAV:   4    -0.210482541505E+03    0.66029E-09   -0.41475E-13 33048   0.355E-10    0.789E-05
DAV:   5    -0.210482541506E+03   -0.89494E-09   -0.97158E-13 33012   0.211E-10    0.789E-05
DAV:   6    -0.210482541505E+03    0.10077E-08    0.92453E-13 32940   0.426E-10
   8 F= -.21048254E+03 E0= -.21048254E+03  d E =0.000000E+00
       N       E                     dE             d eps       ncg     rms          rms(c)
DAV:   1    -0.210482541505E+03    0.66939E-09   -0.83364E-14 32940   0.463E-10    0.789E-05
DAV:   2    -0.210482541506E+03   -0.10605E-08   -0.16138E-12 32868   0.236E-10    0.789E-05
DAV:   3    -0.210482541505E+03    0.96770E-09   -0.14425E-12 32904   0.216E-10    0.789E-05
DAV:   4    -0.210482541506E+03   -0.65120E-09   -0.44548E-13 32868   0.284E-10    0.789E-05
DAV:   5    -0.210482541505E+03    0.99863E-09    0.15485E-13 32868   0.216E-10    0.789E-05
DAV:   6    -0.210482541505E+03   -0.11460E-09   -0.31862E-13 32688   0.293E-10
   9 F= -.21048254E+03 E0= -.21048254E+03  d E =0.000000E+00
       N       E                     dE             d eps       ncg     rms          rms(c)
DAV:   1    -0.210482541506E+03   -0.10568E-08   -0.20154E-13 32580   0.428E-10    0.789E-05
DAV:   2    -0.210482541506E+03    0.35288E-09    0.95347E-13 32580   0.386E-10    0.789E-05
DAV:   3    -0.210482541506E+03   -0.23101E-09   -0.25154E-13 32580   0.317E-10    0.789E-05
DAV:   4    -0.210482541506E+03   -0.30013E-09   -0.53900E-13 32112   0.228E-10    0.789E-05
DAV:   5    -0.210482541506E+03    0.40927E-09   -0.49053E-13 32472   0.160E-10    0.789E-05
DAV:   6    -0.210482541506E+03    0.27285E-10   -0.48172E-13 32220   0.241E-10
  10 F= -.21048254E+03 E0= -.21048254E+03  d E =0.000000E+00
       N       E                     dE             d eps       ncg     rms          rms(c)
DAV:   1    -0.210482541506E+03   -0.10550E-09    0.44906E-13 32472   0.195E-10    0.789E-05
DAV:   2    -0.210482541505E+03    0.56752E-09   -0.10368E-12 32256   0.181E-10    0.789E-05
DAV:   3    -0.210482541506E+03   -0.58208E-09   -0.32171E-14 32472   0.296E-10    0.789E-05
DAV:   4    -0.210482541505E+03    0.62391E-09   -0.22475E-12 32292   0.244E-10    0.789E-05
DAV:   5    -0.210482541506E+03   -0.10186E-09   -0.25773E-13 32472   0.143E-10    0.789E-05
DAV:   6    -0.210482541506E+03   -0.69485E-09   -0.84920E-13 32292   0.191E-10
  11 F= -.21048254E+03 E0= -.21048254E+03  d E =0.000000E+00
       N       E                     dE             d eps       ncg     rms          rms(c)
DAV:   1    -0.210482541505E+03    0.50204E-09   -0.10457E-12 32472   0.153E-10    0.789E-05
DAV:   2    -0.210482541505E+03   -0.27103E-09   -0.14547E-12 32436   0.453E-10    0.789E-05
DAV:   3    -0.210482541505E+03   -0.87311E-10    0.25464E-13 32472   0.330E-10    0.789E-05
DAV:   4    -0.210482541505E+03    0.11278E-09   -0.35150E-13 31968   0.139E-10    0.789E-05
DAV:   5    -0.210482541505E+03    0.25648E-09    0.21722E-14 32256   0.223E-10    0.789E-05
DAV:   6    -0.210482541506E+03   -0.76579E-09   -0.44329E-13 31932   0.351E-10
  12 F= -.21048254E+03 E0= -.21048254E+03  d E =0.000000E+00
       N       E                     dE             d eps       ncg     rms          rms(c)
DAV:   1    -0.210482541506E+03   -0.55115E-09   -0.93568E-13 31968   0.252E-10    0.789E-05
DAV:   2    -0.210482541506E+03   -0.50204E-09    0.15115E-13 31788   0.233E-10    0.789E-05
DAV:   3    -0.210482541506E+03    0.24738E-09   -0.64217E-13 31932   0.381E-10    0.789E-05
DAV:   4    -0.210482541506E+03   -0.32742E-10    0.49436E-13 31824   0.195E-10    0.789E-05
DAV:   5    -0.210482541506E+03   -0.10732E-09    0.73309E-13 31824   0.196E-10    0.789E-05
DAV:   6    -0.210482541506E+03    0.30923E-10   -0.11947E-13 31644   0.247E-10
  13 F= -.21048254E+03 E0= -.21048254E+03  d E =0.000000E+00
       N       E                     dE             d eps       ncg     rms          rms(c)
DAV:   1    -0.210482541505E+03    0.66393E-09    0.39183E-13 31716   0.268E-10    0.789E-05
DAV:   2    -0.210482541506E+03   -0.78762E-09   -0.41409E-13 31644   0.231E-10    0.789E-05
DAV:   3    -0.210482541506E+03    0.28376E-09   -0.19311E-13 31716   0.288E-10    0.789E-05
DAV:   4    -0.210482541506E+03    0.13279E-09   -0.45428E-16 31572   0.230E-10    0.789E-05
DAV:   5    -0.210482541506E+03   -0.50932E-09   -0.12345E-13 31716   0.284E-10    0.789E-05
DAV:   6    -0.210482541506E+03    0.43838E-09   -0.70799E-13 31572   0.195E-10
  14 F= -.21048254E+03 E0= -.21048254E+03  d E =0.000000E+00
       N       E                     dE             d eps       ncg     rms          rms(c)
DAV:   1    -0.210482541506E+03    0.34015E-09   -0.84961E-13 31716   0.142E-10    0.789E-05
DAV:   2    -0.210482541506E+03    0.87311E-10    0.49077E-13 31608   0.165E-10    0.789E-05
DAV:   3    -0.210482541506E+03    0.45475E-10    0.39447E-13 31644   0.325E-10    0.789E-05
DAV:   4    -0.210482541505E+03    0.55479E-09   -0.23219E-13 31608   0.184E-10    0.789E-05
DAV:   5    -0.210482541506E+03   -0.78217E-09   -0.55738E-14 31608   0.192E-10    0.789E-05
DAV:   6    -0.210482541506E+03   -0.38381E-09    0.41220E-13 31608   0.353E-10
  15 F= -.21048254E+03 E0= -.21048254E+03  d E =0.000000E+00
       N       E                     dE             d eps       ncg     rms          rms(c)
DAV:   1    -0.210482541506E+03    0.43838E-09   -0.18636E-12 31608   0.336E-10    0.789E-05
DAV:   2    -0.210482541505E+03    0.41473E-09   -0.36915E-13 31536   0.411E-10    0.789E-05
DAV:   3    -0.210482541506E+03   -0.54570E-09    0.28068E-13 31500   0.374E-10    0.789E-05
DAV:   4    -0.210482541506E+03    0.63665E-10    0.82518E-14 31500   0.160E-10    0.789E-05
DAV:   5    -0.210482541505E+03    0.12733E-09   -0.82516E-14 31500   0.203E-10    0.789E-05
DAV:   6    -0.210482541506E+03   -0.14552E-09    0.87691E-13 31500   0.118E-10
  16 F= -.21048254E+03 E0= -.21048254E+03  d E =0.000000E+00
       N       E                     dE             d eps       ncg     rms          rms(c)
DAV:   1    -0.210482541506E+03   -0.20373E-09   -0.18199E-12 31500   0.328E-10    0.789E-05
DAV:   2    -0.210482541505E+03    0.28740E-09   -0.81253E-13 31500   0.304E-10    0.789E-05
DAV:   3    -0.210482541506E+03   -0.89494E-09    0.86457E-13 31500   0.237E-10    0.789E-05
DAV:   4    -0.210482541506E+03    0.69303E-09    0.21402E-13 31428   0.173E-10    0.789E-05
DAV:   5    -0.210482541505E+03    0.54024E-09   -0.37804E-13 31392   0.245E-10    0.789E-05
DAV:   6    -0.210482541505E+03   -0.34015E-09    0.12348E-12 31392   0.162E-10
  17 F= -.21048254E+03 E0= -.21048254E+03  d E =0.000000E+00
       N       E                     dE             d eps       ncg     rms          rms(c)
DAV:   1    -0.210482541506E+03   -0.55843E-09    0.88561E-13 31392   0.183E-10    0.789E-05
DAV:   2    -0.210482541506E+03   -0.42019E-09   -0.15548E-12 31392   0.333E-10    0.789E-05
DAV:   3    -0.210482541506E+03    0.35470E-09    0.16829E-13 31392   0.268E-10    0.789E-05
DAV:   4    -0.210482541506E+03   -0.30377E-09    0.83929E-13 31392   0.182E-10    0.789E-05
DAV:   5    -0.210482541505E+03    0.70941E-09    0.17706E-13 31392   0.115E-10    0.789E-05
DAV:   6    -0.210482541506E+03   -0.86584E-09    0.81113E-13 31392   0.207E-10
  18 F= -.21048254E+03 E0= -.21048254E+03  d E =0.000000E+00
       N       E                     dE             d eps       ncg     rms          rms(c)
DAV:   1    -0.210482541506E+03   -0.34379E-09    0.91658E-13 31392   0.282E-10    0.789E-05
DAV:   2    -0.210482541506E+03   -0.58208E-10    0.68814E-13 31392   0.203E-10    0.789E-05
DAV:   3    -0.210482541506E+03    0.92768E-10    0.18725E-15 31392   0.119E-10    0.789E-05
DAV:   4    -0.210482541505E+03    0.72760E-10    0.93107E-13 31392   0.127E-10    0.789E-05
DAV:   5    -0.210482541505E+03    0.60027E-10   -0.16359E-13 31356   0.240E-10    0.789E-05
DAV:   6    -0.210482541506E+03   -0.62209E-09   -0.64964E-13 31284   0.349E-10
  19 F= -.21048254E+03 E0= -.21048254E+03  d E =0.000000E+00
       N       E                     dE             d eps       ncg     rms          rms(c)
DAV:   1    -0.210482541506E+03   -0.58571E-09   -0.15893E-12 31284   0.265E-10    0.789E-05
DAV:   2    -0.210482541506E+03    0.15643E-09    0.14420E-12 31284   0.221E-10    0.789E-05
DAV:   3    -0.210482541506E+03    0.27649E-09    0.50490E-13 31284   0.157E-10    0.789E-05
DAV:   4    -0.210482541506E+03   -0.34743E-09   -0.12799E-12 31248   0.369E-10    0.789E-05
DAV:   5    -0.210482541506E+03    0.32378E-09   -0.88489E-13 31284   0.359E-10    0.789E-05
DAV:   6    -0.210482541507E+03   -0.91131E-09   -0.12614E-12 31248   0.170E-10
  20 F= -.21048254E+03 E0= -.21048254E+03  d E =0.000000E+00
       N       E                     dE             d eps       ncg     rms          rms(c)
DAV:   1    -0.210482541505E+03    0.22555E-09    0.27765E-13 31284   0.190E-10    0.789E-05
DAV:   2    -0.210482541505E+03    0.20736E-09    0.43993E-13 31284   0.351E-10    0.789E-05
DAV:   3    -0.210482541505E+03   -0.16371E-09   -0.37450E-14 31284   0.326E-10    0.789E-05
DAV:   4    -0.210482541506E+03   -0.30559E-09   -0.30887E-13 31212   0.278E-10    0.789E-05
DAV:   5    -0.210482541506E+03   -0.24738E-09    0.19135E-16 31176   0.158E-10    0.789E-05
DAV:   6    -0.210482541505E+03    0.72032E-09    0.11917E-13 31176   0.183E-10
  21 F= -.21048254E+03 E0= -.21048254E+03  d E =0.000000E+00
       N       E                     dE             d eps       ncg     rms          rms(c)
DAV:   1    -0.210482541505E+03    0.42928E-09    0.14971E-13 31176   0.219E-10    0.789E-05
DAV:   2    -0.210482541506E+03   -0.17280E-09   -0.72892E-13 31176   0.169E-10    0.789E-05
DAV:   3    -0.210482541506E+03   -0.72760E-11   -0.30818E-14 31176   0.243E-10    0.789E-05
DAV:   4    -0.210482541506E+03   -0.24556E-09   -0.58207E-13 31140   0.272E-10    0.789E-05
DAV:   5    -0.210482541506E+03    0.28376E-09   -0.56841E-13 31176   0.230E-10    0.789E-05
DAV:   6    -0.210482541506E+03   -0.50022E-09    0.10723E-12 31176   0.158E-10
  22 F= -.21048254E+03 E0= -.21048254E+03  d E =0.000000E+00
       N       E                     dE             d eps       ncg     rms          rms(c)
DAV:   1    -0.210482541505E+03    0.36744E-09   -0.10900E-12 31176   0.157E-10    0.789E-05
DAV:   2    -0.210482541505E+03    0.21282E-09   -0.34363E-13 31104   0.198E-10    0.789E-05
DAV:   3    -0.210482541506E+03   -0.65847E-09   -0.64918E-13 31068   0.213E-10    0.789E-05
DAV:   4    -0.210482541506E+03   -0.23647E-09   -0.19270E-12 31068   0.161E-10    0.789E-05
DAV:   5    -0.210482541506E+03    0.27285E-10    0.39948E-13 31068   0.237E-10    0.789E-05
DAV:   6    -0.210482541505E+03    0.38926E-09   -0.95368E-13 31068   0.249E-10
  23 F= -.21048254E+03 E0= -.21048254E+03  d E =0.000000E+00
       N       E                     dE             d eps       ncg     rms          rms(c)
DAV:   1    -0.210482541506E+03    0.13824E-09   -0.13882E-12 31068   0.216E-10    0.789E-05
DAV:   2    -0.210482541506E+03   -0.15461E-09   -0.36622E-13 31068   0.308E-10    0.789E-05
DAV:   3    -0.210482541506E+03    0.37835E-09   -0.41389E-13 31068   0.234E-10    0.789E-05
DAV:   4    -0.210482541506E+03   -0.23829E-09    0.21372E-13 31068   0.188E-10    0.789E-05
DAV:   5    -0.210482541506E+03   -0.78217E-10    0.15065E-12 31068   0.333E-10    0.789E-05
DAV:   6    -0.210482541506E+03   -0.48567E-09   -0.12332E-12 31068   0.132E-10
  24 F= -.21048254E+03 E0= -.21048254E+03  d E =0.000000E+00
       N       E                     dE             d eps       ncg     rms          rms(c)
DAV:   1    -0.210482541506E+03   -0.18554E-09    0.19396E-13 31068   0.387E-10    0.789E-05
DAV:   2    -0.210482541505E+03    0.55479E-09    0.10189E-12 31068   0.219E-10    0.789E-05
DAV:   3    -0.210482541506E+03   -0.27103E-09   -0.18752E-12 31068   0.232E-10    0.789E-05
DAV:   4    -0.210482541506E+03    0.92768E-10    0.17185E-13 31068   0.253E-10    0.789E-05
DAV:   5    -0.210482541506E+03   -0.30559E-09    0.25192E-13 31068   0.227E-10    0.789E-05
DAV:   6    -0.210482541506E+03    0.16189E-09   -0.67940E-13 31068   0.157E-10
  25 F= -.21048254E+03 E0= -.21048254E+03  d E =0.000000E+00
       N       E                     dE             d eps       ncg     rms          rms(c)
DAV:   1    -0.210482541506E+03    0.37653E-09   -0.37539E-13 31068   0.174E-10    0.789E-05
DAV:   2    -0.210482541506E+03   -0.13279E-09   -0.16152E-13 31068   0.161E-10    0.789E-05
DAV:   3    -0.210482541505E+03    0.27467E-09    0.81465E-13 31068   0.164E-10    0.789E-05
DAV:   4    -0.210482541506E+03   -0.21464E-09   -0.28004E-13 31068   0.272E-10    0.789E-05
DAV:   5    -0.210482541506E+03    0.12005E-09   -0.89803E-13 31068   0.119E-10    0.789E-05
DAV:   6    -0.210482541506E+03   -0.56752E-09   -0.76114E-13 31032   0.184E-10
  26 F= -.21048254E+03 E0= -.21048254E+03  d E =0.000000E+00
       N       E                     dE             d eps       ncg     rms          rms(c)
DAV:   1    -0.210482541506E+03   -0.13824E-09    0.32083E-13 30960   0.179E-10    0.789E-05
DAV:   2    -0.210482541505E+03    0.42746E-09   -0.16305E-12 30960   0.213E-10    0.789E-05
DAV:   3    -0.210482541506E+03   -0.52751E-09    0.10348E-12 30960   0.227E-10    0.789E-05
DAV:   4    -0.210482541506E+03   -0.25830E-09   -0.80405E-13 30960   0.204E-10    0.789E-05
DAV:   5    -0.210482541506E+03    0.39654E-09   -0.48943E-13 30960   0.131E-10    0.789E-05
DAV:   6    -0.210482541506E+03   -0.15825E-09   -0.52605E-13 30960   0.211E-10
  27 F= -.21048254E+03 E0= -.21048254E+03  d E =0.000000E+00
       N       E                     dE             d eps       ncg     rms          rms(c)
DAV:   1    -0.210482541505E+03    0.20736E-09   -0.44052E-13 30960   0.181E-10    0.789E-05
DAV:   2    -0.210482541506E+03   -0.82400E-09    0.17317E-14 30960   0.254E-10    0.789E-05
DAV:   3    -0.210482541506E+03   -0.96406E-10    0.34324E-13 30960   0.334E-10    0.789E-05
DAV:   4    -0.210482541506E+03    0.82036E-09    0.10913E-12 30960   0.322E-10    0.789E-05
DAV:   5    -0.210482541505E+03    0.96406E-10   -0.41527E-14 30960   0.177E-10    0.789E-05
DAV:   6    -0.210482541506E+03   -0.46384E-09    0.75532E-13 30960   0.237E-10
  28 F= -.21048254E+03 E0= -.21048254E+03  d E =0.000000E+00
       N       E                     dE             d eps       ncg     rms          rms(c)
DAV:   1    -0.210482541506E+03   -0.89858E-09    0.11141E-13 30960   0.391E-10    0.789E-05
DAV:   2    -0.210482541506E+03    0.49295E-09   -0.62369E-13 30960   0.398E-10    0.789E-05
DAV:   3    -0.210482541506E+03    0.90949E-11   -0.95146E-14 30960   0.266E-10    0.789E-05
DAV:   4    -0.210482541506E+03   -0.85493E-10   -0.53936E-13 30960   0.247E-10    0.789E-05
DAV:   5    -0.210482541506E+03   -0.15643E-09   -0.15883E-12 30960   0.375E-10    0.789E-05
DAV:   6    -0.210482541506E+03    0.41473E-09    0.89356E-13 30960   0.169E-10
  29 F= -.21048254E+03 E0= -.21048254E+03  d E =0.000000E+00
       N       E                     dE             d eps       ncg     rms          rms(c)
DAV:   1    -0.210482541506E+03    0.47294E-10   -0.13610E-12 30960   0.127E-10    0.789E-05
DAV:   2    -0.210482541506E+03    0.47294E-10   -0.70942E-13 30960   0.268E-10    0.789E-05
DAV:   3    -0.210482541506E+03    0.39290E-09    0.15838E-12 30960   0.239E-10    0.789E-05
DAV:   4    -0.210482541506E+03   -0.29104E-10   -0.20376E-12 30960   0.288E-10    0.789E-05
DAV:   5    -0.210482541506E+03   -0.35652E-09    0.33395E-13 30960   0.279E-10    0.789E-05
DAV:   6    -0.210482541505E+03    0.69849E-09   -0.21560E-12 30960   0.278E-10
  30 F= -.21048254E+03 E0= -.21048254E+03  d E =0.000000E+00
       N       E                     dE             d eps       ncg     rms          rms(c)
DAV:   1    -0.210482541505E+03    0.83674E-09   -0.10487E-12 30960   0.198E-10    0.789E-05
DAV:   2    -0.210482541506E+03   -0.79490E-09   -0.66694E-13 30960   0.474E-10    0.789E-05
DAV:   3    -0.210482541505E+03    0.74579E-09   -0.12251E-13 30960   0.351E-10    0.789E-05
DAV:   4    -0.210482541505E+03   -0.18190E-10   -0.59263E-13 30960   0.247E-10    0.789E-05
DAV:   5    -0.210482541506E+03   -0.80581E-09   -0.18799E-12 30960   0.260E-10    0.789E-05
DAV:   6    -0.210482541506E+03   -0.16917E-09   -0.91250E-13 30960   0.321E-10
  31 F= -.21048254E+03 E0= -.21048254E+03  d E =0.000000E+00
       N       E                     dE             d eps       ncg     rms          rms(c)
DAV:   1    -0.210482541506E+03   -0.38926E-09   -0.10555E-12 30960   0.260E-10    0.789E-05
DAV:   2    -0.210482541506E+03    0.60027E-10    0.11360E-12 30960   0.336E-10    0.789E-05
DAV:   3    -0.210482541506E+03    0.50568E-09   -0.45674E-13 30960   0.228E-10    0.789E-05
DAV:   4    -0.210482541505E+03    0.76398E-09   -0.62337E-13 30960   0.250E-10    0.789E-05
DAV:   5    -0.210482541506E+03   -0.11642E-08   -0.11967E-12 30960   0.196E-10    0.789E-05
DAV:   6    -0.210482541506E+03    0.67303E-09   -0.10463E-12 30960   0.196E-10
  32 F= -.21048254E+03 E0= -.21048254E+03  d E =0.000000E+00
       N       E                     dE             d eps       ncg     rms          rms(c)
DAV:   1    -0.210482541505E+03    0.91313E-09   -0.10723E-12 30960   0.409E-10    0.789E-05
DAV:   2    -0.210482541506E+03   -0.60209E-09   -0.38771E-13 30960   0.532E-10    0.789E-05
DAV:   3    -0.210482541506E+03    0.89130E-10   -0.95258E-13 30960   0.372E-10    0.789E-05
DAV:   4    -0.210482541505E+03    0.37835E-09   -0.44561E-13 30960   0.222E-10    0.789E-05
DAV:   5    -0.210482541506E+03   -0.51114E-09   -0.35654E-14 30960   0.165E-10    0.789E-05
DAV:   6    -0.210482541506E+03   -0.14734E-09    0.56592E-13 30960   0.323E-10
  33 F= -.21048254E+03 E0= -.21048254E+03  d E =0.000000E+00
       N       E                     dE             d eps       ncg     rms          rms(c)
DAV:   1    -0.210482541506E+03   -0.15280E-09   -0.14346E-13 30960   0.205E-10    0.789E-05
DAV:   2    -0.210482541506E+03   -0.56389E-10    0.99410E-13 30960   0.261E-10    0.789E-05
DAV:   3    -0.210482541506E+03    0.24374E-09    0.38612E-13 30960   0.287E-10    0.789E-05
DAV:   4    -0.210482541506E+03    0.11823E-09   -0.50464E-13 30960   0.130E-10    0.789E-05
DAV:   5    -0.210482541506E+03    0.90949E-11   -0.13405E-12 30960   0.112E-10    0.789E-05
DAV:   6    -0.210482541506E+03   -0.39290E-09   -0.40600E-13 30960   0.167E-10
  34 F= -.21048254E+03 E0= -.21048254E+03  d E =0.000000E+00
       N       E                     dE             d eps       ncg     rms          rms(c)
DAV:   1    -0.210482541507E+03   -0.72214E-09   -0.60162E-13 30960   0.244E-10    0.789E-05
DAV:   2    -0.210482541506E+03    0.93132E-09   -0.11625E-12 30960   0.360E-10    0.789E-05
DAV:   3    -0.210482541505E+03    0.83674E-10   -0.48148E-13 30960   0.363E-10    0.789E-05
DAV:   4    -0.210482541505E+03    0.54570E-11   -0.70830E-13 30960   0.250E-10    0.789E-05
DAV:   5    -0.210482541505E+03    0.21828E-10   -0.12840E-12 30960   0.289E-10    0.789E-05
DAV:   6    -0.210482541506E+03   -0.96770E-09   -0.31846E-13 30960   0.216E-10
  35 F= -.21048254E+03 E0= -.21048254E+03  d E =0.000000E+00
       N       E                     dE             d eps       ncg     rms          rms(c)
DAV:   1    -0.210482541506E+03   -0.26739E-09   -0.13992E-12 30960   0.341E-10    0.789E-05
DAV:   2    -0.210482541505E+03    0.60754E-09   -0.94562E-13 30960   0.173E-10    0.789E-05
DAV:   3    -0.210482541506E+03   -0.87675E-09   -0.35545E-13 30960   0.328E-10    0.789E-05
DAV:   4    -0.210482541506E+03    0.28740E-09   -0.12839E-13 30960   0.264E-10    0.789E-05
DAV:   5    -0.210482541506E+03   -0.36380E-10    0.94257E-13 30960   0.127E-10    0.789E-05
DAV:   6    -0.210482541506E+03    0.12915E-09   -0.93275E-13 30960   0.262E-10
  36 F= -.21048254E+03 E0= -.21048254E+03  d E =0.000000E+00
       N       E                     dE             d eps       ncg     rms          rms(c)
DAV:   1    -0.210482541506E+03   -0.54752E-09   -0.18076E-12 30960   0.977E-11    0.789E-05
DAV:   2    -0.210482541506E+03    0.24011E-09   -0.11893E-12 30960   0.285E-10    0.789E-05
DAV:   3    -0.210482541506E+03    0.43656E-10    0.11007E-12 30960   0.211E-10    0.789E-05
DAV:   4    -0.210482541506E+03    0.20918E-09   -0.72910E-13 30960   0.315E-10    0.789E-05
DAV:   5    -0.210482541506E+03    0.30923E-09    0.75452E-13 30960   0.203E-10    0.789E-05
DAV:   6    -0.210482541505E+03    0.40745E-09    0.30096E-14 30960   0.256E-10
  37 F= -.21048254E+03 E0= -.21048254E+03  d E =0.000000E+00
       N       E                     dE             d eps       ncg     rms          rms(c)
DAV:   1    -0.210482541506E+03   -0.95497E-09   -0.17327E-12 30960   0.140E-10    0.789E-05
DAV:   2    -0.210482541506E+03    0.77489E-09   -0.78605E-13 30960   0.286E-10    0.789E-05
DAV:   3    -0.210482541506E+03   -0.14370E-09   -0.12406E-12 30960   0.213E-10    0.789E-05
DAV:   4    -0.210482541506E+03   -0.64756E-09   -0.54749E-13 30960   0.141E-10    0.789E-05
DAV:   5    -0.210482541506E+03    0.84401E-09   -0.63221E-13 30960   0.122E-10    0.789E-05
DAV:   6    -0.210482541506E+03   -0.84037E-09    0.30394E-13 30960   0.247E-10
  38 F= -.21048254E+03 E0= -.21048254E+03  d E =0.000000E+00
       N       E                     dE             d eps       ncg     rms          rms(c)
DAV:   1    -0.210482541506E+03   -0.69122E-09   -0.71243E-13 30960   0.221E-10    0.789E-05
DAV:   2    -0.210482541506E+03   -0.10914E-10   -0.96759E-13 30960   0.238E-10    0.789E-05
DAV:   3    -0.210482541505E+03    0.94587E-09    0.34036E-13 30960   0.180E-10    0.789E-05
DAV:   4    -0.210482541505E+03   -0.29104E-10   -0.14692E-12 30960   0.170E-10    0.789E-05
DAV:   5    -0.210482541506E+03   -0.92041E-09   -0.91035E-13 30960   0.249E-10    0.789E-05
DAV:   6    -0.210482541505E+03    0.13388E-08   -0.53808E-13 30960   0.222E-10
  39 F= -.21048254E+03 E0= -.21048254E+03  d E =0.000000E+00
       N       E                     dE             d eps       ncg     rms          rms(c)
DAV:   1    -0.210482541506E+03    0.50022E-09   -0.18411E-12 30960   0.235E-10    0.789E-05
DAV:   2    -0.210482541506E+03   -0.32742E-10   -0.10857E-12 30960   0.174E-10    0.789E-05
DAV:   3    -0.210482541506E+03    0.34925E-09   -0.11696E-12 30960   0.235E-10    0.789E-05
DAV:   4    -0.210482541505E+03    0.40927E-09   -0.36008E-13 30960   0.164E-10    0.789E-05
DAV:   5    -0.210482541506E+03   -0.86584E-09   -0.83971E-13 30960   0.198E-10    0.789E-05
DAV:   6    -0.210482541506E+03    0.21646E-09   -0.96862E-13 30960   0.192E-10
  40 F= -.21048254E+03 E0= -.21048254E+03  d E =0.000000E+00
       N       E                     dE             d eps       ncg     rms          rms(c)
DAV:   1    -0.210482541506E+03   -0.14552E-10   -0.27620E-13 30960   0.175E-10    0.789E-05
DAV:   2    -0.210482541505E+03    0.82400E-09   -0.40412E-13 30960   0.274E-10    0.789E-05
DAV:   3    -0.210482541505E+03   -0.17280E-09    0.56787E-13 30960   0.165E-10    0.789E-05
DAV:   4    -0.210482541506E+03   -0.11405E-08   -0.99971E-13 30960   0.158E-10    0.789E-05
DAV:   5    -0.210482541506E+03    0.26193E-09   -0.53591E-13 30960   0.157E-10    0.789E-05
DAV:   6    -0.210482541506E+03    0.20918E-09   -0.75287E-14 30960   0.232E-10
  41 F= -.21048254E+03 E0= -.21048254E+03  d E =0.000000E+00
       N       E                     dE             d eps       ncg     rms          rms(c)
DAV:   1    -0.210482541506E+03    0.45475E-09   -0.10673E-13 30960   0.274E-10    0.789E-05
DAV:   2    -0.210482541506E+03   -0.30377E-09   -0.86172E-13 30960   0.242E-10    0.789E-05
DAV:   3    -0.210482541506E+03    0.20009E-09    0.82494E-13 30960   0.282E-10    0.789E-05
DAV:   4    -0.210482541506E+03    0.11096E-09    0.50291E-13 30960   0.245E-10    0.789E-05
DAV:   5    -0.210482541505E+03    0.30559E-09   -0.21309E-14 30960   0.268E-10    0.789E-05
DAV:   6    -0.210482541505E+03    0.33106E-09   -0.90972E-13 30960   0.140E-10
  42 F= -.21048254E+03 E0= -.21048254E+03  d E =0.000000E+00
       N       E                     dE             d eps       ncg     rms          rms(c)
DAV:   1    -0.210482541505E+03    0.41837E-10   -0.16525E-12 30960   0.380E-10    0.789E-05
DAV:   2    -0.210482541506E+03   -0.34743E-09   -0.35304E-13 30960   0.221E-10    0.789E-05
DAV:   3    -0.210482541506E+03    0.23647E-10   -0.27908E-14 30960   0.251E-10    0.789E-05
DAV:   4    -0.210482541506E+03   -0.28194E-09   -0.22423E-13 30960   0.260E-10    0.789E-05
DAV:   5    -0.210482541506E+03    0.10368E-09   -0.81127E-13 30960   0.211E-10    0.789E-05
DAV:   6    -0.210482541506E+03   -0.94587E-10    0.16224E-12 30960   0.310E-10
  43 F= -.21048254E+03 E0= -.21048254E+03  d E =0.000000E+00
       N       E                     dE             d eps       ncg     rms          rms(c)
DAV:   1    -0.210482541506E+03   -0.36380E-11   -0.44691E-13 30960   0.373E-10    0.789E-05
DAV:   2    -0.210482541506E+03    0.16371E-10    0.10137E-12 30960   0.298E-10    0.789E-05
DAV:   3    -0.210482541506E+03   -0.81855E-10    0.11897E-13 30960   0.217E-10    0.789E-05
DAV:   4    -0.210482541505E+03    0.65666E-09   -0.81893E-13 30960   0.153E-10    0.789E-05
DAV:   5    -0.210482541505E+03   -0.15461E-09   -0.63783E-14 30960   0.153E-10    0.789E-05
DAV:   6    -0.210482541506E+03   -0.63665E-09   -0.12982E-12 30960   0.135E-10
  44 F= -.21048254E+03 E0= -.21048254E+03  d E =0.000000E+00
       N       E                     dE             d eps       ncg     rms          rms(c)
DAV:   1    -0.210482541505E+03    0.19463E-09    0.11717E-13 30960   0.168E-10    0.789E-05
DAV:   2    -0.210482541506E+03   -0.97862E-09   -0.11527E-12 30960   0.405E-10    0.789E-05
DAV:   3    -0.210482541505E+03    0.10914E-08   -0.16806E-13 30960   0.419E-10    0.789E-05
DAV:   4    -0.210482541506E+03   -0.46748E-09    0.12896E-13 30960   0.173E-10    0.789E-05
DAV:   5    -0.210482541506E+03   -0.19463E-09   -0.12347E-12 30960   0.174E-10    0.789E-05
DAV:   6    -0.210482541506E+03    0.23647E-09   -0.29170E-13 30960   0.191E-10
  45 F= -.21048254E+03 E0= -.21048254E+03  d E =0.000000E+00
       N       E                     dE             d eps       ncg     rms          rms(c)
DAV:   1    -0.210482541506E+03    0.22010E-09    0.63710E-13 30960   0.220E-10    0.789E-05
DAV:   2    -0.210482541505E+03    0.57844E-09    0.18168E-13 30960   0.179E-10    0.789E-05
DAV:   3    -0.210482541505E+03   -0.41109E-09   -0.91560E-13 30960   0.340E-10    0.789E-05
DAV:   4    -0.210482541505E+03    0.31832E-09   -0.42821E-13 30960   0.187E-10    0.789E-05
DAV:   5    -0.210482541506E+03   -0.84401E-09   -0.75407E-14 30960   0.206E-10    0.789E-05
DAV:   6    -0.210482541506E+03   -0.35106E-09    0.23236E-15 30960   0.232E-10
  46 F= -.21048254E+03 E0= -.21048254E+03  d E =0.000000E+00
       N       E                     dE             d eps       ncg     rms          rms(c)
DAV:   1    -0.210482541506E+03   -0.10914E-10   -0.27581E-13 30960   0.132E-10    0.789E-05
DAV:   2    -0.210482541505E+03    0.90949E-09    0.10304E-12 30960   0.294E-10    0.789E-05
DAV:   3    -0.210482541505E+03   -0.39654E-09   -0.14946E-12 30960   0.294E-10    0.789E-05
DAV:   4    -0.210482541506E+03   -0.31650E-09    0.20978E-13 30960   0.123E-10    0.789E-05
DAV:   5    -0.210482541505E+03    0.70577E-09    0.47827E-13 30960   0.180E-10    0.789E-05
DAV:   6    -0.210482541506E+03   -0.88949E-09    0.53854E-14 30960   0.112E-10
  47 F= -.21048254E+03 E0= -.21048254E+03  d E =0.000000E+00
       N       E                     dE             d eps       ncg     rms          rms(c)
DAV:   1    -0.210482541506E+03   -0.85674E-09    0.20491E-12 30960   0.281E-10    0.789E-05
DAV:   2    -0.210482541506E+03    0.20918E-09    0.17146E-13 30960   0.340E-10    0.789E-05
DAV:   3    -0.210482541506E+03    0.20918E-09   -0.19722E-13 30960   0.457E-10    0.789E-05
DAV:   4    -0.210482541506E+03   -0.17462E-09    0.66179E-13 30960   0.185E-10    0.789E-05
DAV:   5    -0.210482541505E+03    0.61300E-09    0.37956E-13 30960   0.289E-10    0.789E-05
DAV:   6    -0.210482541506E+03   -0.10114E-08    0.19293E-13 30960   0.142E-10
  48 F= -.21048254E+03 E0= -.21048254E+03  d E =0.000000E+00
       N       E                     dE             d eps       ncg     rms          rms(c)
DAV:   1    -0.210482541506E+03   -0.51841E-09   -0.48923E-14 30960   0.134E-10    0.789E-05
DAV:   2    -0.210482541507E+03   -0.92223E-09    0.44234E-13 30960   0.166E-10    0.789E-05
DAV:   3    -0.210482541506E+03    0.72214E-09   -0.89595E-13 30960   0.166E-10    0.789E-05
DAV:   4    -0.210482541506E+03    0.25284E-09   -0.62831E-14 30960   0.167E-10    0.789E-05
DAV:   5    -0.210482541505E+03    0.14370E-09   -0.48090E-13 30960   0.216E-10    0.789E-05
DAV:   6    -0.210482541506E+03   -0.26739E-09   -0.11835E-12 30960   0.219E-10
  49 F= -.21048254E+03 E0= -.21048254E+03  d E =0.000000E+00
       N       E                     dE             d eps       ncg     rms          rms(c)
DAV:   1    -0.210482541505E+03   -0.78217E-10    0.12648E-12 30960   0.334E-10    0.789E-05
DAV:   2    -0.210482541506E+03   -0.28740E-09   -0.87733E-13 30960   0.291E-10    0.789E-05
DAV:   3    -0.210482541506E+03   -0.71668E-09    0.13264E-12 30960   0.289E-10    0.789E-05
DAV:   4    -0.210482541506E+03    0.89312E-09   -0.58711E-13 30960   0.208E-10    0.789E-05
DAV:   5    -0.210482541506E+03   -0.67848E-09   -0.33181E-13 30960   0.279E-10    0.789E-05
DAV:   6    -0.210482541506E+03    0.69667E-09   -0.18242E-13 30960   0.224E-10
  50 F= -.21048254E+03 E0= -.21048254E+03  d E =0.000000E+00
       N       E                     dE             d eps       ncg     rms          rms(c)
DAV:   1    -0.210482541506E+03    0.51477E-09    0.80006E-13 30960   0.179E-10    0.789E-05
DAV:   2    -0.210482541506E+03   -0.11460E-09    0.82080E-13 30960   0.120E-10    0.789E-05
DAV:   3    -0.210482541506E+03   -0.50932E-10    0.66757E-13 30960   0.252E-10    0.789E-05
DAV:   4    -0.210482541506E+03    0.39290E-09    0.54343E-13 30960   0.263E-10    0.789E-05
DAV:   5    -0.210482541506E+03   -0.34925E-09   -0.21020E-13 30960   0.208E-10    0.789E-05
DAV:   6    -0.210482541506E+03   -0.87311E-10   -0.94583E-13 30960   0.408E-10
  51 F= -.21048254E+03 E0= -.21048254E+03  d E =0.000000E+00
       N       E                     dE             d eps       ncg     rms          rms(c)
DAV:   1    -0.210482541506E+03    0.12005E-09    0.48295E-13 30960   0.421E-10    0.789E-05
DAV:   2    -0.210482541506E+03   -0.70031E-09    0.75494E-13 30960   0.253E-10    0.789E-05
DAV:   3    -0.210482541505E+03    0.13570E-08   -0.51785E-13 30960   0.258E-10    0.789E-05
DAV:   4    -0.210482541507E+03   -0.14024E-08    0.52704E-13 30960   0.172E-10    0.789E-05
DAV:   5    -0.210482541506E+03    0.90949E-11   -0.29633E-14 30960   0.315E-10    0.789E-05
DAV:   6    -0.210482541506E+03    0.40018E-10   -0.60553E-13 30960   0.229E-10
  52 F= -.21048254E+03 E0= -.21048254E+03  d E =0.000000E+00
       N       E                     dE             d eps       ncg     rms          rms(c)
DAV:   1    -0.210482541506E+03    0.50022E-09   -0.38127E-13 30960   0.183E-10    0.789E-05
DAV:   2    -0.210482541505E+03    0.62209E-09    0.15719E-12 30960   0.243E-10    0.789E-05
DAV:   3    -0.210482541506E+03   -0.53478E-09   -0.13632E-13 30960   0.263E-10    0.789E-05
DAV:   4    -0.210482541506E+03    0.33288E-09    0.28501E-13 30960   0.311E-10    0.789E-05
DAV:   5    -0.210482541505E+03    0.81855E-10   -0.71160E-13 30960   0.328E-10    0.789E-05
DAV:   6    -0.210482541506E+03   -0.88949E-09   -0.74909E-13 30960   0.272E-10
  53 F= -.21048254E+03 E0= -.21048254E+03  d E =0.000000E+00
       N       E                     dE             d eps       ncg     rms          rms(c)
DAV:   1    -0.210482541506E+03   -0.59117E-09    0.20765E-13 30960   0.194E-10    0.789E-05
DAV:   2    -0.210482541506E+03   -0.36744E-09    0.57108E-14 30960   0.218E-10    0.789E-05
DAV:   3    -0.210482541506E+03    0.64938E-09   -0.56884E-13 30960   0.191E-10    0.789E-05
DAV:   4    -0.210482541506E+03    0.60027E-10   -0.55827E-13 30960   0.158E-10    0.789E-05
DAV:   5    -0.210482541506E+03    0.18008E-09   -0.13390E-12 30960   0.172E-10    0.789E-05
DAV:   6    -0.210482541506E+03   -0.73851E-09    0.40538E-13 30960   0.242E-10
  54 F= -.21048254E+03 E0= -.21048254E+03  d E =0.000000E+00
       N       E                     dE             d eps       ncg     rms          rms(c)
DAV:   1    -0.210482541505E+03    0.74579E-10   -0.28433E-13 30960   0.184E-10    0.789E-05
DAV:   2    -0.210482541505E+03    0.44929E-09   -0.16951E-12 30960   0.307E-10    0.789E-05
DAV:   3    -0.210482541505E+03   -0.16007E-09    0.69377E-13 30960   0.300E-10    0.789E-05
DAV:   4    -0.210482541505E+03    0.13097E-09   -0.18817E-13 30960   0.220E-10    0.789E-05
DAV:   5    -0.210482541505E+03   -0.60027E-10   -0.15277E-12 30960   0.327E-10    0.789E-05
DAV:   6    -0.210482541506E+03   -0.98225E-09   -0.83608E-13 30960   0.427E-10
  55 F= -.21048254E+03 E0= -.21048254E+03  d E =0.000000E+00
       N       E                     dE             d eps       ncg     rms          rms(c)
DAV:   1    -0.210482541505E+03   -0.37107E-09   -0.63689E-13 30960   0.322E-10    0.789E-05
DAV:   2    -0.210482541505E+03    0.43292E-09   -0.22053E-13 30960   0.255E-10    0.789E-05
DAV:   3    -0.210482541505E+03   -0.30923E-10   -0.16468E-12 30960   0.170E-10    0.789E-05
DAV:   4    -0.210482541505E+03   -0.37107E-09   -0.73386E-15 30960   0.222E-10    0.789E-05
DAV:   5    -0.210482541506E+03   -0.20009E-09   -0.11764E-12 30960   0.142E-10    0.789E-05
DAV:   6    -0.210482541506E+03   -0.43474E-09   -0.94099E-13 30960   0.128E-10
  56 F= -.21048254E+03 E0= -.21048254E+03  d E =0.000000E+00
       N       E                     dE             d eps       ncg     rms          rms(c)
DAV:   1    -0.210482541506E+03    0.67303E-10    0.10143E-12 30960   0.160E-10    0.789E-05
DAV:   2    -0.210482541506E+03   -0.11278E-09    0.10556E-12 30960   0.264E-10    0.789E-05
DAV:   3    -0.210482541506E+03   -0.30013E-09   -0.13541E-13 30960   0.191E-10    0.789E-05
DAV:   4    -0.210482541506E+03    0.67303E-10    0.38577E-13 30960   0.155E-10    0.789E-05
DAV:   5    -0.210482541506E+03    0.18736E-09    0.13400E-12 30960   0.227E-10    0.789E-05
DAV:   6    -0.210482541506E+03    0.20191E-09   -0.16251E-12 30960   0.177E-10
  57 F= -.21048254E+03 E0= -.21048254E+03  d E =0.000000E+00
       N       E                     dE             d eps       ncg     rms          rms(c)
DAV:   1    -0.210482541506E+03    0.10914E-09   -0.23487E-14 30960   0.236E-10    0.789E-05
DAV:   2    -0.210482541506E+03   -0.87311E-10   -0.18196E-13 30960   0.213E-10    0.789E-05
DAV:   3    -0.210482541506E+03    0.63665E-10   -0.10804E-13 30960   0.140E-10    0.789E-05
DAV:   4    -0.210482541505E+03    0.33469E-09    0.56067E-13 30960   0.192E-10    0.789E-05
DAV:   5    -0.210482541506E+03   -0.57298E-09   -0.15063E-13 30960   0.297E-10    0.789E-05
DAV:   6    -0.210482541505E+03    0.76579E-09   -0.44253E-13 30960   0.161E-10
  58 F= -.21048254E+03 E0= -.21048254E+03  d E =0.000000E+00
       N       E                     dE             d eps       ncg     rms          rms(c)
DAV:   1    -0.210482541506E+03    0.54570E-10    0.67511E-13 30960   0.215E-10    0.789E-05
DAV:   2    -0.210482541506E+03    0.14916E-09   -0.26761E-13 30960   0.298E-10    0.789E-05
DAV:   3    -0.210482541505E+03    0.22555E-09    0.22373E-14 30960   0.198E-10    0.789E-05
DAV:   4    -0.210482541506E+03   -0.78217E-09   -0.10539E-12 30960   0.127E-10    0.789E-05
DAV:   5    -0.210482541506E+03    0.57844E-09    0.32329E-13 30960   0.131E-10    0.789E-05
DAV:   6    -0.210482541506E+03    0.81855E-10   -0.30133E-14 30960   0.218E-10
  59 F= -.21048254E+03 E0= -.21048254E+03  d E =0.000000E+00
       N       E                     dE             d eps       ncg     rms          rms(c)
DAV:   1    -0.210482541506E+03   -0.40018E-10    0.11987E-12 30960   0.165E-10    0.789E-05
DAV:   2    -0.210482541506E+03   -0.53114E-09   -0.36625E-13 30960   0.348E-10    0.789E-05
DAV:   3    -0.210482541506E+03   -0.30923E-10    0.28079E-13 30960   0.266E-10    0.789E-05
DAV:   4    -0.210482541506E+03    0.44201E-09   -0.10684E-12 30960   0.121E-10    0.789E-05
DAV:   5    -0.210482541506E+03   -0.19099E-09    0.73309E-14 30960   0.173E-10    0.789E-05
DAV:   6    -0.210482541506E+03   -0.25466E-10    0.73912E-13 30960   0.299E-10
  60 F= -.21048254E+03 E0= -.21048254E+03  d E =0.000000E+00
       N       E                     dE             d eps       ncg     rms          rms(c)
DAV:   1    -0.210482541506E+03    0.18190E-10   -0.13613E-12 30960   0.197E-10    0.789E-05
DAV:   2    -0.210482541505E+03    0.96588E-09   -0.10154E-12 30960   0.207E-10    0.789E-05
DAV:   3    -0.210482541506E+03   -0.93496E-09   -0.38409E-13 30960   0.171E-10    0.789E-05
DAV:   4    -0.210482541506E+03   -0.30195E-09   -0.51011E-13 30960   0.129E-10    0.789E-05
DAV:   5    -0.210482541506E+03    0.20009E-10   -0.10916E-14 30960   0.220E-10    0.789E-05
DAV:   6    -0.210482541506E+03   -0.83674E-10   -0.28896E-12 30960   0.114E-10
  61 F= -.21048254E+03 E0= -.21048254E+03  d E =0.000000E+00
       N       E                     dE             d eps       ncg     rms          rms(c)
DAV:   1    -0.210482541506E+03    0.57298E-09   -0.13260E-12 30960   0.223E-10    0.789E-05
DAV:   2    -0.210482541505E+03    0.22010E-09   -0.34380E-13 30960   0.265E-10    0.789E-05
DAV:   3    -0.210482541506E+03   -0.43292E-09   -0.86116E-13 30960   0.295E-10    0.789E-05
DAV:   4    -0.210482541505E+03    0.45657E-09    0.60664E-13 30960   0.307E-10    0.789E-05
DAV:   5    -0.210482541507E+03   -0.10514E-08    0.23939E-13 30960   0.223E-10    0.789E-05
DAV:   6    -0.210482541506E+03    0.97862E-09   -0.52935E-13 30960   0.266E-10
  62 F= -.21048254E+03 E0= -.21048254E+03  d E =0.000000E+00
       N       E                     dE             d eps       ncg     rms          rms(c)
DAV:   1    -0.210482541506E+03    0.82946E-09    0.13216E-13 30960   0.168E-10    0.789E-05
DAV:   2    -0.210482541506E+03   -0.56389E-10    0.75175E-13 30960   0.253E-10    0.789E-05
DAV:   3    -0.210482541507E+03   -0.81309E-09   -0.15515E-13 30960   0.139E-10    0.789E-05
DAV:   4    -0.210482541506E+03    0.81309E-09   -0.39343E-15 30960   0.194E-10    0.789E-05
DAV:   5    -0.210482541506E+03    0.21282E-09    0.39200E-13 30960   0.182E-10    0.789E-05
DAV:   6    -0.210482541505E+03    0.24556E-09   -0.79751E-13 30960   0.140E-10
  63 F= -.21048254E+03 E0= -.21048254E+03  d E =0.000000E+00
       N       E                     dE             d eps       ncg     rms          rms(c)
DAV:   1    -0.210482541506E+03   -0.58390E-09    0.52821E-13 30960   0.249E-10    0.789E-05
DAV:   2    -0.210482541506E+03    0.18190E-10   -0.71682E-13 30960   0.230E-10    0.789E-05
DAV:   3    -0.210482541506E+03    0.46384E-09   -0.28059E-13 30960   0.181E-10    0.789E-05
DAV:   4    -0.210482541506E+03   -0.44201E-09    0.62051E-13 30960   0.240E-10    0.789E-05
DAV:   5    -0.210482541506E+03   -0.43656E-09   -0.56171E-13 30960   0.209E-10    0.789E-05
DAV:   6    -0.210482541506E+03    0.77125E-09   -0.56335E-14 30960   0.201E-10
  64 F= -.21048254E+03 E0= -.21048254E+03  d E =0.000000E+00
       N       E                     dE             d eps       ncg     rms          rms(c)
DAV:   1    -0.210482541506E+03    0.64392E-09   -0.59039E-13 30960   0.198E-10    0.789E-05
DAV:   2    -0.210482541506E+03   -0.16553E-09    0.53556E-13 30960   0.280E-10    0.789E-05
DAV:   3    -0.210482541505E+03    0.98589E-09   -0.14631E-12 30960   0.190E-10    0.789E-05
DAV:   4    -0.210482541506E+03   -0.64938E-09   -0.98832E-14 30960   0.200E-10    0.789E-05
DAV:   5    -0.210482541506E+03   -0.36016E-09    0.55378E-13 30960   0.168E-10    0.789E-05
DAV:   6    -0.210482541506E+03    0.49840E-09   -0.25749E-13 30960   0.205E-10
  65 F= -.21048254E+03 E0= -.21048254E+03  d E =0.000000E+00
       N       E                     dE             d eps       ncg     rms          rms(c)
DAV:   1    -0.210482541505E+03    0.54206E-09    0.42178E-13 30960   0.179E-10    0.789E-05
DAV:   2    -0.210482541506E+03   -0.58208E-10   -0.36849E-13 30960   0.267E-10    0.789E-05
DAV:   3    -0.210482541505E+03    0.14006E-09   -0.88481E-13 30960   0.194E-10    0.789E-05
DAV:   4    -0.210482541505E+03   -0.18190E-10   -0.16503E-13 30960   0.137E-10    0.789E-05
DAV:   5    -0.210482541505E+03    0.40018E-10    0.66653E-13 30960   0.124E-10    0.789E-05
DAV:   6    -0.210482541506E+03   -0.95497E-09    0.70987E-13 30960   0.182E-10
  66 F= -.21048254E+03 E0= -.21048254E+03  d E =0.000000E+00
       N       E                     dE             d eps       ncg     rms          rms(c)
DAV:   1    -0.210482541506E+03   -0.12369E-09   -0.64986E-13 30960   0.207E-10    0.789E-05
DAV:   2    -0.210482541506E+03   -0.37653E-09   -0.90174E-13 30960   0.226E-10    0.789E-05
DAV:   3    -0.210482541506E+03   -0.20373E-09   -0.66032E-13 30960   0.138E-10    0.789E-05
DAV:   4    -0.210482541507E+03   -0.44747E-09   -0.59391E-13 30960   0.228E-10    0.789E-05
DAV:   5    -0.210482541506E+03    0.80036E-09    0.72593E-14 30960   0.213E-10    0.789E-05
DAV:   6    -0.210482541506E+03   -0.27285E-09    0.16016E-13 30960   0.213E-10
  67 F= -.21048254E+03 E0= -.21048254E+03  d E =0.000000E+00
       N       E                     dE             d eps       ncg     rms          rms(c)
DAV:   1    -0.210482541506E+03    0.43656E-10   -0.37781E-13 30960   0.270E-10    0.789E-05
DAV:   2    -0.210482541506E+03   -0.34743E-09   -0.43812E-13 30960   0.203E-10    0.789E-05
DAV:   3    -0.210482541506E+03    0.39290E-09   -0.15730E-12 30960   0.138E-10    0.789E-05
DAV:   4    -0.210482541505E+03    0.51114E-09   -0.61581E-14 30960   0.211E-10    0.789E-05
DAV:   5    -0.210482541505E+03   -0.87311E-10   -0.38161E-13 30960   0.146E-10    0.789E-05
DAV:   6    -0.210482541505E+03    0.78217E-10    0.23218E-13 30960   0.168E-10
  68 F= -.21048254E+03 E0= -.21048254E+03  d E =0.000000E+00
       N       E                     dE             d eps       ncg     rms          rms(c)
DAV:   1    -0.210482541506E+03   -0.43656E-09   -0.12324E-12 30960   0.228E-10    0.789E-05
DAV:   2    -0.210482541505E+03    0.70577E-09    0.72782E-13 30960   0.178E-10    0.789E-05
DAV:   3    -0.210482541506E+03   -0.14552E-08    0.15525E-12 30960   0.125E-10    0.789E-05
DAV:   4    -0.210482541506E+03    0.43292E-09   -0.60395E-13 30960   0.196E-10    0.789E-05
DAV:   5    -0.210482541505E+03    0.74760E-09    0.13408E-12 30960   0.167E-10    0.789E-05
DAV:   6    -0.210482541505E+03   -0.11642E-09   -0.55218E-13 30960   0.148E-10
  69 F= -.21048254E+03 E0= -.21048254E+03  d E =0.000000E+00
       N       E                     dE             d eps       ncg     rms          rms(c)
DAV:   1    -0.210482541505E+03   -0.19645E-09    0.21561E-13 30960   0.213E-10    0.789E-05
DAV:   2    -0.210482541505E+03   -0.47294E-10   -0.12638E-13 30960   0.159E-10    0.789E-05
DAV:   3    -0.210482541506E+03   -0.46384E-09   -0.77226E-13 30960   0.192E-10    0.789E-05
DAV:   4    -0.210482541506E+03    0.20009E-09   -0.19529E-13 30960   0.228E-10    0.789E-05
DAV:   5    -0.210482541506E+03   -0.29104E-10   -0.23179E-13 30960   0.189E-10    0.789E-05
DAV:   6    -0.210482541506E+03    0.19827E-09    0.30176E-13 30960   0.253E-10
  70 F= -.21048254E+03 E0= -.21048254E+03  d E =0.000000E+00
       N       E                     dE             d eps       ncg     rms          rms(c)
DAV:   1    -0.210482541506E+03   -0.39654E-09    0.49371E-13 30960   0.280E-10    0.789E-05
DAV:   2    -0.210482541506E+03   -0.16371E-09    0.42803E-13 30960   0.305E-10    0.789E-05
DAV:   3    -0.210482541506E+03    0.48931E-09   -0.36874E-13 30960   0.245E-10    0.789E-05
DAV:   4    -0.210482541506E+03   -0.85493E-10   -0.56840E-13 30960   0.212E-10    0.789E-05
DAV:   5    -0.210482541506E+03    0.39290E-09   -0.40014E-13 30960   0.224E-10    0.789E-05
DAV:   6    -0.210482541505E+03    0.44747E-09   -0.67090E-13 30960   0.269E-10
  71 F= -.21048254E+03 E0= -.21048254E+03  d E =0.000000E+00
       N       E                     dE             d eps       ncg     rms          rms(c)
DAV:   1    -0.210482541506E+03   -0.86766E-09   -0.24601E-12 30960   0.179E-10    0.789E-05
DAV:   2    -0.210482541505E+03    0.96225E-09   -0.83843E-13 30960   0.277E-10    0.789E-05
DAV:   3    -0.210482541506E+03   -0.33651E-09    0.21108E-13 30960   0.446E-10    0.789E-05
DAV:   4    -0.210482541506E+03   -0.22010E-09   -0.28720E-13 30960   0.290E-10    0.789E-05
DAV:   5    -0.210482541506E+03   -0.38381E-09   -0.20928E-12 30960   0.118E-10    0.789E-05
DAV:   6    -0.210482541507E+03   -0.15643E-09   -0.11254E-12 30960   0.150E-10
  72 F= -.21048254E+03 E0= -.21048254E+03  d E =0.000000E+00
       N       E                     dE             d eps       ncg     rms          rms(c)
DAV:   1    -0.210482541506E+03    0.00000E+00   -0.26796E-13 30960   0.156E-10    0.789E-05
DAV:   2    -0.210482541506E+03   -0.89130E-10   -0.69342E-13 30960   0.249E-10    0.789E-05
DAV:   3    -0.210482541505E+03    0.10932E-08    0.24341E-13 30960   0.200E-10    0.789E-05
DAV:   4    -0.210482541506E+03   -0.61482E-09   -0.91721E-13 30960   0.270E-10    0.789E-05
DAV:   5    -0.210482541506E+03   -0.48385E-09    0.53108E-13 30960   0.218E-10    0.789E-05
DAV:   6    -0.210482541506E+03    0.48021E-09   -0.79805E-13 30960   0.253E-10
  73 F= -.21048254E+03 E0= -.21048254E+03  d E =0.000000E+00
       N       E                     dE             d eps       ncg     rms          rms(c)
DAV:   1    -0.210482541505E+03    0.10514E-08   -0.11245E-12 30960   0.320E-10    0.789E-05
DAV:   2    -0.210482541505E+03    0.33469E-09   -0.83607E-13 30960   0.425E-10    0.789E-05
DAV:   3    -0.210482541505E+03   -0.34379E-09    0.12485E-13 30960   0.330E-10    0.789E-05
DAV:   4    -0.210482541506E+03   -0.31832E-09   -0.43693E-13 30960   0.170E-10    0.789E-05
DAV:   5    -0.210482541506E+03   -0.73669E-09   -0.98419E-14 30960   0.205E-10    0.789E-05
DAV:   6    -0.210482541506E+03    0.36925E-09    0.50043E-13 30960   0.174E-10
  74 F= -.21048254E+03 E0= -.21048254E+03  d E =0.000000E+00
       N       E                     dE             d eps       ncg     rms          rms(c)
DAV:   1    -0.210482541505E+03    0.13606E-08    0.11152E-12 30960   0.253E-10    0.789E-05
DAV:   2    -0.210482541505E+03   -0.10186E-09   -0.14351E-12 30960   0.362E-10    0.789E-05
DAV:   3    -0.210482541506E+03   -0.75306E-09   -0.60609E-13 30960   0.187E-10    0.789E-05
DAV:   4    -0.210482541505E+03    0.83492E-09   -0.78188E-13 30960   0.172E-10    0.789E-05
DAV:   5    -0.210482541505E+03    0.78217E-10   -0.72665E-13 30960   0.210E-10    0.789E-05
DAV:   6    -0.210482541505E+03   -0.17099E-09   -0.61067E-13 30960   0.268E-10
  75 F= -.21048254E+03 E0= -.21048254E+03  d E =0.000000E+00
       N       E                     dE             d eps       ncg     rms          rms(c)
DAV:   1    -0.210482541506E+03   -0.89130E-09   -0.43946E-13 30960   0.202E-10    0.789E-05
DAV:   2    -0.210482541505E+03    0.81127E-09    0.54269E-13 30960   0.279E-10    0.789E-05
DAV:   3    -0.210482541505E+03   -0.58208E-10   -0.84205E-13 30960   0.279E-10    0.789E-05
DAV:   4    -0.210482541505E+03    0.67303E-10   -0.73110E-13 30960   0.288E-10    0.789E-05
DAV:   5    -0.210482541506E+03   -0.53114E-09   -0.51261E-13 30960   0.335E-10    0.789E-05
DAV:   6    -0.210482541506E+03   -0.12005E-09   -0.14003E-12 30960   0.243E-10
  76 F= -.21048254E+03 E0= -.21048254E+03  d E =0.000000E+00
       N       E                     dE             d eps       ncg     rms          rms(c)
DAV:   1    -0.210482541506E+03   -0.19281E-09    0.25522E-13 30960   0.240E-10    0.789E-05
DAV:   2    -0.210482541506E+03   -0.59481E-09   -0.56701E-13 30960   0.211E-10    0.789E-05
DAV:   3    -0.210482541505E+03    0.11642E-08   -0.13955E-12 30960   0.164E-10    0.789E-05
DAV:   4    -0.210482541506E+03   -0.57298E-09   -0.13718E-12 30960   0.155E-10    0.789E-05
DAV:   5    -0.210482541506E+03    0.20373E-09   -0.80395E-14 30960   0.150E-10    0.789E-05
DAV:   6    -0.210482541505E+03    0.47476E-09    0.42182E-13 30960   0.266E-10
  77 F= -.21048254E+03 E0= -.21048254E+03  d E =0.000000E+00
       N       E                     dE             d eps       ncg     rms          rms(c)
DAV:   1    -0.210482541506E+03   -0.45657E-09   -0.33354E-13 30960   0.148E-10    0.789E-05
DAV:   2    -0.210482541506E+03   -0.20009E-10   -0.18285E-12 30960   0.180E-10    0.789E-05
DAV:   3    -0.210482541506E+03    0.46748E-09    0.13128E-13 30960   0.172E-10    0.789E-05
DAV:   4    -0.210482541506E+03   -0.76943E-09   -0.10001E-12 30960   0.219E-10    0.789E-05
DAV:   5    -0.210482541505E+03    0.12369E-08   -0.58351E-13 30960   0.206E-10    0.789E-05
DAV:   6    -0.210482541506E+03   -0.85129E-09   -0.61714E-13 30960   0.216E-10
  78 F= -.21048254E+03 E0= -.21048254E+03  d E =0.000000E+00
       N       E                     dE             d eps       ncg     rms          rms(c)
DAV:   1    -0.210482541506E+03   -0.87493E-09   -0.22190E-12 30960   0.134E-10    0.789E-05
DAV:   2    -0.210482541505E+03    0.10186E-08   -0.17926E-12 30960   0.199E-10    0.789E-05
DAV:   3    -0.210482541506E+03   -0.89130E-09   -0.12253E-12 30960   0.193E-10    0.789E-05
DAV:   4    -0.210482541506E+03    0.20918E-09   -0.17906E-12 30960   0.212E-10    0.789E-05
DAV:   5    -0.210482541506E+03    0.18372E-09    0.35588E-14 30960   0.267E-10    0.789E-05
DAV:   6    -0.210482541506E+03   -0.94587E-10    0.28593E-13 30960   0.444E-10
  79 F= -.21048254E+03 E0= -.21048254E+03  d E =0.000000E+00
       N       E                     dE             d eps       ncg     rms          rms(c)
DAV:   1    -0.210482541506E+03    0.14552E-10   -0.16451E-12 30960   0.306E-10    0.789E-05
DAV:   2    -0.210482541506E+03   -0.39836E-09   -0.12140E-12 30960   0.302E-10    0.789E-05
DAV:   3    -0.210482541506E+03    0.32560E-09   -0.49000E-13 30960   0.209E-10    0.789E-05
DAV:   4    -0.210482541506E+03   -0.44747E-09    0.15165E-12 30960   0.389E-10    0.789E-05
DAV:   5    -0.210482541506E+03   -0.12733E-10    0.48716E-13 30960   0.239E-10    0.789E-05
DAV:   6    -0.210482541505E+03    0.83855E-09   -0.13899E-13 30960   0.147E-10
  80 F= -.21048254E+03 E0= -.21048254E+03  d E =0.000000E+00
       N       E                     dE             d eps       ncg     rms          rms(c)
DAV:   1    -0.210482541506E+03   -0.38199E-09   -0.31906E-13 30960   0.263E-10    0.789E-05
DAV:   2    -0.210482541506E+03    0.79854E-09   -0.90988E-13 30960   0.281E-10    0.789E-05
DAV:   3    -0.210482541506E+03   -0.49295E-09    0.99846E-13 30960   0.332E-10    0.789E-05
DAV:   4    -0.210482541506E+03    0.92768E-10   -0.75663E-14 30960   0.215E-10    0.789E-05
DAV:   5    -0.210482541506E+03    0.23829E-09    0.81162E-13 30960   0.182E-10    0.789E-05
DAV:   6    -0.210482541505E+03    0.61300E-09   -0.11578E-12 30960   0.204E-10
  81 F= -.21048254E+03 E0= -.21048254E+03  d E =0.000000E+00
       N       E                     dE             d eps       ncg     rms          rms(c)
DAV:   1    -0.210482541506E+03   -0.37107E-09   -0.97531E-13 30960   0.177E-10    0.789E-05
DAV:   2    -0.210482541506E+03    0.20736E-09    0.31896E-13 30960   0.236E-10    0.789E-05
DAV:   3    -0.210482541506E+03    0.31832E-09   -0.85404E-13 30960   0.195E-10    0.789E-05
DAV:   4    -0.210482541505E+03    0.19281E-09   -0.69757E-13 30960   0.156E-10    0.789E-05
DAV:   5    -0.210482541506E+03   -0.92587E-09   -0.15798E-12 30960   0.144E-10    0.789E-05
DAV:   6    -0.210482541505E+03    0.13515E-08   -0.10857E-12 30960   0.312E-10
  82 F= -.21048254E+03 E0= -.21048254E+03  d E =0.000000E+00
       N       E                     dE             d eps       ncg     rms          rms(c)
DAV:   1    -0.210482541507E+03   -0.13097E-09   -0.69475E-13 30960   0.349E-10    0.789E-05
DAV:   2    -0.210482541506E+03    0.94224E-09   -0.10657E-12 30960   0.268E-10    0.789E-05
DAV:   3    -0.210482541505E+03    0.14916E-09   -0.34044E-13 30960   0.325E-10    0.789E-05
DAV:   4    -0.210482541506E+03   -0.94587E-10   -0.11623E-12 30960   0.254E-10    0.789E-05
DAV:   5    -0.210482541506E+03   -0.52023E-09    0.58792E-13 30960   0.169E-10    0.789E-05
DAV:   6    -0.210482541506E+03    0.21828E-10   -0.10105E-12 30960   0.210E-10
  83 F= -.21048254E+03 E0= -.21048254E+03  d E =0.000000E+00
       N       E                     dE             d eps       ncg     rms          rms(c)
DAV:   1    -0.210482541505E+03    0.78944E-09   -0.12728E-12 30960   0.309E-10    0.789E-05
DAV:   2    -0.210482541506E+03   -0.83674E-09   -0.86781E-14 30960   0.395E-10    0.789E-05
DAV:   3    -0.210482541505E+03    0.11059E-08   -0.30119E-13 30960   0.395E-10    0.789E-05
DAV:   4    -0.210482541506E+03   -0.84401E-09   -0.14938E-12 30960   0.262E-10    0.789E-05
DAV:   5    -0.210482541506E+03   -0.39108E-09   -0.26712E-13 30960   0.167E-10    0.789E-05
DAV:   6    -0.210482541507E+03   -0.27649E-09    0.32715E-13 30960   0.143E-10
  84 F= -.21048254E+03 E0= -.21048254E+03  d E =0.000000E+00
       N       E                     dE             d eps       ncg     rms          rms(c)
DAV:   1    -0.210482541506E+03    0.23283E-09    0.11771E-12 30960   0.144E-10    0.789E-05
DAV:   2    -0.210482541506E+03    0.21100E-09    0.52074E-13 30960   0.408E-10    0.789E-05
DAV:   3    -0.210482541506E+03   -0.31469E-09   -0.74282E-13 30960   0.277E-10    0.789E-05
DAV:   4    -0.210482541506E+03   -0.22919E-09   -0.87052E-13 30960   0.167E-10    0.789E-05
DAV:   5    -0.210482541506E+03    0.73669E-09    0.69697E-13 30960   0.267E-10    0.789E-05
DAV:   6    -0.210482541506E+03    0.18190E-11   -0.75624E-13 30960   0.251E-10
  85 F= -.21048254E+03 E0= -.21048254E+03  d E =0.000000E+00
       N       E                     dE             d eps       ncg     rms          rms(c)
DAV:   1    -0.210482541506E+03   -0.10186E-09    0.63010E-14 30960   0.250E-10    0.789E-05
DAV:   2    -0.210482541505E+03    0.73851E-09   -0.81945E-13 30960   0.204E-10    0.789E-05
DAV:   3    -0.210482541506E+03   -0.11769E-08   -0.12229E-12 30960   0.236E-10    0.789E-05
DAV:   4    -0.210482541506E+03    0.16917E-09    0.23391E-13 30960   0.139E-10    0.789E-05
DAV:   5    -0.210482541505E+03    0.70759E-09   -0.61328E-13 30960   0.169E-10    0.789E-05
DAV:   6    -0.210482541505E+03    0.27285E-10   -0.59505E-14 30960   0.127E-10
  86 F= -.21048254E+03 E0= -.21048254E+03  d E =0.000000E+00
       N       E                     dE             d eps       ncg     rms          rms(c)
DAV:   1    -0.210482541505E+03   -0.12733E-10   -0.49664E-13 30960   0.206E-10    0.789E-05
DAV:   2    -0.210482541506E+03   -0.50204E-09    0.24657E-13 30960   0.352E-10    0.789E-05
DAV:   3    -0.210482541506E+03    0.72760E-11    0.22235E-14 30960   0.218E-10    0.789E-05
DAV:   4    -0.210482541506E+03   -0.69122E-10   -0.24459E-12 30960   0.146E-10    0.789E-05
DAV:   5    -0.210482541506E+03    0.25648E-09    0.66208E-13 30960   0.220E-10    0.789E-05
DAV:   6    -0.210482541505E+03    0.45293E-09    0.69410E-14 30960   0.155E-10
  87 F= -.21048254E+03 E0= -.21048254E+03  d E =0.000000E+00
       N       E                     dE             d eps       ncg     rms          rms(c)
DAV:   1    -0.210482541506E+03   -0.21100E-09   -0.31290E-13 30960   0.256E-10    0.789E-05
DAV:   2    -0.210482541506E+03   -0.25830E-09   -0.58535E-13 30960   0.200E-10    0.789E-05
DAV:   3    -0.210482541506E+03    0.63665E-10   -0.16578E-12 30960   0.280E-10    0.789E-05
DAV:   4    -0.210482541506E+03    0.61846E-10   -0.16501E-13 30960   0.194E-10    0.789E-05
DAV:   5    -0.210482541506E+03    0.15461E-09    0.32823E-13 30960   0.155E-10    0.789E-05
DAV:   6    -0.210482541505E+03    0.46020E-09   -0.10253E-12 30960   0.219E-10
  88 F= -.21048254E+03 E0= -.21048254E+03  d E =0.000000E+00
       N       E                     dE             d eps       ncg     rms          rms(c)
DAV:   1    -0.210482541505E+03    0.74215E-09   -0.50137E-13 30960   0.159E-10    0.789E-05
DAV:   2    -0.210482541505E+03   -0.44201E-09    0.38960E-13 30960   0.525E-10    0.789E-05
DAV:   3    -0.210482541506E+03   -0.43292E-09   -0.24887E-12 30960   0.300E-10    0.789E-05
DAV:   4    -0.210482541506E+03    0.15098E-09   -0.21328E-12 30960   0.248E-10    0.789E-05
DAV:   5    -0.210482541506E+03    0.10732E-09   -0.17968E-13 30960   0.159E-10    0.789E-05
DAV:   6    -0.210482541506E+03   -0.30559E-09   -0.93567E-13 30960   0.164E-10
  89 F= -.21048254E+03 E0= -.21048254E+03  d E =0.000000E+00
       N       E                     dE             d eps       ncg     rms          rms(c)
DAV:   1    -0.210482541506E+03   -0.46202E-09   -0.34143E-13 30960   0.257E-10    0.789E-05
DAV:   2    -0.210482541506E+03    0.34925E-09    0.13491E-12 30960   0.427E-10    0.789E-05
DAV:   3    -0.210482541505E+03    0.64028E-09    0.25722E-13 30960   0.295E-10    0.789E-05
DAV:   4    -0.210482541506E+03   -0.86584E-09    0.12416E-13 30960   0.183E-10    0.789E-05
DAV:   5    -0.210482541505E+03    0.93678E-09    0.13130E-12 30960   0.235E-10    0.789E-05
DAV:   6    -0.210482541505E+03   -0.23101E-09   -0.22922E-12 30960   0.182E-10
  90 F= -.21048254E+03 E0= -.21048254E+03  d E =0.000000E+00
       N       E                     dE             d eps       ncg     rms          rms(c)
DAV:   1    -0.210482541506E+03   -0.92405E-09    0.20388E-14 30960   0.174E-10    0.789E-05
DAV:   2    -0.210482541506E+03    0.15280E-09    0.66735E-13 30960   0.270E-10    0.789E-05
DAV:   3    -0.210482541506E+03    0.20736E-09    0.78069E-14 30960   0.226E-10    0.789E-05
DAV:   4    -0.210482541505E+03    0.13642E-09   -0.65947E-13 30960   0.203E-10    0.789E-05
DAV:   5    -0.210482541506E+03   -0.38199E-10   -0.78112E-13 30960   0.207E-10    0.789E-05
DAV:   6    -0.210482541506E+03   -0.57662E-09    0.93780E-13 30960   0.205E-10
  91 F= -.21048254E+03 E0= -.21048254E+03  d E =0.000000E+00
       N       E                     dE             d eps       ncg     rms          rms(c)
DAV:   1    -0.210482541505E+03    0.27103E-09   -0.10400E-12 30960   0.176E-10    0.789E-05
DAV:   2    -0.210482541506E+03   -0.98771E-09    0.99658E-13 30960   0.312E-10    0.789E-05
DAV:   3    -0.210482541506E+03    0.46202E-09   -0.72904E-13 30960   0.303E-10    0.789E-05
DAV:   4    -0.210482541506E+03   -0.72760E-10    0.40878E-13 30960   0.303E-10    0.789E-05
DAV:   5    -0.210482541505E+03    0.53296E-09   -0.27215E-13 30960   0.158E-10    0.789E-05
DAV:   6    -0.210482541506E+03   -0.99499E-09    0.42407E-13 30960   0.407E-10
  92 F= -.21048254E+03 E0= -.21048254E+03  d E =0.000000E+00
       N       E                     dE             d eps       ncg     rms          rms(c)
DAV:   1    -0.210482541506E+03   -0.59299E-09    0.11398E-13 30960   0.137E-10    0.789E-05
DAV:   2    -0.210482541505E+03    0.40927E-09   -0.38220E-13 30960   0.269E-10    0.789E-05
DAV:   3    -0.210482541506E+03   -0.99317E-09    0.98651E-13 30960   0.139E-10    0.789E-05
DAV:   4    -0.210482541506E+03    0.63119E-09    0.12082E-12 30960   0.207E-10    0.789E-05
DAV:   5    -0.210482541506E+03   -0.70941E-10   -0.21305E-12 30960   0.204E-10    0.789E-05
DAV:   6    -0.210482541506E+03    0.35288E-09   -0.15969E-13 30960   0.214E-10
  93 F= -.21048254E+03 E0= -.21048254E+03  d E =0.000000E+00
       N       E                     dE             d eps       ncg     rms          rms(c)
DAV:   1    -0.210482541506E+03    0.10368E-09   -0.15344E-12 30960   0.202E-10    0.789E-05
DAV:   2    -0.210482541505E+03    0.50932E-09   -0.11724E-12 30960   0.192E-10    0.789E-05
DAV:   3    -0.210482541506E+03   -0.32378E-09   -0.19276E-12 30960   0.203E-10    0.789E-05
DAV:   4    -0.210482541506E+03   -0.26193E-09   -0.68165E-13 30960   0.118E-10    0.789E-05
DAV:   5    -0.210482541506E+03    0.34197E-09   -0.10780E-13 30960   0.208E-10    0.789E-05
DAV:   6    -0.210482541506E+03   -0.34561E-09    0.41539E-14 30960   0.245E-10
  94 F= -.21048254E+03 E0= -.21048254E+03  d E =0.000000E+00
       N       E                     dE             d eps       ncg     rms          rms(c)
DAV:   1    -0.210482541506E+03   -0.78398E-09    0.13425E-12 30960   0.260E-10    0.789E-05
DAV:   2    -0.210482541506E+03    0.21464E-09   -0.15139E-12 30960   0.294E-10    0.789E-05
DAV:   3    -0.210482541506E+03    0.54206E-09   -0.40957E-13 30960   0.193E-10    0.789E-05
DAV:   4    -0.210482541506E+03   -0.49295E-09   -0.17925E-13 30960   0.179E-10    0.789E-05
DAV:   5    -0.210482541506E+03    0.14552E-10   -0.57999E-13 30960   0.196E-10    0.789E-05
DAV:   6    -0.210482541506E+03    0.51114E-09   -0.97579E-13 30960   0.214E-10
  95 F= -.21048254E+03 E0= -.21048254E+03  d E =0.000000E+00
       N       E                     dE             d eps       ncg     rms          rms(c)
DAV:   1    -0.210482541506E+03    0.24374E-09   -0.14215E-12 30960   0.249E-10    0.789E-05
DAV:   2    -0.210482541505E+03    0.82036E-09   -0.68578E-13 30960   0.177E-10    0.789E-05
DAV:   3    -0.210482541506E+03   -0.10496E-08   -0.77065E-13 30960   0.167E-10    0.789E-05
DAV:   4    -0.210482541506E+03    0.12733E-10   -0.15173E-12 30960   0.244E-10    0.789E-05
DAV:   5    -0.210482541506E+03    0.12733E-09    0.53632E-14 30960   0.354E-10    0.789E-05
DAV:   6    -0.210482541506E+03   -0.20555E-09   -0.17782E-14 30960   0.351E-10
  96 F= -.21048254E+03 E0= -.21048254E+03  d E =0.000000E+00
       N       E                     dE             d eps       ncg     rms          rms(c)
DAV:   1    -0.210482541506E+03   -0.14006E-09   -0.56757E-13 30960   0.269E-10    0.789E-05
DAV:   2    -0.210482541506E+03    0.21282E-09   -0.17252E-13 30960   0.268E-10    0.789E-05
DAV:   3    -0.210482541506E+03    0.30559E-09    0.54562E-14 30960   0.304E-10    0.789E-05
DAV:   4    -0.210482541506E+03   -0.29650E-09   -0.10670E-12 30960   0.323E-10    0.789E-05
DAV:   5    -0.210482541506E+03   -0.18554E-09   -0.99691E-13 30960   0.110E-10    0.789E-05
DAV:   6    -0.210482541506E+03    0.50204E-09    0.72198E-14 30960   0.366E-10
  97 F= -.21048254E+03 E0= -.21048254E+03  d E =0.000000E+00
       N       E                     dE             d eps       ncg     rms          rms(c)
DAV:   1    -0.210482541506E+03    0.15825E-09    0.13012E-12 30960   0.208E-10    0.789E-05
DAV:   2    -0.210482541505E+03    0.46930E-09   -0.52344E-13 30960   0.272E-10    0.789E-05
DAV:   3    -0.210482541505E+03   -0.10732E-09    0.59161E-13 30960   0.183E-10    0.789E-05
DAV:   4    -0.210482541505E+03    0.72760E-11   -0.86466E-13 30960   0.148E-10    0.789E-05
DAV:   5    -0.210482541506E+03   -0.26739E-09   -0.80140E-13 30960   0.248E-10    0.789E-05
DAV:   6    -0.210482541506E+03   -0.19099E-09    0.57943E-14 30960   0.274E-10
  98 F= -.21048254E+03 E0= -.21048254E+03  d E =0.000000E+00
       N       E                     dE             d eps       ncg     rms          rms(c)
DAV:   1    -0.210482541506E+03    0.21100E-09    0.12291E-12 30960   0.208E-10    0.789E-05
DAV:   2    -0.210482541505E+03    0.30013E-09   -0.97413E-13 30960   0.265E-10    0.789E-05
DAV:   3    -0.210482541505E+03   -0.25102E-09   -0.14995E-12 30960   0.213E-10    0.789E-05
DAV:   4    -0.210482541506E+03   -0.52387E-09   -0.81154E-13 30960   0.260E-10    0.789E-05
DAV:   5    -0.210482541505E+03    0.10496E-08    0.11898E-12 30960   0.249E-10    0.789E-05
DAV:   6    -0.210482541505E+03   -0.24920E-09   -0.71231E-13 30960   0.296E-10
  99 F= -.21048254E+03 E0= -.21048254E+03  d E =0.000000E+00
       N       E                     dE             d eps       ncg     rms          rms(c)
DAV:   1    -0.210482541506E+03   -0.90040E-09   -0.34068E-13 30960   0.222E-10    0.789E-05
DAV:   2    -0.210482541506E+03   -0.24556E-09    0.12074E-12 30960   0.267E-10    0.789E-05
DAV:   3    -0.210482541506E+03   -0.26557E-09   -0.90921E-13 30960   0.158E-10    0.789E-05
DAV:   4    -0.210482541506E+03    0.75488E-09   -0.21266E-12 30960   0.234E-10    0.789E-05
DAV:   5    -0.210482541506E+03   -0.23829E-09   -0.55039E-13 30960   0.166E-10    0.789E-05
DAV:   6    -0.210482541507E+03   -0.66211E-09   -0.40207E-13 30960   0.166E-10
 100 F= -.21048254E+03 E0= -.21048254E+03  d E =0.000000E+00
