  60  60   0   0
  0.7245713E+01  0.1040830E-08  0.1025484E-08  0.5079608E-09  0.5000000E-15
  1.000000000000000E-004
  CAR 
 unknown system                          
     14.84070446    -14.04850703  301      7.30397645      1.00000000
    -14.049  0.0000E+00  0.0000E+00
    -13.952  0.0000E+00  0.0000E+00
    -13.856  0.0000E+00  0.0000E+00
    -13.760  0.0000E+00  0.0000E+00
    -13.663  0.0000E+00  0.0000E+00
    -13.567  0.0000E+00  0.0000E+00
    -13.471  0.0000E+00  0.0000E+00
    -13.374  0.0000E+00  0.0000E+00
    -13.278  0.0000E+00  0.0000E+00
    -13.182  0.0000E+00  0.0000E+00
    -13.086  0.0000E+00  0.0000E+00
    -12.989  0.0000E+00  0.0000E+00
    -12.893  0.0000E+00  0.0000E+00
    -12.797  0.0000E+00  0.0000E+00
    -12.700  0.0000E+00  0.0000E+00
    -12.604  0.0000E+00  0.0000E+00
    -12.508  0.0000E+00  0.0000E+00
    -12.411  0.0000E+00  0.0000E+00
    -12.315  0.0000E+00  0.0000E+00
    -12.219  0.0000E+00  0.0000E+00
    -12.123  0.0000E+00  0.0000E+00
    -12.026  0.3714E-01  0.3428E-03
    -11.930  0.4748E-01  0.6708E-02
    -11.834  0.3366E-01  0.1023E-01
    -11.737  0.2883E-01  0.1312E-01
    -11.641  0.3584E-01  0.1622E-01
    -11.545  0.0000E+00  0.2000E-01
    -11.448  0.5365E-02  0.2002E-01
    -11.352  0.5374E-01  0.2369E-01
    -11.256  0.4244E-01  0.2895E-01
    -11.160  0.3440E-01  0.3252E-01
    -11.063  0.1784E+00  0.4178E-01
    -10.967  0.3450E+00  0.5953E-01
    -10.871  0.8824E-01  0.7944E-01
    -10.774  0.2394E+00  0.8578E-01
    -10.678  0.8744E-01  0.9646E-01
    -10.582  0.0000E+00  0.1000E+00
    -10.486  0.0000E+00  0.1000E+00
    -10.389  0.5967E-01  0.1034E+00
    -10.293  0.5141E-01  0.1084E+00
    -10.197  0.1000E+00  0.1159E+00
    -10.100  0.0000E+00  0.1200E+00
    -10.004  0.0000E+00  0.1200E+00
     -9.908  0.0000E+00  0.1200E+00
     -9.811  0.0000E+00  0.1200E+00
     -9.715  0.0000E+00  0.1200E+00
     -9.619  0.0000E+00  0.1200E+00
     -9.523  0.0000E+00  0.1200E+00
     -9.426  0.0000E+00  0.1200E+00
     -9.330  0.0000E+00  0.1200E+00
     -9.234  0.3731E-01  0.1213E+00
     -9.137  0.6265E-01  0.1272E+00
     -9.041  0.7823E-01  0.1334E+00
     -8.945  0.1194E+00  0.1428E+00
     -8.848  0.1146E+00  0.1570E+00
     -8.752  0.1635E+00  0.1681E+00
     -8.656  0.1034E+00  0.1779E+00
     -8.560  0.1626E+00  0.1941E+00
     -8.463  0.7421E-01  0.2077E+00
     -8.367  0.7128E-01  0.2141E+00
     -8.271  0.1017E+00  0.2231E+00
     -8.174  0.1155E+00  0.2352E+00
     -8.078  0.6364E-01  0.2409E+00
     -7.982  0.8748E-01  0.2526E+00
     -7.885  0.3227E-01  0.2578E+00
     -7.789  0.1067E-01  0.2598E+00
     -7.693  0.0000E+00  0.2600E+00
     -7.597  0.0000E+00  0.2600E+00
     -7.500  0.0000E+00  0.2600E+00
     -7.404  0.0000E+00  0.2600E+00
     -7.308  0.0000E+00  0.2600E+00
     -7.211  0.0000E+00  0.2600E+00
     -7.115  0.7171E-02  0.2600E+00
     -7.019  0.2651E+00  0.2695E+00
     -6.923  0.2091E-01  0.2804E+00
     -6.826  0.6333E-01  0.2846E+00
     -6.730  0.3489E-01  0.2905E+00
     -6.634  0.2920E-01  0.2937E+00
     -6.537  0.4846E-01  0.2968E+00
     -6.441  0.0000E+00  0.3000E+00
     -6.345  0.8599E-03  0.3000E+00
     -6.248  0.5840E-01  0.3070E+00
     -6.152  0.1040E+00  0.3150E+00
     -6.056  0.2422E-01  0.3200E+00
     -5.960  0.4116E-01  0.3231E+00
     -5.863  0.3656E-01  0.3266E+00
     -5.767  0.9145E-01  0.3320E+00
     -5.671  0.1073E+00  0.3397E+00
     -5.574  0.7591E-01  0.3473E+00
     -5.478  0.5878E-01  0.3546E+00
     -5.382  0.1300E+00  0.3631E+00
     -5.285  0.1493E+00  0.3770E+00
     -5.189  0.1270E+00  0.3908E+00
     -5.093  0.1575E+00  0.4026E+00
     -4.997  0.1370E+00  0.4183E+00
     -4.900  0.6275E-01  0.4270E+00
     -4.804  0.6201E-01  0.4331E+00
     -4.708  0.8087E-01  0.4406E+00
     -4.611  0.7302E-01  0.4495E+00
     -4.515  0.6638E-01  0.4560E+00
     -4.419  0.6138E-01  0.4623E+00
     -4.322  0.5814E-01  0.4677E+00
     -4.226  0.7454E-01  0.4746E+00
     -4.130  0.6353E-01  0.4806E+00
     -4.034  0.5618E-01  0.4871E+00
     -3.937  0.4583E-01  0.4920E+00
     -3.841  0.3382E-01  0.4958E+00
     -3.745  0.5284E-01  0.4996E+00
     -3.648  0.6524E-01  0.5060E+00
     -3.552  0.8756E-01  0.5131E+00
     -3.456  0.8550E-01  0.5218E+00
     -3.359  0.7321E-01  0.5286E+00
     -3.263  0.1461E+00  0.5405E+00
     -3.167  0.1209E+00  0.5519E+00
     -3.071  0.1213E+00  0.5652E+00
     -2.974  0.1319E+00  0.5776E+00
     -2.878  0.1008E+00  0.5881E+00
     -2.782  0.1216E+00  0.5992E+00
     -2.685  0.1114E+00  0.6113E+00
     -2.589  0.1462E+00  0.6225E+00
     -2.493  0.1482E+00  0.6345E+00
     -2.397  0.1214E+00  0.6476E+00
     -2.300  0.1669E+00  0.6612E+00
     -2.204  0.1205E+00  0.6747E+00
     -2.108  0.1565E+00  0.6892E+00
     -2.011  0.1415E+00  0.7042E+00
     -1.915  0.1549E+00  0.7184E+00
     -1.819  0.1328E+00  0.7325E+00
     -1.722  0.1460E+00  0.7466E+00
     -1.626  0.1443E+00  0.7598E+00
     -1.530  0.1542E+00  0.7741E+00
     -1.434  0.1555E+00  0.7888E+00
     -1.337  0.1470E+00  0.8033E+00
     -1.241  0.1553E+00  0.8186E+00
     -1.145  0.1525E+00  0.8333E+00
     -1.048  0.1358E+00  0.8485E+00
     -0.952  0.1651E+00  0.8630E+00
     -0.856  0.1739E+00  0.8794E+00
     -0.759  0.1858E+00  0.8959E+00
     -0.663  0.1595E+00  0.9124E+00
     -0.567  0.1817E+00  0.9288E+00
     -0.471  0.1729E+00  0.9455E+00
     -0.374  0.1754E+00  0.9637E+00
     -0.278  0.1840E+00  0.9815E+00
     -0.182  0.1761E+00  0.9981E+00
     -0.085  0.1561E+00  0.1014E+01
      0.011  0.1658E+00  0.1029E+01
      0.107  0.1868E+00  0.1048E+01
      0.204  0.1737E+00  0.1064E+01
      0.300  0.1830E+00  0.1082E+01
      0.396  0.1680E+00  0.1099E+01
      0.492  0.1748E+00  0.1116E+01
      0.589  0.1672E+00  0.1133E+01
      0.685  0.1858E+00  0.1151E+01
      0.781  0.1659E+00  0.1168E+01
      0.878  0.1806E+00  0.1186E+01
      0.974  0.1846E+00  0.1204E+01
      1.070  0.1781E+00  0.1221E+01
      1.166  0.1872E+00  0.1239E+01
      1.263  0.1457E+00  0.1257E+01
      1.359  0.1950E+00  0.1273E+01
      1.455  0.1530E+00  0.1289E+01
      1.552  0.1886E+00  0.1306E+01
      1.648  0.2141E+00  0.1323E+01
      1.744  0.1202E+00  0.1339E+01
      1.841  0.1433E+00  0.1355E+01
      1.937  0.1843E+00  0.1372E+01
      2.033  0.2008E+00  0.1389E+01
      2.129  0.1732E+00  0.1405E+01
      2.226  0.1943E+00  0.1422E+01
      2.322  0.2260E+00  0.1440E+01
      2.418  0.1985E+00  0.1459E+01
      2.515  0.1630E+00  0.1477E+01
      2.611  0.1824E+00  0.1495E+01
      2.707  0.1805E+00  0.1513E+01
      2.804  0.2173E+00  0.1532E+01
      2.900  0.2314E+00  0.1555E+01
      2.996  0.2350E+00  0.1579E+01
      3.092  0.2139E+00  0.1602E+01
      3.189  0.1932E+00  0.1623E+01
      3.285  0.2307E+00  0.1643E+01
      3.381  0.2257E+00  0.1665E+01
      3.478  0.1833E+00  0.1682E+01
      3.574  0.2205E+00  0.1701E+01
      3.670  0.1814E+00  0.1719E+01
      3.767  0.1713E+00  0.1737E+01
      3.863  0.2125E+00  0.1753E+01
      3.959  0.2142E+00  0.1771E+01
      4.055  0.1847E+00  0.1791E+01
      4.152  0.1821E+00  0.1808E+01
      4.248  0.1603E+00  0.1825E+01
      4.344  0.1800E+00  0.1843E+01
      4.441  0.1342E+00  0.1858E+01
      4.537  0.1137E+00  0.1870E+01
      4.633  0.8289E-01  0.1879E+01
      4.729  0.7613E-01  0.1887E+01
      4.826  0.5342E-01  0.1893E+01
      4.922  0.5238E-01  0.1898E+01
      5.018  0.4867E-01  0.1903E+01
      5.115  0.6175E-01  0.1908E+01
      5.211  0.2644E-01  0.1913E+01
      5.307  0.1859E-01  0.1914E+01
      5.404  0.1676E-01  0.1916E+01
      5.500  0.1299E-01  0.1918E+01
      5.596  0.1308E-01  0.1919E+01
      5.692  0.5527E-02  0.1920E+01
      5.789  0.0000E+00  0.1920E+01
      5.885  0.0000E+00  0.1920E+01
      5.981  0.0000E+00  0.1920E+01
      6.078  0.0000E+00  0.1920E+01
      6.174  0.0000E+00  0.1920E+01
      6.270  0.0000E+00  0.1920E+01
      6.367  0.0000E+00  0.1920E+01
      6.463  0.0000E+00  0.1920E+01
      6.559  0.0000E+00  0.1920E+01
      6.655  0.0000E+00  0.1920E+01
      6.752  0.0000E+00  0.1920E+01
      6.848  0.0000E+00  0.1920E+01
      6.944  0.2626E-01  0.1921E+01
      7.041  0.1102E+00  0.1926E+01
      7.137  0.1003E+00  0.1937E+01
      7.233  0.4557E-01  0.1944E+01
      7.330  0.1248E+00  0.1954E+01
      7.426  0.1491E+00  0.1966E+01
      7.522  0.1276E+00  0.1980E+01
      7.618  0.1700E+00  0.1991E+01
      7.715  0.1745E+00  0.2008E+01
      7.811  0.2109E+00  0.2020E+01
      7.907  0.8918E-01  0.2035E+01
      8.004  0.1887E+00  0.2046E+01
      8.100  0.1245E+00  0.2064E+01
      8.196  0.8724E-01  0.2074E+01
      8.292  0.6919E-01  0.2082E+01
      8.389  0.2416E-01  0.2085E+01
      8.485  0.3628E-01  0.2088E+01
      8.581  0.5133E-01  0.2093E+01
      8.678  0.6142E-01  0.2098E+01
      8.774  0.4347E-01  0.2103E+01
      8.870  0.5340E-01  0.2108E+01
      8.967  0.4485E-01  0.2113E+01
      9.063  0.4674E-01  0.2117E+01
      9.159  0.9580E-01  0.2124E+01
      9.255  0.8501E-01  0.2134E+01
      9.352  0.6188E-01  0.2140E+01
      9.448  0.6198E-01  0.2146E+01
      9.544  0.8900E-01  0.2153E+01
      9.641  0.8125E-01  0.2161E+01
      9.737  0.1240E+00  0.2171E+01
      9.833  0.1071E+00  0.2183E+01
      9.930  0.1172E+00  0.2194E+01
     10.026  0.9481E-01  0.2205E+01
     10.122  0.1123E+00  0.2214E+01
     10.218  0.1028E+00  0.2225E+01
     10.315  0.1106E+00  0.2235E+01
     10.411  0.1199E+00  0.2246E+01
     10.507  0.1108E+00  0.2257E+01
     10.604  0.1164E+00  0.2268E+01
     10.700  0.1289E+00  0.2280E+01
     10.796  0.1601E+00  0.2293E+01
     10.893  0.1288E+00  0.2307E+01
     10.989  0.1260E+00  0.2321E+01
     11.085  0.1513E+00  0.2333E+01
     11.181  0.1276E+00  0.2347E+01
     11.278  0.1583E+00  0.2361E+01
     11.374  0.1322E+00  0.2374E+01
     11.470  0.1036E+00  0.2387E+01
     11.567  0.1614E+00  0.2400E+01
     11.663  0.1473E+00  0.2414E+01
     11.759  0.1547E+00  0.2429E+01
     11.855  0.1602E+00  0.2446E+01
     11.952  0.1575E+00  0.2461E+01
     12.048  0.1553E+00  0.2476E+01
     12.144  0.1272E+00  0.2491E+01
     12.241  0.1568E+00  0.2506E+01
     12.337  0.9890E-01  0.2517E+01
     12.433  0.1289E+00  0.2527E+01
     12.530  0.9829E-01  0.2539E+01
     12.626  0.1740E+00  0.2550E+01
     12.722  0.3291E-01  0.2558E+01
     12.818  0.2356E-02  0.2560E+01
     12.915  0.0000E+00  0.2560E+01
     13.011  0.0000E+00  0.2560E+01
     13.107  0.0000E+00  0.2560E+01
     13.204  0.0000E+00  0.2560E+01
     13.300  0.0000E+00  0.2560E+01
     13.396  0.0000E+00  0.2560E+01
     13.493  0.0000E+00  0.2560E+01
     13.589  0.0000E+00  0.2560E+01
     13.685  0.0000E+00  0.2560E+01
     13.781  0.0000E+00  0.2560E+01
     13.878  0.0000E+00  0.2560E+01
     13.974  0.0000E+00  0.2560E+01
     14.070  0.0000E+00  0.2560E+01
     14.167  0.0000E+00  0.2560E+01
     14.263  0.0000E+00  0.2560E+01
     14.359  0.0000E+00  0.2560E+01
     14.456  0.0000E+00  0.2560E+01
     14.552  0.0000E+00  0.2560E+01
     14.648  0.0000E+00  0.2560E+01
     14.744  0.0000E+00  0.2560E+01
     14.841  0.0000E+00  0.2560E+01
