       N       E                     dE             d eps       ncg     rms          rms(c)
DAV:   1     0.360494489225E+03    0.36049E+03   -0.84302E+04 42496   0.115E+03
DAV:   2    -0.442818581559E+03   -0.80331E+03   -0.79976E+03 58752   0.216E+02
DAV:   3    -0.461192651845E+03   -0.18374E+02   -0.18321E+02 63424   0.381E+01
DAV:   4    -0.461326794537E+03   -0.13414E+00   -0.13412E+00 59840   0.321E+00
DAV:   5    -0.461329185389E+03   -0.23909E-02   -0.23911E-02 63488   0.397E-01    0.278E+01
DAV:   6    -0.440552544606E+03    0.20777E+02   -0.33483E+01 63744   0.137E+01    0.156E+01
DAV:   7    -0.436411702170E+03    0.41408E+01   -0.26889E+01 63744   0.105E+01    0.797E+00
DAV:   8    -0.435547828051E+03    0.86387E+00   -0.11190E+01 63744   0.574E+00    0.500E+00
DAV:   9    -0.435631203935E+03   -0.83376E-01   -0.76778E+00 63808   0.361E+00    0.453E+00
DAV:  10    -0.435360745116E+03    0.27046E+00   -0.29478E+00 60992   0.230E+00    0.164E+00
DAV:  11    -0.435362943274E+03   -0.21982E-02   -0.70601E-01 63744   0.129E+00    0.116E+00
DAV:  12    -0.435351498359E+03    0.11445E-01   -0.17944E-01 63552   0.689E-01    0.621E-01
DAV:  13    -0.435346925448E+03    0.45729E-02   -0.81510E-02 63168   0.439E-01    0.253E-01
DAV:  14    -0.435347165297E+03   -0.23985E-03   -0.12502E-02 63424   0.204E-01    0.144E-01
DAV:  15    -0.435347122502E+03    0.42795E-04   -0.41216E-03 63744   0.102E-01    0.634E-02
DAV:  16    -0.435347141779E+03   -0.19278E-04   -0.76617E-04 63744   0.439E-02    0.263E-02
DAV:  17    -0.435347159967E+03   -0.18187E-04   -0.16327E-04 64128   0.222E-02    0.121E-02
DAV:  18    -0.435347157155E+03    0.28123E-05   -0.17537E-05 63744   0.875E-03    0.269E-03
DAV:  19    -0.435347157262E+03   -0.10737E-06   -0.12534E-06 63680   0.297E-03    0.115E-03
DAV:  20    -0.435347157171E+03    0.90640E-07   -0.21542E-07 63744   0.975E-04    0.501E-04
DAV:  21    -0.435347157282E+03   -0.11103E-06   -0.42210E-08 63744   0.482E-04    0.230E-04
DAV:  22    -0.435347157239E+03    0.43372E-07   -0.54694E-09 52864   0.141E-04    0.157E-04
DAV:  23    -0.435347157267E+03   -0.27767E-07   -0.15807E-09 52096   0.845E-05    0.102E-04
DAV:  24    -0.435347157268E+03   -0.12806E-08   -0.24115E-10 51328   0.405E-05
   1 F= -.43534716E+03 E0= -.43534716E+03  d E =0.000000E+00
       N       E                     dE             d eps       ncg     rms          rms(c)
DAV:   1    -0.435347157271E+03   -0.43401E-08   -0.54963E-11 50624   0.156E-05    0.959E-05
DAV:   2    -0.435347157272E+03   -0.12824E-08   -0.68416E-11 49472   0.114E-05    0.971E-05
DAV:   3    -0.435347157270E+03    0.22010E-08   -0.36209E-11 48704   0.794E-06    0.955E-05
DAV:   4    -0.435347157271E+03   -0.13970E-08   -0.55567E-12 46144   0.348E-06    0.955E-05
DAV:   5    -0.435347157271E+03    0.17826E-09   -0.88304E-12 45504   0.235E-06    0.954E-05
DAV:   6    -0.435347157271E+03   -0.56389E-10    0.25965E-12 43840   0.128E-06
   2 F= -.43534716E+03 E0= -.43534716E+03  d E =0.000000E+00
       N       E                     dE             d eps       ncg     rms          rms(c)
DAV:   1    -0.435347157271E+03    0.72032E-09   -0.90056E-14 42176   0.720E-07    0.954E-05
DAV:   2    -0.435347157272E+03   -0.10114E-08    0.25972E-13 41216   0.438E-07    0.954E-05
DAV:   3    -0.435347157271E+03    0.51477E-09   -0.65492E-13 39680   0.314E-07    0.954E-05
DAV:   4    -0.435347157270E+03    0.63301E-09    0.62775E-12 37824   0.190E-07    0.954E-05
DAV:   5    -0.435347157271E+03   -0.64210E-09   -0.63733E-12 36992   0.126E-07    0.954E-05
DAV:   6    -0.435347157271E+03    0.26739E-09    0.82665E-12 35584   0.651E-08
   3 F= -.43534716E+03 E0= -.43534716E+03  d E =0.000000E+00
       N       E                     dE             d eps       ncg     rms          rms(c)
DAV:   1    -0.435347157271E+03    0.12005E-09   -0.16363E-12 34496   0.374E-08    0.954E-05
DAV:   2    -0.435347157271E+03    0.31650E-09   -0.52145E-12 33472   0.176E-08    0.954E-05
DAV:   3    -0.435347157271E+03   -0.46748E-09    0.38842E-12 32576   0.967E-09    0.954E-05
DAV:   4    -0.435347157271E+03    0.56207E-09   -0.20988E-12 31552   0.665E-09    0.954E-05
DAV:   5    -0.435347157270E+03    0.21464E-09    0.16389E-12 31104   0.557E-09    0.954E-05
DAV:   6    -0.435347157271E+03   -0.41473E-09   -0.40286E-12 30848   0.258E-09
   4 F= -.43534716E+03 E0= -.43534716E+03  d E =0.000000E+00
       N       E                     dE             d eps       ncg     rms          rms(c)
DAV:   1    -0.435347157271E+03   -0.23829E-09   -0.66082E-13 30016   0.130E-09    0.954E-05
DAV:   2    -0.435347157272E+03   -0.10277E-08   -0.18025E-12 29056   0.839E-10    0.954E-05
DAV:   3    -0.435347157271E+03    0.79308E-09    0.38575E-13 28160   0.651E-10    0.954E-05
DAV:   4    -0.435347157271E+03    0.36380E-11   -0.23121E-12 27456   0.485E-10    0.954E-05
DAV:   5    -0.435347157271E+03    0.11278E-09   -0.27783E-12 27200   0.358E-10    0.954E-05
DAV:   6    -0.435347157271E+03    0.83674E-10    0.42603E-12 26752   0.227E-10
   5 F= -.43534716E+03 E0= -.43534716E+03  d E =0.000000E+00
       N       E                     dE             d eps       ncg     rms          rms(c)
DAV:   1    -0.435347157271E+03   -0.26193E-09   -0.24785E-12 26368   0.195E-10    0.954E-05
DAV:   2    -0.435347157271E+03   -0.26375E-09   -0.24813E-12 26048   0.236E-10    0.954E-05
DAV:   3    -0.435347157272E+03   -0.42928E-09   -0.22227E-12 26048   0.195E-10    0.954E-05
DAV:   4    -0.435347157271E+03    0.61846E-09    0.20082E-12 25984   0.229E-10    0.954E-05
DAV:   5    -0.435347157270E+03    0.75124E-09    0.13198E-12 25728   0.288E-10    0.954E-05
DAV:   6    -0.435347157271E+03   -0.11969E-08    0.29028E-12 25664   0.147E-10
   6 F= -.43534716E+03 E0= -.43534716E+03  d E =0.000000E+00
       N       E                     dE             d eps       ncg     rms          rms(c)
DAV:   1    -0.435347157270E+03   -0.20009E-09    0.52961E-12 25536   0.125E-10    0.954E-05
DAV:   2    -0.435347157271E+03   -0.62209E-09   -0.19935E-13 25472   0.214E-10    0.954E-05
DAV:   3    -0.435347157271E+03    0.61846E-10   -0.38261E-12 25472   0.262E-10    0.954E-05
DAV:   4    -0.435347157271E+03    0.20191E-09   -0.32934E-13 25344   0.206E-10    0.954E-05
DAV:   5    -0.435347157271E+03    0.20191E-09    0.11248E-12 24576   0.158E-10    0.954E-05
DAV:   6    -0.435347157270E+03    0.29104E-09    0.98343E-13 24256   0.185E-10
   7 F= -.43534716E+03 E0= -.43534716E+03  d E =0.000000E+00
       N       E                     dE             d eps       ncg     rms          rms(c)
DAV:   1    -0.435347157271E+03   -0.61482E-09    0.31883E-12 24128   0.186E-10    0.954E-05
DAV:   2    -0.435347157271E+03   -0.23647E-09    0.10959E-13 24128   0.196E-10    0.954E-05
DAV:   3    -0.435347157271E+03    0.74942E-09    0.38519E-12 24128   0.238E-10    0.954E-05
DAV:   4    -0.435347157271E+03   -0.18190E-11    0.23859E-12 23744   0.205E-10    0.954E-05
DAV:   5    -0.435347157271E+03   -0.32742E-10    0.50384E-12 23552   0.222E-10    0.954E-05
DAV:   6    -0.435347157271E+03   -0.10732E-09   -0.14108E-12 23360   0.339E-10
   8 F= -.43534716E+03 E0= -.43534716E+03  d E =0.000000E+00
       N       E                     dE             d eps       ncg     rms          rms(c)
DAV:   1    -0.435347157272E+03   -0.77671E-09   -0.38632E-13 23040   0.184E-10    0.954E-05
DAV:   2    -0.435347157271E+03    0.43474E-09   -0.75807E-13 22976   0.216E-10    0.954E-05
DAV:   3    -0.435347157270E+03    0.87130E-09   -0.12525E-12 22976   0.282E-10    0.954E-05
DAV:   4    -0.435347157270E+03   -0.14916E-09    0.35808E-12 22976   0.185E-10    0.954E-05
DAV:   5    -0.435347157270E+03    0.14188E-09   -0.83091E-13 22976   0.165E-10    0.954E-05
DAV:   6    -0.435347157271E+03   -0.36380E-09    0.19765E-12 22976   0.160E-10
   9 F= -.43534716E+03 E0= -.43534716E+03  d E =0.000000E+00
       N       E                     dE             d eps       ncg     rms          rms(c)
DAV:   1    -0.435347157270E+03   -0.20009E-09    0.55955E-12 22976   0.211E-10    0.954E-05
DAV:   2    -0.435347157271E+03   -0.95679E-09    0.10276E-12 22976   0.259E-10    0.954E-05
DAV:   3    -0.435347157271E+03    0.66575E-09   -0.44456E-13 22848   0.236E-10    0.954E-05
DAV:   4    -0.435347157271E+03   -0.45111E-09    0.61003E-13 22656   0.221E-10    0.954E-05
DAV:   5    -0.435347157271E+03   -0.10004E-09    0.13333E-12 22400   0.221E-10    0.954E-05
DAV:   6    -0.435347157271E+03    0.37653E-09    0.19810E-12 22400   0.211E-10
  10 F= -.43534716E+03 E0= -.43534716E+03  d E =0.000000E+00
       N       E                     dE             d eps       ncg     rms          rms(c)
DAV:   1    -0.435347157270E+03    0.97316E-09   -0.97837E-13 22400   0.226E-10    0.954E-05
DAV:   2    -0.435347157271E+03   -0.91313E-09    0.36071E-12 22400   0.346E-10    0.954E-05
DAV:   3    -0.435347157271E+03   -0.21100E-09    0.67473E-12 22400   0.235E-10    0.954E-05
DAV:   4    -0.435347157271E+03    0.25648E-09    0.27988E-13 22400   0.170E-10    0.954E-05
DAV:   5    -0.435347157271E+03    0.57298E-09    0.45810E-12 22272   0.266E-10    0.954E-05
DAV:   6    -0.435347157271E+03   -0.44929E-09    0.21161E-12 22208   0.236E-10
  11 F= -.43534716E+03 E0= -.43534716E+03  d E =0.000000E+00
       N       E                     dE             d eps       ncg     rms          rms(c)
DAV:   1    -0.435347157271E+03   -0.41473E-09    0.47004E-13 22208   0.161E-10    0.954E-05
DAV:   2    -0.435347157272E+03   -0.64028E-09    0.16181E-12 22208   0.214E-10    0.954E-05
DAV:   3    -0.435347157271E+03    0.21828E-09    0.19618E-12 22208   0.181E-10    0.954E-05
DAV:   4    -0.435347157271E+03    0.70759E-09    0.61693E-12 22208   0.173E-10    0.954E-05
DAV:   5    -0.435347157271E+03   -0.33288E-09    0.13453E-12 22208   0.156E-10    0.954E-05
DAV:   6    -0.435347157271E+03    0.21646E-09    0.30770E-12 22208   0.234E-10
  12 F= -.43534716E+03 E0= -.43534716E+03  d E =0.000000E+00
       N       E                     dE             d eps       ncg     rms          rms(c)
DAV:   1    -0.435347157271E+03    0.43656E-10    0.20827E-12 22208   0.243E-10    0.954E-05
DAV:   2    -0.435347157271E+03    0.69122E-10    0.12732E-12 22208   0.142E-10    0.954E-05
DAV:   3    -0.435347157271E+03    0.60027E-10   -0.12009E-12 22208   0.181E-10    0.954E-05
DAV:   4    -0.435347157271E+03   -0.11278E-09    0.20549E-12 22080   0.200E-10    0.954E-05
DAV:   5    -0.435347157272E+03   -0.57298E-09   -0.92894E-13 22016   0.141E-10    0.954E-05
DAV:   6    -0.435347157271E+03    0.68030E-09   -0.55437E-13 21888   0.154E-10
  13 F= -.43534716E+03 E0= -.43534716E+03  d E =0.000000E+00
       N       E                     dE             d eps       ncg     rms          rms(c)
DAV:   1    -0.435347157270E+03    0.11933E-08    0.20970E-12 21824   0.144E-10    0.954E-05
DAV:   2    -0.435347157271E+03   -0.56752E-09    0.12598E-12 21824   0.227E-10    0.954E-05
DAV:   3    -0.435347157270E+03    0.61118E-09   -0.28564E-12 21824   0.288E-10    0.954E-05
DAV:   4    -0.435347157271E+03   -0.26739E-09   -0.17604E-12 21824   0.208E-10    0.954E-05
DAV:   5    -0.435347157271E+03    0.54570E-10   -0.17406E-12 21824   0.263E-10    0.954E-05
DAV:   6    -0.435347157271E+03   -0.33651E-09   -0.63686E-12 21824   0.178E-10
  14 F= -.43534716E+03 E0= -.43534716E+03  d E =0.000000E+00
       N       E                     dE             d eps       ncg     rms          rms(c)
DAV:   1    -0.435347157271E+03   -0.54570E-09   -0.33804E-12 21824   0.211E-10    0.954E-05
DAV:   2    -0.435347157271E+03    0.13279E-09   -0.36043E-13 21824   0.288E-10    0.954E-05
DAV:   3    -0.435347157271E+03    0.12005E-09    0.23491E-12 21824   0.328E-10    0.954E-05
DAV:   4    -0.435347157271E+03   -0.50204E-09   -0.81568E-13 21824   0.249E-10    0.954E-05
DAV:   5    -0.435347157272E+03   -0.20191E-09    0.32805E-12 21824   0.238E-10    0.954E-05
DAV:   6    -0.435347157271E+03    0.38744E-09    0.50145E-12 21824   0.223E-10
  15 F= -.43534716E+03 E0= -.43534716E+03  d E =0.000000E+00
       N       E                     dE             d eps       ncg     rms          rms(c)
DAV:   1    -0.435347157271E+03    0.15098E-09    0.16416E-12 21824   0.163E-10    0.954E-05
DAV:   2    -0.435347157271E+03    0.12733E-09    0.21370E-12 21824   0.278E-10    0.954E-05
DAV:   3    -0.435347157272E+03   -0.28376E-09   -0.24176E-12 21824   0.224E-10    0.954E-05
DAV:   4    -0.435347157271E+03    0.70759E-09    0.39623E-12 21824   0.296E-10    0.954E-05
DAV:   5    -0.435347157272E+03   -0.78217E-09   -0.33270E-14 21824   0.254E-10    0.954E-05
DAV:   6    -0.435347157271E+03    0.57662E-09    0.81968E-13 21824   0.246E-10
  16 F= -.43534716E+03 E0= -.43534716E+03  d E =0.000000E+00
       N       E                     dE             d eps       ncg     rms          rms(c)
DAV:   1    -0.435347157270E+03    0.12242E-08    0.44015E-12 21824   0.209E-10    0.954E-05
DAV:   2    -0.435347157270E+03   -0.27285E-10    0.12320E-12 21824   0.296E-10    0.954E-05
DAV:   3    -0.435347157271E+03   -0.67666E-09   -0.58981E-12 21824   0.223E-10    0.954E-05
DAV:   4    -0.435347157271E+03    0.10186E-09   -0.12515E-12 21824   0.271E-10    0.954E-05
DAV:   5    -0.435347157271E+03    0.90949E-11   -0.58987E-15 21824   0.175E-10    0.954E-05
DAV:   6    -0.435347157271E+03   -0.87311E-10    0.23850E-12 21696   0.207E-10
  17 F= -.43534716E+03 E0= -.43534716E+03  d E =0.000000E+00
       N       E                     dE             d eps       ncg     rms          rms(c)
DAV:   1    -0.435347157271E+03   -0.28376E-09   -0.14144E-12 21632   0.336E-10    0.954E-05
DAV:   2    -0.435347157271E+03    0.70031E-09   -0.45509E-13 21632   0.246E-10    0.954E-05
DAV:   3    -0.435347157272E+03   -0.10623E-08    0.10429E-12 21632   0.186E-10    0.954E-05
DAV:   4    -0.435347157271E+03    0.88221E-09    0.29278E-12 21632   0.188E-10    0.954E-05
DAV:   5    -0.435347157271E+03   -0.25830E-09   -0.91161E-13 21632   0.230E-10    0.954E-05
DAV:   6    -0.435347157272E+03   -0.60027E-09   -0.25758E-12 21632   0.289E-10
  18 F= -.43534716E+03 E0= -.43534716E+03  d E =0.000000E+00
       N       E                     dE             d eps       ncg     rms          rms(c)
DAV:   1    -0.435347157271E+03    0.21100E-09    0.27115E-12 21632   0.255E-10    0.954E-05
DAV:   2    -0.435347157271E+03    0.54570E-11   -0.24701E-12 21632   0.169E-10    0.954E-05
DAV:   3    -0.435347157271E+03   -0.63665E-10    0.64284E-13 21632   0.190E-10    0.954E-05
DAV:   4    -0.435347157270E+03    0.41837E-09    0.29603E-12 21632   0.262E-10    0.954E-05
DAV:   5    -0.435347157270E+03    0.72760E-11   -0.18836E-12 21632   0.176E-10    0.954E-05
DAV:   6    -0.435347157271E+03   -0.20736E-09   -0.16485E-12 21632   0.188E-10
  19 F= -.43534716E+03 E0= -.43534716E+03  d E =0.000000E+00
       N       E                     dE             d eps       ncg     rms          rms(c)
DAV:   1    -0.435347157271E+03   -0.23647E-09    0.31940E-12 21632   0.190E-10    0.954E-05
DAV:   2    -0.435347157271E+03   -0.29468E-09    0.20389E-12 21632   0.222E-10    0.954E-05
DAV:   3    -0.435347157271E+03    0.30195E-09   -0.29899E-13 21632   0.220E-10    0.954E-05
DAV:   4    -0.435347157271E+03   -0.76398E-10    0.12080E-12 21632   0.162E-10    0.954E-05
DAV:   5    -0.435347157270E+03    0.41837E-09    0.18951E-12 21632   0.137E-10    0.954E-05
DAV:   6    -0.435347157270E+03    0.10186E-09    0.24747E-12 21632   0.225E-10
  20 F= -.43534716E+03 E0= -.43534716E+03  d E =0.000000E+00
       N       E                     dE             d eps       ncg     rms          rms(c)
DAV:   1    -0.435347157271E+03   -0.67303E-09   -0.24265E-12 21632   0.222E-10    0.954E-05
DAV:   2    -0.435347157271E+03   -0.54570E-10   -0.11867E-12 21632   0.248E-10    0.954E-05
DAV:   3    -0.435347157270E+03    0.79308E-09    0.21310E-12 21632   0.184E-10    0.954E-05
DAV:   4    -0.435347157271E+03   -0.45111E-09   -0.39704E-13 21632   0.214E-10    0.954E-05
DAV:   5    -0.435347157270E+03    0.35288E-09    0.55574E-13 21632   0.159E-10    0.954E-05
DAV:   6    -0.435347157271E+03   -0.60754E-09    0.14297E-13 21632   0.184E-10
  21 F= -.43534716E+03 E0= -.43534716E+03  d E =0.000000E+00
       N       E                     dE             d eps       ncg     rms          rms(c)
DAV:   1    -0.435347157271E+03   -0.67666E-09    0.39378E-14 21504   0.191E-10    0.954E-05
DAV:   2    -0.435347157271E+03    0.30195E-09    0.21872E-12 21440   0.314E-10    0.954E-05
DAV:   3    -0.435347157272E+03   -0.90586E-09    0.52028E-12 21440   0.236E-10    0.954E-05
DAV:   4    -0.435347157270E+03    0.12242E-08   -0.16614E-13 21312   0.197E-10    0.954E-05
DAV:   5    -0.435347157271E+03   -0.53842E-09    0.12270E-12 21248   0.158E-10    0.954E-05
DAV:   6    -0.435347157271E+03   -0.41837E-10    0.22808E-12 21248   0.170E-10
  22 F= -.43534716E+03 E0= -.43534716E+03  d E =0.000000E+00
       N       E                     dE             d eps       ncg     rms          rms(c)
DAV:   1    -0.435347157271E+03   -0.36562E-09    0.17380E-12 21248   0.226E-10    0.954E-05
DAV:   2    -0.435347157271E+03    0.90949E-11    0.16646E-12 21248   0.393E-10    0.954E-05
DAV:   3    -0.435347157271E+03    0.35470E-09    0.13261E-12 21248   0.247E-10    0.954E-05
DAV:   4    -0.435347157271E+03    0.69122E-10    0.26720E-12 21248   0.127E-10    0.954E-05
DAV:   5    -0.435347157271E+03    0.80036E-10    0.15930E-12 21248   0.182E-10    0.954E-05
DAV:   6    -0.435347157272E+03   -0.87130E-09    0.20006E-12 21248   0.192E-10
  23 F= -.43534716E+03 E0= -.43534716E+03  d E =0.000000E+00
       N       E                     dE             d eps       ncg     rms          rms(c)
DAV:   1    -0.435347157271E+03   -0.74579E-10    0.11328E-12 21248   0.263E-10    0.954E-05
DAV:   2    -0.435347157271E+03    0.12915E-09    0.38232E-12 21248   0.371E-10    0.954E-05
DAV:   3    -0.435347157272E+03   -0.92041E-09   -0.26249E-12 21248   0.302E-10    0.954E-05
DAV:   4    -0.435347157271E+03    0.86220E-09    0.41223E-13 21248   0.272E-10    0.954E-05
DAV:   5    -0.435347157271E+03   -0.20555E-09    0.26254E-12 21248   0.331E-10    0.954E-05
DAV:   6    -0.435347157271E+03    0.30923E-10    0.46077E-12 21248   0.271E-10
  24 F= -.43534716E+03 E0= -.43534716E+03  d E =0.000000E+00
       N       E                     dE             d eps       ncg     rms          rms(c)
DAV:   1    -0.435347157272E+03   -0.54752E-09    0.37339E-12 21248   0.223E-10    0.954E-05
DAV:   2    -0.435347157271E+03    0.12005E-09    0.42004E-12 21248   0.250E-10    0.954E-05
DAV:   3    -0.435347157272E+03   -0.10914E-09    0.52778E-13 21248   0.275E-10    0.954E-05
DAV:   4    -0.435347157272E+03   -0.12551E-09    0.39499E-12 21248   0.237E-10    0.954E-05
DAV:   5    -0.435347157270E+03    0.13188E-08    0.35968E-12 21248   0.253E-10    0.954E-05
DAV:   6    -0.435347157271E+03   -0.46566E-09    0.25790E-14 21248   0.233E-10
  25 F= -.43534716E+03 E0= -.43534716E+03  d E =0.000000E+00
       N       E                     dE             d eps       ncg     rms          rms(c)
DAV:   1    -0.435347157271E+03   -0.10405E-08    0.31636E-12 21248   0.201E-10    0.954E-05
DAV:   2    -0.435347157271E+03    0.87311E-09    0.51160E-12 21248   0.247E-10    0.954E-05
DAV:   3    -0.435347157271E+03   -0.40018E-09    0.73803E-13 21248   0.177E-10    0.954E-05
DAV:   4    -0.435347157272E+03   -0.66939E-09    0.50509E-12 21248   0.164E-10    0.954E-05
DAV:   5    -0.435347157271E+03    0.45839E-09   -0.13075E-12 21248   0.147E-10    0.954E-05
DAV:   6    -0.435347157271E+03    0.11278E-09    0.50318E-12 21248   0.215E-10
  26 F= -.43534716E+03 E0= -.43534716E+03  d E =0.000000E+00
       N       E                     dE             d eps       ncg     rms          rms(c)
DAV:   1    -0.435347157271E+03    0.18554E-09    0.43614E-12 21248   0.230E-10    0.954E-05
DAV:   2    -0.435347157271E+03    0.10186E-09    0.43022E-12 21248   0.245E-10    0.954E-05
DAV:   3    -0.435347157271E+03    0.21464E-09    0.20088E-12 21248   0.237E-10    0.954E-05
DAV:   4    -0.435347157271E+03   -0.47294E-09    0.25618E-12 21248   0.233E-10    0.954E-05
DAV:   5    -0.435347157271E+03    0.10004E-09   -0.99835E-13 21248   0.177E-10    0.954E-05
DAV:   6    -0.435347157271E+03   -0.20009E-09    0.45886E-12 21248   0.151E-10
  27 F= -.43534716E+03 E0= -.43534716E+03  d E =0.000000E+00
       N       E                     dE             d eps       ncg     rms          rms(c)
DAV:   1    -0.435347157271E+03    0.67303E-10    0.21225E-12 21248   0.199E-10    0.954E-05
DAV:   2    -0.435347157271E+03   -0.33651E-09    0.35025E-12 21248   0.304E-10    0.954E-05
DAV:   3    -0.435347157272E+03   -0.36925E-09    0.10829E-13 21248   0.250E-10    0.954E-05
DAV:   4    -0.435347157270E+03    0.11933E-08    0.86485E-13 21248   0.182E-10    0.954E-05
DAV:   5    -0.435347157271E+03   -0.17099E-09    0.30215E-12 21248   0.226E-10    0.954E-05
DAV:   6    -0.435347157271E+03   -0.57480E-09    0.16868E-13 21248   0.200E-10
  28 F= -.43534716E+03 E0= -.43534716E+03  d E =0.000000E+00
       N       E                     dE             d eps       ncg     rms          rms(c)
DAV:   1    -0.435347157271E+03   -0.10186E-09   -0.71927E-13 21248   0.163E-10    0.954E-05
DAV:   2    -0.435347157271E+03   -0.19099E-09    0.32952E-12 21248   0.207E-10    0.954E-05
DAV:   3    -0.435347157271E+03    0.30013E-09   -0.12661E-12 21248   0.169E-10    0.954E-05
DAV:   4    -0.435347157271E+03   -0.20555E-09   -0.39625E-12 21248   0.133E-10    0.954E-05
DAV:   5    -0.435347157270E+03    0.51114E-09   -0.59439E-12 21248   0.172E-10    0.954E-05
DAV:   6    -0.435347157271E+03   -0.80399E-09   -0.18797E-12 21248   0.296E-10
  29 F= -.43534716E+03 E0= -.43534716E+03  d E =0.000000E+00
       N       E                     dE             d eps       ncg     rms          rms(c)
DAV:   1    -0.435347157271E+03   -0.94224E-09   -0.49469E-12 21248   0.202E-10    0.954E-05
DAV:   2    -0.435347157272E+03   -0.26193E-09   -0.10360E-12 21248   0.229E-10    0.954E-05
DAV:   3    -0.435347157271E+03    0.62391E-09    0.79396E-13 21248   0.262E-10    0.954E-05
DAV:   4    -0.435347157271E+03   -0.67303E-10    0.12995E-12 21248   0.181E-10    0.954E-05
DAV:   5    -0.435347157271E+03   -0.36380E-11    0.24428E-12 21248   0.211E-10    0.954E-05
DAV:   6    -0.435347157271E+03    0.25284E-09    0.68381E-13 21248   0.236E-10
  30 F= -.43534716E+03 E0= -.43534716E+03  d E =0.000000E+00
       N       E                     dE             d eps       ncg     rms          rms(c)
DAV:   1    -0.435347157271E+03    0.38926E-09    0.29777E-12 21248   0.191E-10    0.954E-05
DAV:   2    -0.435347157270E+03    0.32014E-09   -0.48519E-12 21248   0.245E-10    0.954E-05
DAV:   3    -0.435347157271E+03   -0.57844E-09   -0.26690E-13 21248   0.269E-10    0.954E-05
DAV:   4    -0.435347157271E+03   -0.10914E-09    0.50738E-13 21248   0.161E-10    0.954E-05
DAV:   5    -0.435347157270E+03    0.74579E-09   -0.15738E-12 21248   0.261E-10    0.954E-05
DAV:   6    -0.435347157271E+03   -0.11150E-08    0.18991E-12 21248   0.181E-10
  31 F= -.43534716E+03 E0= -.43534716E+03  d E =0.000000E+00
       N       E                     dE             d eps       ncg     rms          rms(c)
DAV:   1    -0.435347157271E+03   -0.44383E-09   -0.79148E-13 21248   0.204E-10    0.954E-05
DAV:   2    -0.435347157271E+03   -0.69122E-10    0.18226E-12 21248   0.393E-10    0.954E-05
DAV:   3    -0.435347157271E+03    0.20191E-09   -0.15872E-12 21248   0.382E-10    0.954E-05
DAV:   4    -0.435347157271E+03   -0.63665E-10   -0.25992E-12 21248   0.187E-10    0.954E-05
DAV:   5    -0.435347157271E+03   -0.31650E-09   -0.58833E-14 21248   0.117E-10    0.954E-05
DAV:   6    -0.435347157271E+03    0.40018E-09    0.85589E-13 21248   0.274E-10
  32 F= -.43534716E+03 E0= -.43534716E+03  d E =0.000000E+00
       N       E                     dE             d eps       ncg     rms          rms(c)
DAV:   1    -0.435347157271E+03   -0.36380E-11    0.12000E-12 21248   0.163E-10    0.954E-05
DAV:   2    -0.435347157271E+03    0.17462E-09   -0.30618E-12 21248   0.210E-10    0.954E-05
DAV:   3    -0.435347157271E+03   -0.54570E-11    0.42549E-13 21248   0.193E-10    0.954E-05
DAV:   4    -0.435347157271E+03   -0.47476E-09    0.22691E-12 21248   0.133E-10    0.954E-05
DAV:   5    -0.435347157271E+03    0.68394E-09    0.12689E-12 21248   0.145E-10    0.954E-05
DAV:   6    -0.435347157271E+03   -0.59663E-09    0.76893E-13 21248   0.267E-10
  33 F= -.43534716E+03 E0= -.43534716E+03  d E =0.000000E+00
       N       E                     dE             d eps       ncg     rms          rms(c)
DAV:   1    -0.435347157271E+03   -0.85129E-09   -0.17679E-12 21248   0.179E-10    0.954E-05
DAV:   2    -0.435347157271E+03    0.24011E-09    0.27390E-13 21248   0.215E-10    0.954E-05
DAV:   3    -0.435347157271E+03    0.21464E-09   -0.21869E-12 21248   0.196E-10    0.954E-05
DAV:   4    -0.435347157272E+03   -0.67485E-09    0.17787E-12 21248   0.188E-10    0.954E-05
DAV:   5    -0.435347157270E+03    0.13133E-08   -0.16782E-12 21248   0.136E-10    0.954E-05
DAV:   6    -0.435347157271E+03   -0.71486E-09    0.40471E-12 21248   0.222E-10
  34 F= -.43534716E+03 E0= -.43534716E+03  d E =0.000000E+00
       N       E                     dE             d eps       ncg     rms          rms(c)
DAV:   1    -0.435347157271E+03   -0.92950E-09   -0.36735E-12 21248   0.146E-10    0.954E-05
DAV:   2    -0.435347157271E+03   -0.76398E-10    0.27529E-12 21248   0.203E-10    0.954E-05
DAV:   3    -0.435347157271E+03    0.60027E-10   -0.37502E-12 21248   0.290E-10    0.954E-05
DAV:   4    -0.435347157272E+03   -0.28558E-09    0.47259E-12 21248   0.226E-10    0.954E-05
DAV:   5    -0.435347157271E+03    0.16371E-09   -0.14059E-12 21248   0.159E-10    0.954E-05
DAV:   6    -0.435347157271E+03    0.22192E-09    0.21615E-12 21248   0.242E-10
  35 F= -.43534716E+03 E0= -.43534716E+03  d E =0.000000E+00
       N       E                     dE             d eps       ncg     rms          rms(c)
DAV:   1    -0.435347157271E+03    0.35652E-09   -0.25454E-12 21248   0.187E-10    0.954E-05
DAV:   2    -0.435347157271E+03   -0.21828E-10    0.45538E-12 21248   0.235E-10    0.954E-05
DAV:   3    -0.435347157271E+03   -0.12005E-09   -0.10205E-12 21248   0.210E-10    0.954E-05
DAV:   4    -0.435347157271E+03    0.61482E-09   -0.15287E-12 21248   0.163E-10    0.954E-05
DAV:   5    -0.435347157271E+03   -0.14552E-10    0.72049E-13 21248   0.172E-10    0.954E-05
DAV:   6    -0.435347157271E+03   -0.12005E-09   -0.18536E-12 21248   0.119E-10
  36 F= -.43534716E+03 E0= -.43534716E+03  d E =0.000000E+00
       N       E                     dE             d eps       ncg     rms          rms(c)
DAV:   1    -0.435347157271E+03   -0.33469E-09    0.12488E-12 21248   0.156E-10    0.954E-05
DAV:   2    -0.435347157270E+03    0.38744E-09   -0.33094E-12 21248   0.187E-10    0.954E-05
DAV:   3    -0.435347157271E+03   -0.58390E-09   -0.53571E-13 21248   0.171E-10    0.954E-05
DAV:   4    -0.435347157270E+03    0.62573E-09   -0.13707E-12 21248   0.179E-10    0.954E-05
DAV:   5    -0.435347157271E+03   -0.48385E-09   -0.34364E-14 21248   0.244E-10    0.954E-05
DAV:   6    -0.435347157271E+03    0.83674E-10   -0.42899E-13 21248   0.148E-10
  37 F= -.43534716E+03 E0= -.43534716E+03  d E =0.000000E+00
       N       E                     dE             d eps       ncg     rms          rms(c)
DAV:   1    -0.435347157271E+03    0.12733E-10    0.15678E-12 21248   0.164E-10    0.954E-05
DAV:   2    -0.435347157271E+03   -0.11096E-09   -0.25505E-12 21248   0.144E-10    0.954E-05
DAV:   3    -0.435347157271E+03   -0.45475E-09    0.30416E-12 21248   0.207E-10    0.954E-05
DAV:   4    -0.435347157271E+03    0.79126E-09    0.70202E-13 21248   0.212E-10    0.954E-05
DAV:   5    -0.435347157271E+03    0.87311E-10    0.16932E-12 21248   0.171E-10    0.954E-05
DAV:   6    -0.435347157271E+03   -0.20009E-10    0.29939E-12 21248   0.148E-10
  38 F= -.43534716E+03 E0= -.43534716E+03  d E =0.000000E+00
       N       E                     dE             d eps       ncg     rms          rms(c)
DAV:   1    -0.435347157270E+03    0.21464E-09   -0.12215E-12 21248   0.229E-10    0.954E-05
DAV:   2    -0.435347157271E+03   -0.68940E-09    0.15917E-12 21248   0.284E-10    0.954E-05
DAV:   3    -0.435347157271E+03    0.38199E-10   -0.25835E-12 21248   0.223E-10    0.954E-05
DAV:   4    -0.435347157270E+03    0.65666E-09   -0.23436E-12 21248   0.140E-10    0.954E-05
DAV:   5    -0.435347157270E+03   -0.10004E-09   -0.55425E-13 21248   0.229E-10    0.954E-05
DAV:   6    -0.435347157271E+03   -0.45111E-09    0.10151E-12 21248   0.268E-10
  39 F= -.43534716E+03 E0= -.43534716E+03  d E =0.000000E+00
       N       E                     dE             d eps       ncg     rms          rms(c)
DAV:   1    -0.435347157270E+03    0.72760E-10    0.37319E-13 21248   0.284E-10    0.954E-05
DAV:   2    -0.435347157271E+03   -0.63119E-09    0.25103E-12 21248   0.273E-10    0.954E-05
DAV:   3    -0.435347157271E+03    0.47658E-09   -0.50157E-12 21248   0.201E-10    0.954E-05
DAV:   4    -0.435347157271E+03   -0.12733E-09   -0.29580E-12 21248   0.167E-10    0.954E-05
DAV:   5    -0.435347157271E+03   -0.30923E-09    0.16181E-13 21248   0.175E-10    0.954E-05
DAV:   6    -0.435347157271E+03    0.15643E-09   -0.12834E-12 21248   0.152E-10
  40 F= -.43534716E+03 E0= -.43534716E+03  d E =0.000000E+00
       N       E                     dE             d eps       ncg     rms          rms(c)
DAV:   1    -0.435347157271E+03    0.17644E-09   -0.28362E-13 21248   0.234E-10    0.954E-05
DAV:   2    -0.435347157271E+03   -0.21646E-09    0.14533E-12 21248   0.277E-10    0.954E-05
DAV:   3    -0.435347157270E+03    0.76398E-09    0.38544E-12 21248   0.211E-10    0.954E-05
DAV:   4    -0.435347157271E+03   -0.80217E-09   -0.10287E-12 21248   0.183E-10    0.954E-05
DAV:   5    -0.435347157270E+03    0.68940E-09   -0.26884E-13 21248   0.198E-10    0.954E-05
DAV:   6    -0.435347157270E+03   -0.36380E-10    0.92185E-13 21248   0.198E-10
  41 F= -.43534716E+03 E0= -.43534716E+03  d E =0.000000E+00
       N       E                     dE             d eps       ncg     rms          rms(c)
DAV:   1    -0.435347157271E+03   -0.30741E-09   -0.12629E-12 21248   0.200E-10    0.954E-05
DAV:   2    -0.435347157270E+03    0.26193E-09   -0.29504E-12 21248   0.345E-10    0.954E-05
DAV:   3    -0.435347157271E+03   -0.44565E-09   -0.31716E-12 21248   0.337E-10    0.954E-05
DAV:   4    -0.435347157271E+03   -0.27103E-09   -0.25325E-12 21248   0.346E-10    0.954E-05
DAV:   5    -0.435347157271E+03    0.18190E-11   -0.17311E-12 21248   0.251E-10    0.954E-05
DAV:   6    -0.435347157271E+03    0.16371E-09    0.26491E-12 21248   0.182E-10
  42 F= -.43534716E+03 E0= -.43534716E+03  d E =0.000000E+00
       N       E                     dE             d eps       ncg     rms          rms(c)
DAV:   1    -0.435347157271E+03    0.18917E-09    0.23559E-12 21248   0.166E-10    0.954E-05
DAV:   2    -0.435347157271E+03   -0.45475E-10    0.69528E-13 21248   0.162E-10    0.954E-05
DAV:   3    -0.435347157271E+03    0.45475E-10   -0.10633E-12 21248   0.210E-10    0.954E-05
DAV:   4    -0.435347157271E+03   -0.92768E-10    0.19920E-12 21248   0.133E-10    0.954E-05
DAV:   5    -0.435347157271E+03    0.74579E-10    0.48757E-13 21248   0.186E-10    0.954E-05
DAV:   6    -0.435347157271E+03   -0.18917E-09    0.47629E-13 21248   0.164E-10
  43 F= -.43534716E+03 E0= -.43534716E+03  d E =0.000000E+00
       N       E                     dE             d eps       ncg     rms          rms(c)
DAV:   1    -0.435347157271E+03   -0.34015E-09   -0.29333E-12 21248   0.234E-10    0.954E-05
DAV:   2    -0.435347157271E+03   -0.10914E-09   -0.33964E-12 21248   0.232E-10    0.954E-05
DAV:   3    -0.435347157271E+03    0.81673E-09   -0.34896E-13 21248   0.306E-10    0.954E-05
DAV:   4    -0.435347157271E+03   -0.65484E-10    0.17903E-12 21248   0.162E-10    0.954E-05
DAV:   5    -0.435347157271E+03   -0.18736E-09    0.38363E-12 21248   0.236E-10    0.954E-05
DAV:   6    -0.435347157272E+03   -0.79126E-09    0.43602E-13 21248   0.254E-10
  44 F= -.43534716E+03 E0= -.43534716E+03  d E =0.000000E+00
       N       E                     dE             d eps       ncg     rms          rms(c)
DAV:   1    -0.435347157270E+03    0.69303E-09    0.27172E-12 21248   0.230E-10    0.954E-05
DAV:   2    -0.435347157271E+03   -0.88221E-09    0.10215E-12 21248   0.378E-10    0.954E-05
DAV:   3    -0.435347157271E+03    0.42746E-09    0.21794E-12 21248   0.210E-10    0.954E-05
DAV:   4    -0.435347157271E+03   -0.69122E-10    0.32893E-13 21248   0.304E-10    0.954E-05
DAV:   5    -0.435347157271E+03   -0.36380E-10   -0.18078E-12 21248   0.230E-10    0.954E-05
DAV:   6    -0.435347157271E+03   -0.54752E-09   -0.22113E-12 21248   0.160E-10
  45 F= -.43534716E+03 E0= -.43534716E+03  d E =0.000000E+00
       N       E                     dE             d eps       ncg     rms          rms(c)
DAV:   1    -0.435347157272E+03   -0.86766E-09   -0.26272E-13 21248   0.183E-10    0.954E-05
DAV:   2    -0.435347157271E+03    0.80217E-09   -0.32204E-12 21248   0.272E-10    0.954E-05
DAV:   3    -0.435347157271E+03   -0.11642E-09    0.52335E-13 21248   0.264E-10    0.954E-05
DAV:   4    -0.435347157271E+03    0.25284E-09    0.23953E-12 21248   0.254E-10    0.954E-05
DAV:   5    -0.435347157271E+03    0.65484E-10    0.61897E-12 21248   0.128E-10    0.954E-05
DAV:   6    -0.435347157271E+03   -0.81855E-10    0.11684E-12 21248   0.180E-10
  46 F= -.43534716E+03 E0= -.43534716E+03  d E =0.000000E+00
       N       E                     dE             d eps       ncg     rms          rms(c)
DAV:   1    -0.435347157271E+03   -0.30013E-09    0.27682E-12 21248   0.232E-10    0.954E-05
DAV:   2    -0.435347157271E+03   -0.21828E-10    0.20899E-12 21248   0.234E-10    0.954E-05
DAV:   3    -0.435347157271E+03    0.15280E-09   -0.65514E-14 21248   0.170E-10    0.954E-05
DAV:   4    -0.435347157271E+03    0.18917E-09    0.94545E-13 21248   0.183E-10    0.954E-05
DAV:   5    -0.435347157271E+03   -0.14552E-10   -0.93421E-13 21248   0.147E-10    0.954E-05
DAV:   6    -0.435347157270E+03    0.13279E-09   -0.54232E-13 21248   0.143E-10
  47 F= -.43534716E+03 E0= -.43534716E+03  d E =0.000000E+00
       N       E                     dE             d eps       ncg     rms          rms(c)
DAV:   1    -0.435347157271E+03   -0.50932E-09    0.45676E-12 21248   0.169E-10    0.954E-05
DAV:   2    -0.435347157271E+03   -0.22555E-09   -0.94320E-13 21248   0.253E-10    0.954E-05
DAV:   3    -0.435347157271E+03    0.68394E-09    0.37171E-13 21248   0.287E-10    0.954E-05
DAV:   4    -0.435347157271E+03   -0.37289E-09    0.19511E-12 21248   0.200E-10    0.954E-05
DAV:   5    -0.435347157270E+03    0.56389E-09   -0.19130E-12 21248   0.128E-10    0.954E-05
DAV:   6    -0.435347157271E+03   -0.12005E-09    0.36253E-12 21248   0.220E-10
  48 F= -.43534716E+03 E0= -.43534716E+03  d E =0.000000E+00
       N       E                     dE             d eps       ncg     rms          rms(c)
DAV:   1    -0.435347157270E+03   -0.34561E-10    0.62372E-13 21248   0.339E-10    0.954E-05
DAV:   2    -0.435347157271E+03   -0.45839E-09   -0.28280E-12 21248   0.431E-10    0.954E-05
DAV:   3    -0.435347157271E+03   -0.18190E-09    0.51833E-12 21248   0.312E-10    0.954E-05
DAV:   4    -0.435347157271E+03    0.21828E-10    0.78638E-13 21248   0.261E-10    0.954E-05
DAV:   5    -0.435347157271E+03    0.98225E-10    0.52930E-12 21248   0.199E-10    0.954E-05
DAV:   6    -0.435347157271E+03    0.00000E+00   -0.67914E-12 21248   0.141E-10
  49 F= -.43534716E+03 E0= -.43534716E+03  d E =0.000000E+00
       N       E                     dE             d eps       ncg     rms          rms(c)
DAV:   1    -0.435347157271E+03    0.11642E-09   -0.12617E-12 21248   0.134E-10    0.954E-05
DAV:   2    -0.435347157271E+03   -0.24011E-09   -0.37021E-12 21248   0.163E-10    0.954E-05
DAV:   3    -0.435347157271E+03    0.63847E-09   -0.12930E-12 21248   0.207E-10    0.954E-05
DAV:   4    -0.435347157270E+03    0.45475E-10    0.23062E-12 21248   0.112E-10    0.954E-05
DAV:   5    -0.435347157271E+03   -0.35652E-09    0.19942E-13 21248   0.181E-10    0.954E-05
DAV:   6    -0.435347157272E+03   -0.74215E-09    0.23142E-12 21248   0.169E-10
  50 F= -.43534716E+03 E0= -.43534716E+03  d E =0.000000E+00
       N       E                     dE             d eps       ncg     rms          rms(c)
DAV:   1    -0.435347157271E+03   -0.33833E-09    0.64326E-13 21248   0.196E-10    0.954E-05
DAV:   2    -0.435347157272E+03   -0.43292E-09    0.44672E-12 21248   0.207E-10    0.954E-05
DAV:   3    -0.435347157271E+03    0.60572E-09   -0.72893E-13 21248   0.152E-10    0.954E-05
DAV:   4    -0.435347157271E+03   -0.26921E-09    0.56133E-12 21248   0.185E-10    0.954E-05
DAV:   5    -0.435347157271E+03   -0.22555E-09    0.15052E-12 21248   0.210E-10    0.954E-05
DAV:   6    -0.435347157271E+03    0.66029E-09    0.51513E-12 21248   0.212E-10
  51 F= -.43534716E+03 E0= -.43534716E+03  d E =0.000000E+00
       N       E                     dE             d eps       ncg     rms          rms(c)
DAV:   1    -0.435347157272E+03   -0.74579E-10   -0.10986E-12 21248   0.336E-10    0.954E-05
DAV:   2    -0.435347157271E+03    0.94587E-09    0.30655E-12 21248   0.243E-10    0.954E-05
DAV:   3    -0.435347157271E+03   -0.50932E-10    0.44888E-12 21248   0.247E-10    0.954E-05
DAV:   4    -0.435347157270E+03    0.17826E-09    0.43957E-12 21248   0.214E-10    0.954E-05
DAV:   5    -0.435347157271E+03   -0.84765E-09    0.23478E-12 21248   0.140E-10    0.954E-05
DAV:   6    -0.435347157271E+03    0.33106E-09    0.20227E-12 21248   0.141E-10
  52 F= -.43534716E+03 E0= -.43534716E+03  d E =0.000000E+00
       N       E                     dE             d eps       ncg     rms          rms(c)
DAV:   1    -0.435347157271E+03    0.65484E-10    0.18065E-12 21248   0.162E-10    0.954E-05
DAV:   2    -0.435347157272E+03   -0.30923E-09    0.55650E-12 21248   0.289E-10    0.954E-05
DAV:   3    -0.435347157271E+03    0.18736E-09    0.12993E-12 21248   0.289E-10    0.954E-05
DAV:   4    -0.435347157271E+03    0.28922E-09    0.61753E-12 21248   0.174E-10    0.954E-05
DAV:   5    -0.435347157271E+03    0.94587E-10    0.28758E-12 21248   0.214E-10    0.954E-05
DAV:   6    -0.435347157271E+03    0.50932E-10    0.18434E-12 21248   0.203E-10
  53 F= -.43534716E+03 E0= -.43534716E+03  d E =0.000000E+00
       N       E                     dE             d eps       ncg     rms          rms(c)
DAV:   1    -0.435347157271E+03   -0.12551E-09    0.12510E-12 21248   0.210E-10    0.954E-05
DAV:   2    -0.435347157272E+03   -0.41109E-09    0.11568E-12 21248   0.444E-10    0.954E-05
DAV:   3    -0.435347157271E+03    0.98771E-09   -0.26448E-12 21248   0.282E-10    0.954E-05
DAV:   4    -0.435347157271E+03   -0.84401E-09    0.54883E-12 21248   0.238E-10    0.954E-05
DAV:   5    -0.435347157271E+03    0.38926E-09    0.64329E-13 21248   0.301E-10    0.954E-05
DAV:   6    -0.435347157270E+03    0.63665E-09    0.26576E-12 21248   0.238E-10
  54 F= -.43534716E+03 E0= -.43534716E+03  d E =0.000000E+00
       N       E                     dE             d eps       ncg     rms          rms(c)
DAV:   1    -0.435347157271E+03    0.24374E-09    0.19911E-12 21248   0.270E-10    0.954E-05
DAV:   2    -0.435347157270E+03    0.28376E-09    0.65930E-13 21248   0.357E-10    0.954E-05
DAV:   3    -0.435347157271E+03   -0.48385E-09   -0.43156E-12 21248   0.266E-10    0.954E-05
DAV:   4    -0.435347157271E+03    0.42564E-09   -0.52013E-13 21248   0.206E-10    0.954E-05
DAV:   5    -0.435347157270E+03    0.14552E-09   -0.30309E-13 21248   0.146E-10    0.954E-05
DAV:   6    -0.435347157271E+03   -0.87675E-09    0.38251E-12 21248   0.127E-10
  55 F= -.43534716E+03 E0= -.43534716E+03  d E =0.000000E+00
       N       E                     dE             d eps       ncg     rms          rms(c)
DAV:   1    -0.435347157270E+03    0.40018E-10    0.53836E-14 21248   0.258E-10    0.954E-05
DAV:   2    -0.435347157271E+03   -0.77489E-09    0.34805E-12 21248   0.402E-10    0.954E-05
DAV:   3    -0.435347157271E+03    0.15098E-09   -0.14207E-12 21248   0.292E-10    0.954E-05
DAV:   4    -0.435347157271E+03   -0.12733E-10   -0.77758E-13 21248   0.155E-10    0.954E-05
DAV:   5    -0.435347157271E+03   -0.98225E-10    0.98871E-13 21248   0.319E-10    0.954E-05
DAV:   6    -0.435347157272E+03   -0.46020E-09   -0.21628E-13 21248   0.233E-10
  56 F= -.43534716E+03 E0= -.43534716E+03  d E =0.000000E+00
       N       E                     dE             d eps       ncg     rms          rms(c)
DAV:   1    -0.435347157271E+03    0.16371E-10   -0.12151E-12 21248   0.150E-10    0.954E-05
DAV:   2    -0.435347157272E+03   -0.44383E-09    0.21008E-12 21248   0.250E-10    0.954E-05
DAV:   3    -0.435347157271E+03    0.70941E-09    0.11389E-12 21248   0.174E-10    0.954E-05
DAV:   4    -0.435347157271E+03   -0.58208E-10    0.31533E-12 21248   0.124E-10    0.954E-05
DAV:   5    -0.435347157272E+03   -0.84219E-09    0.85730E-13 21248   0.284E-10    0.954E-05
DAV:   6    -0.435347157271E+03    0.95679E-09   -0.13214E-13 21248   0.180E-10
  57 F= -.43534716E+03 E0= -.43534716E+03  d E =0.000000E+00
       N       E                     dE             d eps       ncg     rms          rms(c)
DAV:   1    -0.435347157270E+03    0.14334E-08    0.29289E-12 21248   0.415E-10    0.954E-05
DAV:   2    -0.435347157271E+03   -0.10514E-08    0.14511E-13 21248   0.382E-10    0.954E-05
DAV:   3    -0.435347157271E+03    0.67303E-09   -0.20876E-12 21248   0.340E-10    0.954E-05
DAV:   4    -0.435347157272E+03   -0.92405E-09    0.39513E-12 21248   0.295E-10    0.954E-05
DAV:   5    -0.435347157271E+03    0.70941E-09   -0.67672E-13 21248   0.180E-10    0.954E-05
DAV:   6    -0.435347157271E+03   -0.48021E-09   -0.74808E-13 21248   0.197E-10
  58 F= -.43534716E+03 E0= -.43534716E+03  d E =0.000000E+00
       N       E                     dE             d eps       ncg     rms          rms(c)
DAV:   1    -0.435347157272E+03   -0.70031E-09   -0.55177E-13 21248   0.163E-10    0.954E-05
DAV:   2    -0.435347157271E+03    0.16553E-09   -0.17367E-12 21248   0.165E-10    0.954E-05
DAV:   3    -0.435347157272E+03   -0.17826E-09    0.37067E-12 21248   0.230E-10    0.954E-05
DAV:   4    -0.435347157271E+03    0.71486E-09    0.17052E-12 21248   0.167E-10    0.954E-05
DAV:   5    -0.435347157271E+03    0.24556E-09    0.33661E-12 21248   0.973E-11    0.954E-05
DAV:   6    -0.435347157271E+03   -0.17099E-09    0.16829E-12 21248   0.227E-10
  59 F= -.43534716E+03 E0= -.43534716E+03  d E =0.000000E+00
       N       E                     dE             d eps       ncg     rms          rms(c)
DAV:   1    -0.435347157271E+03   -0.38199E-09    0.30502E-12 21248   0.244E-10    0.954E-05
DAV:   2    -0.435347157270E+03    0.68758E-09    0.26589E-12 21248   0.130E-10    0.954E-05
DAV:   3    -0.435347157271E+03   -0.25830E-09   -0.33775E-13 21248   0.215E-10    0.954E-05
DAV:   4    -0.435347157270E+03    0.24920E-09    0.30536E-12 21248   0.166E-10    0.954E-05
DAV:   5    -0.435347157272E+03   -0.13079E-08   -0.78211E-13 21248   0.148E-10    0.954E-05
DAV:   6    -0.435347157271E+03    0.78580E-09   -0.46268E-13 21248   0.181E-10
  60 F= -.43534716E+03 E0= -.43534716E+03  d E =0.000000E+00
       N       E                     dE             d eps       ncg     rms          rms(c)
DAV:   1    -0.435347157271E+03    0.44201E-09   -0.23067E-13 21248   0.245E-10    0.954E-05
DAV:   2    -0.435347157271E+03    0.81855E-10   -0.32827E-14 21248   0.301E-10    0.954E-05
DAV:   3    -0.435347157271E+03   -0.32742E-09    0.21148E-12 21248   0.288E-10    0.954E-05
DAV:   4    -0.435347157271E+03    0.29831E-09    0.60761E-12 21248   0.182E-10    0.954E-05
DAV:   5    -0.435347157271E+03    0.49840E-09    0.48938E-12 21248   0.184E-10    0.954E-05
DAV:   6    -0.435347157271E+03   -0.21100E-09    0.60236E-12 21248   0.198E-10
  61 F= -.43534716E+03 E0= -.43534716E+03  d E =0.000000E+00
       N       E                     dE             d eps       ncg     rms          rms(c)
DAV:   1    -0.435347157270E+03    0.24374E-09    0.20278E-12 21248   0.113E-10    0.954E-05
DAV:   2    -0.435347157270E+03    0.11096E-09    0.30219E-12 21248   0.250E-10    0.954E-05
DAV:   3    -0.435347157271E+03   -0.50568E-09   -0.68511E-12 21248   0.241E-10    0.954E-05
DAV:   4    -0.435347157271E+03   -0.62391E-09    0.36404E-12 21248   0.207E-10    0.954E-05
DAV:   5    -0.435347157270E+03    0.10368E-08    0.25105E-12 21248   0.144E-10    0.954E-05
DAV:   6    -0.435347157270E+03    0.12915E-09    0.23312E-12 21248   0.212E-10
  62 F= -.43534716E+03 E0= -.43534716E+03  d E =0.000000E+00
       N       E                     dE             d eps       ncg     rms          rms(c)
DAV:   1    -0.435347157271E+03   -0.10259E-08    0.16049E-12 21248   0.150E-10    0.954E-05
DAV:   2    -0.435347157272E+03   -0.22010E-09    0.16442E-13 21248   0.332E-10    0.954E-05
DAV:   3    -0.435347157272E+03    0.41837E-10   -0.58663E-12 21248   0.229E-10    0.954E-05
DAV:   4    -0.435347157271E+03    0.69485E-09    0.43595E-13 21248   0.189E-10    0.954E-05
DAV:   5    -0.435347157271E+03    0.16007E-09    0.20536E-12 21248   0.278E-10    0.954E-05
DAV:   6    -0.435347157271E+03   -0.40200E-09    0.24690E-12 21248   0.223E-10
  63 F= -.43534716E+03 E0= -.43534716E+03  d E =0.000000E+00
       N       E                     dE             d eps       ncg     rms          rms(c)
DAV:   1    -0.435347157271E+03   -0.70577E-09    0.60995E-12 21248   0.132E-10    0.954E-05
DAV:   2    -0.435347157271E+03    0.88403E-09    0.52641E-12 21248   0.254E-10    0.954E-05
DAV:   3    -0.435347157271E+03   -0.76943E-09   -0.13917E-12 21248   0.214E-10    0.954E-05
DAV:   4    -0.435347157271E+03    0.32196E-09   -0.12377E-12 21248   0.217E-10    0.954E-05
DAV:   5    -0.435347157271E+03    0.13461E-09    0.49163E-12 21248   0.158E-10    0.954E-05
DAV:   6    -0.435347157271E+03   -0.43292E-09    0.40768E-13 21248   0.171E-10
  64 F= -.43534716E+03 E0= -.43534716E+03  d E =0.000000E+00
       N       E                     dE             d eps       ncg     rms          rms(c)
DAV:   1    -0.435347157270E+03    0.40927E-09    0.96190E-13 21248   0.145E-10    0.954E-05
DAV:   2    -0.435347157271E+03   -0.35834E-09    0.54848E-12 21248   0.269E-10    0.954E-05
DAV:   3    -0.435347157272E+03   -0.80399E-09   -0.69510E-13 21248   0.272E-10    0.954E-05
DAV:   4    -0.435347157270E+03    0.12551E-08   -0.14451E-13 21248   0.185E-10    0.954E-05
DAV:   5    -0.435347157270E+03   -0.12369E-09    0.17590E-12 21248   0.149E-10    0.954E-05
DAV:   6    -0.435347157270E+03   -0.29104E-10    0.24546E-12 21248   0.205E-10
  65 F= -.43534716E+03 E0= -.43534716E+03  d E =0.000000E+00
       N       E                     dE             d eps       ncg     rms          rms(c)
DAV:   1    -0.435347157271E+03   -0.24374E-09   -0.36385E-12 21248   0.213E-10    0.954E-05
DAV:   2    -0.435347157271E+03   -0.34925E-09    0.74967E-13 21248   0.203E-10    0.954E-05
DAV:   3    -0.435347157271E+03   -0.90949E-11   -0.37102E-13 21248   0.267E-10    0.954E-05
DAV:   4    -0.435347157271E+03    0.30923E-10   -0.75490E-13 21248   0.243E-10    0.954E-05
DAV:   5    -0.435347157271E+03   -0.32378E-09   -0.10239E-12 21248   0.208E-10    0.954E-05
DAV:   6    -0.435347157271E+03    0.28012E-09    0.28529E-12 21248   0.273E-10
  66 F= -.43534716E+03 E0= -.43534716E+03  d E =0.000000E+00
       N       E                     dE             d eps       ncg     rms          rms(c)
DAV:   1    -0.435347157272E+03   -0.24738E-09    0.30674E-12 21248   0.159E-10    0.954E-05
DAV:   2    -0.435347157271E+03    0.57480E-09    0.34271E-12 21248   0.276E-10    0.954E-05
DAV:   3    -0.435347157271E+03   -0.20736E-09    0.86589E-13 21248   0.296E-10    0.954E-05
DAV:   4    -0.435347157271E+03    0.20736E-09    0.88859E-13 21248   0.264E-10    0.954E-05
DAV:   5    -0.435347157271E+03    0.44929E-09    0.41466E-12 21248   0.180E-10    0.954E-05
DAV:   6    -0.435347157272E+03   -0.92223E-09    0.55551E-12 21248   0.178E-10
  67 F= -.43534716E+03 E0= -.43534716E+03  d E =0.000000E+00
       N       E                     dE             d eps       ncg     rms          rms(c)
DAV:   1    -0.435347157271E+03   -0.51296E-09   -0.25425E-12 21248   0.203E-10    0.954E-05
DAV:   2    -0.435347157272E+03   -0.49658E-09    0.51625E-12 21248   0.126E-10    0.954E-05
DAV:   3    -0.435347157271E+03    0.60572E-09    0.26256E-12 21248   0.206E-10    0.954E-05
DAV:   4    -0.435347157271E+03    0.35470E-09    0.21663E-13 21248   0.271E-10    0.954E-05
DAV:   5    -0.435347157271E+03   -0.26557E-09    0.23390E-12 21248   0.244E-10    0.954E-05
DAV:   6    -0.435347157271E+03   -0.12733E-10    0.68139E-12 21248   0.186E-10
  68 F= -.43534716E+03 E0= -.43534716E+03  d E =0.000000E+00
       N       E                     dE             d eps       ncg     rms          rms(c)
DAV:   1    -0.435347157270E+03    0.40382E-09   -0.65871E-13 21248   0.178E-10    0.954E-05
DAV:   2    -0.435347157271E+03   -0.45839E-09    0.21522E-12 21248   0.200E-10    0.954E-05
DAV:   3    -0.435347157271E+03   -0.35288E-09    0.31286E-13 21248   0.181E-10    0.954E-05
DAV:   4    -0.435347157271E+03    0.36380E-10   -0.66088E-13 21248   0.181E-10    0.954E-05
DAV:   5    -0.435347157271E+03   -0.43656E-10   -0.11509E-12 21248   0.201E-10    0.954E-05
DAV:   6    -0.435347157271E+03    0.62391E-09    0.24504E-12 21248   0.202E-10
  69 F= -.43534716E+03 E0= -.43534716E+03  d E =0.000000E+00
       N       E                     dE             d eps       ncg     rms          rms(c)
DAV:   1    -0.435347157271E+03    0.63301E-09    0.44617E-12 21248   0.135E-10    0.954E-05
DAV:   2    -0.435347157271E+03   -0.31650E-09    0.35979E-13 21248   0.174E-10    0.954E-05
DAV:   3    -0.435347157271E+03   -0.36380E-11    0.38638E-12 21248   0.131E-10    0.954E-05
DAV:   4    -0.435347157271E+03    0.90949E-10   -0.32870E-12 21248   0.139E-10    0.954E-05
DAV:   5    -0.435347157271E+03    0.36380E-09   -0.17395E-12 21248   0.244E-10    0.954E-05
DAV:   6    -0.435347157271E+03   -0.23465E-09    0.83775E-13 21248   0.221E-10
  70 F= -.43534716E+03 E0= -.43534716E+03  d E =0.000000E+00
       N       E                     dE             d eps       ncg     rms          rms(c)
DAV:   1    -0.435347157272E+03   -0.10041E-08   -0.13086E-12 21248   0.246E-10    0.954E-05
DAV:   2    -0.435347157271E+03    0.70031E-09    0.40899E-12 21248   0.283E-10    0.954E-05
DAV:   3    -0.435347157271E+03    0.22010E-09    0.39894E-13 21248   0.224E-10    0.954E-05
DAV:   4    -0.435347157271E+03   -0.30013E-09    0.50548E-12 21248   0.140E-10    0.954E-05
DAV:   5    -0.435347157271E+03    0.27285E-09   -0.38486E-13 21248   0.204E-10    0.954E-05
DAV:   6    -0.435347157271E+03    0.13642E-09   -0.97432E-13 21248   0.159E-10
  71 F= -.43534716E+03 E0= -.43534716E+03  d E =0.000000E+00
       N       E                     dE             d eps       ncg     rms          rms(c)
DAV:   1    -0.435347157271E+03   -0.64938E-09   -0.21500E-12 21248   0.257E-10    0.954E-05
DAV:   2    -0.435347157270E+03    0.97134E-09    0.13412E-12 21248   0.197E-10    0.954E-05
DAV:   3    -0.435347157271E+03   -0.42746E-09   -0.66182E-13 21248   0.214E-10    0.954E-05
DAV:   4    -0.435347157271E+03   -0.46384E-09    0.10868E-13 21248   0.226E-10    0.954E-05
DAV:   5    -0.435347157271E+03    0.38563E-09    0.19341E-12 21248   0.201E-10    0.954E-05
DAV:   6    -0.435347157271E+03   -0.12005E-09    0.85566E-13 21248   0.174E-10
  72 F= -.43534716E+03 E0= -.43534716E+03  d E =0.000000E+00
       N       E                     dE             d eps       ncg     rms          rms(c)
DAV:   1    -0.435347157271E+03   -0.11278E-09   -0.11347E-13 21248   0.149E-10    0.954E-05
DAV:   2    -0.435347157271E+03    0.13642E-09    0.33521E-12 21248   0.221E-10    0.954E-05
DAV:   3    -0.435347157271E+03   -0.61664E-09    0.37591E-13 21248   0.232E-10    0.954E-05
DAV:   4    -0.435347157271E+03    0.37471E-09   -0.15712E-12 21248   0.106E-10    0.954E-05
DAV:   5    -0.435347157271E+03    0.54570E-10    0.15563E-12 21248   0.145E-10    0.954E-05
DAV:   6    -0.435347157271E+03    0.14916E-09    0.27823E-12 21248   0.214E-10
  73 F= -.43534716E+03 E0= -.43534716E+03  d E =0.000000E+00
       N       E                     dE             d eps       ncg     rms          rms(c)
DAV:   1    -0.435347157271E+03   -0.46930E-09    0.14059E-12 21248   0.143E-10    0.954E-05
DAV:   2    -0.435347157271E+03    0.44747E-09    0.31835E-12 21248   0.268E-10    0.954E-05
DAV:   3    -0.435347157271E+03   -0.36744E-09   -0.21606E-12 21248   0.240E-10    0.954E-05
DAV:   4    -0.435347157271E+03    0.23829E-09   -0.18884E-13 21248   0.227E-10    0.954E-05
DAV:   5    -0.435347157271E+03   -0.29650E-09    0.16410E-12 21248   0.201E-10    0.954E-05
DAV:   6    -0.435347157271E+03    0.69122E-09    0.14218E-12 21248   0.194E-10
  74 F= -.43534716E+03 E0= -.43534716E+03  d E =0.000000E+00
       N       E                     dE             d eps       ncg     rms          rms(c)
DAV:   1    -0.435347157270E+03    0.10259E-08    0.16633E-12 21248   0.176E-10    0.954E-05
DAV:   2    -0.435347157271E+03   -0.14552E-09    0.29182E-12 21248   0.300E-10    0.954E-05
DAV:   3    -0.435347157271E+03   -0.81491E-09   -0.39800E-12 21248   0.250E-10    0.954E-05
DAV:   4    -0.435347157271E+03    0.60936E-09   -0.13616E-12 21248   0.184E-10    0.954E-05
DAV:   5    -0.435347157270E+03    0.33651E-09   -0.53461E-13 21248   0.262E-10    0.954E-05
DAV:   6    -0.435347157272E+03   -0.11823E-08   -0.15705E-12 21248   0.168E-10
  75 F= -.43534716E+03 E0= -.43534716E+03  d E =0.000000E+00
       N       E                     dE             d eps       ncg     rms          rms(c)
DAV:   1    -0.435347157271E+03   -0.28740E-09    0.51351E-13 21248   0.192E-10    0.954E-05
DAV:   2    -0.435347157272E+03   -0.84765E-09    0.53403E-12 21248   0.292E-10    0.954E-05
DAV:   3    -0.435347157271E+03    0.72396E-09    0.33299E-12 21248   0.376E-10    0.954E-05
DAV:   4    -0.435347157271E+03   -0.20555E-09   -0.17833E-12 21248   0.265E-10    0.954E-05
DAV:   5    -0.435347157270E+03    0.73487E-09    0.37927E-12 21248   0.266E-10    0.954E-05
DAV:   6    -0.435347157271E+03   -0.35470E-09   -0.17443E-13 21248   0.295E-10
  76 F= -.43534716E+03 E0= -.43534716E+03  d E =0.000000E+00
       N       E                     dE             d eps       ncg     rms          rms(c)
DAV:   1    -0.435347157270E+03    0.85493E-10    0.15539E-12 21248   0.260E-10    0.954E-05
DAV:   2    -0.435347157271E+03   -0.71122E-09    0.29605E-12 21248   0.269E-10    0.954E-05
DAV:   3    -0.435347157271E+03   -0.19463E-09    0.11072E-12 21248   0.215E-10    0.954E-05
DAV:   4    -0.435347157272E+03   -0.46384E-09   -0.67140E-13 21248   0.140E-10    0.954E-05
DAV:   5    -0.435347157270E+03    0.11696E-08    0.17793E-13 21248   0.221E-10    0.954E-05
DAV:   6    -0.435347157271E+03   -0.76579E-09    0.84083E-13 21248   0.332E-10
  77 F= -.43534716E+03 E0= -.43534716E+03  d E =0.000000E+00
       N       E                     dE             d eps       ncg     rms          rms(c)
DAV:   1    -0.435347157271E+03   -0.63301E-09   -0.26353E-12 21248   0.157E-10    0.954E-05
DAV:   2    -0.435347157271E+03    0.74579E-10    0.21197E-12 21248   0.202E-10    0.954E-05
DAV:   3    -0.435347157271E+03    0.11823E-09    0.36012E-13 21248   0.190E-10    0.954E-05
DAV:   4    -0.435347157271E+03   -0.49658E-09    0.27469E-12 21248   0.189E-10    0.954E-05
DAV:   5    -0.435347157272E+03   -0.32560E-09    0.11934E-12 21248   0.154E-10    0.954E-05
DAV:   6    -0.435347157271E+03    0.89676E-09   -0.22895E-12 21248   0.199E-10
  78 F= -.43534716E+03 E0= -.43534716E+03  d E =0.000000E+00
       N       E                     dE             d eps       ncg     rms          rms(c)
DAV:   1    -0.435347157272E+03    0.18736E-09    0.19193E-12 21248   0.389E-10    0.954E-05
DAV:   2    -0.435347157271E+03    0.23465E-09    0.29875E-12 21248   0.316E-10    0.954E-05
DAV:   3    -0.435347157271E+03    0.65847E-09   -0.16699E-12 21248   0.266E-10    0.954E-05
DAV:   4    -0.435347157271E+03   -0.35652E-09    0.41861E-12 21248   0.255E-10    0.954E-05
DAV:   5    -0.435347157270E+03    0.56571E-09    0.24465E-12 21248   0.278E-10    0.954E-05
DAV:   6    -0.435347157272E+03   -0.12387E-08    0.10686E-12 21248   0.155E-10
  79 F= -.43534716E+03 E0= -.43534716E+03  d E =0.000000E+00
       N       E                     dE             d eps       ncg     rms          rms(c)
DAV:   1    -0.435347157271E+03   -0.66393E-09    0.25659E-14 21248   0.121E-10    0.954E-05
DAV:   2    -0.435347157270E+03    0.80399E-09    0.21669E-12 21248   0.203E-10    0.954E-05
DAV:   3    -0.435347157271E+03   -0.62573E-09    0.10995E-12 21248   0.180E-10    0.954E-05
DAV:   4    -0.435347157271E+03    0.11823E-09   -0.15841E-12 21248   0.131E-10    0.954E-05
DAV:   5    -0.435347157271E+03   -0.27285E-09    0.34454E-12 21248   0.141E-10    0.954E-05
DAV:   6    -0.435347157271E+03    0.23465E-09    0.51467E-12 21248   0.188E-10
  80 F= -.43534716E+03 E0= -.43534716E+03  d E =0.000000E+00
       N       E                     dE             d eps       ncg     rms          rms(c)
DAV:   1    -0.435347157271E+03   -0.30923E-10    0.90614E-13 21248   0.229E-10    0.954E-05
DAV:   2    -0.435347157272E+03   -0.53114E-09    0.22734E-12 21248   0.285E-10    0.954E-05
DAV:   3    -0.435347157271E+03    0.17280E-09   -0.11940E-12 21248   0.163E-10    0.954E-05
DAV:   4    -0.435347157270E+03    0.11405E-08    0.59050E-12 21248   0.291E-10    0.954E-05
DAV:   5    -0.435347157271E+03   -0.48749E-09    0.52004E-12 21248   0.235E-10    0.954E-05
DAV:   6    -0.435347157271E+03    0.14552E-10   -0.96600E-13 21248   0.217E-10
  81 F= -.43534716E+03 E0= -.43534716E+03  d E =0.000000E+00
       N       E                     dE             d eps       ncg     rms          rms(c)
DAV:   1    -0.435347157270E+03    0.48203E-09    0.41945E-12 21248   0.181E-10    0.954E-05
DAV:   2    -0.435347157271E+03   -0.75124E-09   -0.61182E-14 21248   0.267E-10    0.954E-05
DAV:   3    -0.435347157272E+03   -0.57116E-09    0.26748E-12 21248   0.281E-10    0.954E-05
DAV:   4    -0.435347157271E+03    0.82218E-09   -0.61788E-13 21248   0.166E-10    0.954E-05
DAV:   5    -0.435347157271E+03    0.26921E-09    0.78550E-13 21248   0.138E-10    0.954E-05
DAV:   6    -0.435347157272E+03   -0.11314E-08   -0.23038E-13 21248   0.178E-10
  82 F= -.43534716E+03 E0= -.43534716E+03  d E =0.000000E+00
       N       E                     dE             d eps       ncg     rms          rms(c)
DAV:   1    -0.435347157271E+03   -0.49113E-09   -0.22378E-13 21248   0.247E-10    0.954E-05
DAV:   2    -0.435347157271E+03    0.21100E-09   -0.33158E-13 21248   0.292E-10    0.954E-05
DAV:   3    -0.435347157270E+03    0.40200E-09    0.42073E-12 21248   0.160E-10    0.954E-05
DAV:   4    -0.435347157271E+03   -0.94769E-09    0.74713E-13 21248   0.278E-10    0.954E-05
DAV:   5    -0.435347157271E+03    0.10914E-10    0.40743E-12 21248   0.303E-10    0.954E-05
DAV:   6    -0.435347157272E+03   -0.34379E-09    0.13895E-12 21248   0.258E-10
  83 F= -.43534716E+03 E0= -.43534716E+03  d E =0.000000E+00
       N       E                     dE             d eps       ncg     rms          rms(c)
DAV:   1    -0.435347157272E+03   -0.16007E-09    0.17812E-12 21248   0.224E-10    0.954E-05
DAV:   2    -0.435347157270E+03    0.11732E-08    0.12222E-13 21248   0.275E-10    0.954E-05
DAV:   3    -0.435347157271E+03   -0.66393E-09    0.86743E-14 21248   0.262E-10    0.954E-05
DAV:   4    -0.435347157271E+03    0.76398E-10    0.86320E-13 21248   0.254E-10    0.954E-05
DAV:   5    -0.435347157271E+03    0.12915E-09    0.18889E-12 21248   0.203E-10    0.954E-05
DAV:   6    -0.435347157270E+03    0.50750E-09    0.25716E-12 21248   0.255E-10
  84 F= -.43534716E+03 E0= -.43534716E+03  d E =0.000000E+00
       N       E                     dE             d eps       ncg     rms          rms(c)
DAV:   1    -0.435347157270E+03    0.42564E-09    0.15378E-12 21248   0.138E-10    0.954E-05
DAV:   2    -0.435347157271E+03   -0.73669E-09    0.44893E-13 21248   0.382E-10    0.954E-05
DAV:   3    -0.435347157271E+03   -0.37289E-09    0.17390E-12 21248   0.277E-10    0.954E-05
DAV:   4    -0.435347157271E+03    0.20373E-09    0.50525E-13 21248   0.205E-10    0.954E-05
DAV:   5    -0.435347157271E+03    0.50568E-09   -0.97299E-14 21248   0.309E-10    0.954E-05
DAV:   6    -0.435347157271E+03   -0.18372E-09    0.11813E-13 21248   0.173E-10
  85 F= -.43534716E+03 E0= -.43534716E+03  d E =0.000000E+00
       N       E                     dE             d eps       ncg     rms          rms(c)
DAV:   1    -0.435347157271E+03   -0.38744E-09   -0.34533E-12 21248   0.171E-10    0.954E-05
DAV:   2    -0.435347157272E+03   -0.38926E-09   -0.19717E-12 21248   0.203E-10    0.954E-05
DAV:   3    -0.435347157271E+03    0.69122E-10    0.19994E-13 21248   0.173E-10    0.954E-05
DAV:   4    -0.435347157271E+03    0.48385E-09    0.40256E-12 21248   0.126E-10    0.954E-05
DAV:   5    -0.435347157271E+03    0.18008E-09    0.41611E-12 21248   0.147E-10    0.954E-05
DAV:   6    -0.435347157271E+03    0.18008E-09    0.30988E-12 21248   0.140E-10
  86 F= -.43534716E+03 E0= -.43534716E+03  d E =0.000000E+00
       N       E                     dE             d eps       ncg     rms          rms(c)
DAV:   1    -0.435347157270E+03    0.57298E-09    0.32342E-12 21248   0.140E-10    0.954E-05
DAV:   2    -0.435347157270E+03   -0.13642E-09    0.40196E-12 21248   0.314E-10    0.954E-05
DAV:   3    -0.435347157271E+03   -0.98407E-09    0.10054E-12 21248   0.266E-10    0.954E-05
DAV:   4    -0.435347157271E+03    0.37471E-09    0.81376E-13 21248   0.164E-10    0.954E-05
DAV:   5    -0.435347157270E+03    0.53296E-09    0.63915E-13 21248   0.262E-10    0.954E-05
DAV:   6    -0.435347157270E+03    0.10368E-09   -0.18771E-12 21248   0.196E-10
  87 F= -.43534716E+03 E0= -.43534716E+03  d E =0.000000E+00
       N       E                     dE             d eps       ncg     rms          rms(c)
DAV:   1    -0.435347157271E+03   -0.50022E-09   -0.22055E-12 21248   0.156E-10    0.954E-05
DAV:   2    -0.435347157272E+03   -0.54570E-09   -0.47067E-12 21248   0.275E-10    0.954E-05
DAV:   3    -0.435347157271E+03    0.62209E-09    0.92666E-13 21248   0.216E-10    0.954E-05
DAV:   4    -0.435347157271E+03   -0.56934E-09    0.53320E-12 21248   0.263E-10    0.954E-05
DAV:   5    -0.435347157272E+03   -0.14734E-09    0.19523E-12 21248   0.222E-10    0.954E-05
DAV:   6    -0.435347157271E+03    0.10550E-09    0.16550E-12 21248   0.249E-10
  88 F= -.43534716E+03 E0= -.43534716E+03  d E =0.000000E+00
       N       E                     dE             d eps       ncg     rms          rms(c)
DAV:   1    -0.435347157271E+03    0.72214E-09    0.42184E-12 21248   0.280E-10    0.954E-05
DAV:   2    -0.435347157272E+03   -0.71304E-09    0.28803E-12 21248   0.297E-10    0.954E-05
DAV:   3    -0.435347157270E+03    0.11933E-08   -0.43461E-13 21248   0.305E-10    0.954E-05
DAV:   4    -0.435347157271E+03   -0.87857E-09   -0.94558E-13 21248   0.278E-10    0.954E-05
DAV:   5    -0.435347157271E+03    0.61846E-10    0.49275E-12 21248   0.210E-10    0.954E-05
DAV:   6    -0.435347157271E+03    0.36380E-09    0.24306E-12 21248   0.172E-10
  89 F= -.43534716E+03 E0= -.43534716E+03  d E =0.000000E+00
       N       E                     dE             d eps       ncg     rms          rms(c)
DAV:   1    -0.435347157271E+03    0.15280E-09    0.37320E-12 21248   0.186E-10    0.954E-05
DAV:   2    -0.435347157272E+03   -0.53660E-09    0.46991E-12 21248   0.231E-10    0.954E-05
DAV:   3    -0.435347157271E+03    0.44383E-09   -0.14116E-12 21248   0.302E-10    0.954E-05
DAV:   4    -0.435347157272E+03   -0.46930E-09    0.32406E-12 21248   0.126E-10    0.954E-05
DAV:   5    -0.435347157271E+03    0.15643E-09    0.45998E-12 21248   0.185E-10    0.954E-05
DAV:   6    -0.435347157271E+03    0.40927E-09    0.44359E-12 21248   0.181E-10
  90 F= -.43534716E+03 E0= -.43534716E+03  d E =0.000000E+00
       N       E                     dE             d eps       ncg     rms          rms(c)
DAV:   1    -0.435347157271E+03    0.87311E-09    0.26945E-13 21248   0.210E-10    0.954E-05
DAV:   2    -0.435347157271E+03   -0.54206E-09    0.31925E-12 21248   0.203E-10    0.954E-05
DAV:   3    -0.435347157270E+03    0.68212E-09   -0.20678E-12 21248   0.249E-10    0.954E-05
DAV:   4    -0.435347157271E+03   -0.90040E-09    0.35278E-12 21248   0.246E-10    0.954E-05
DAV:   5    -0.435347157272E+03   -0.21282E-09   -0.22587E-12 21248   0.172E-10    0.954E-05
DAV:   6    -0.435347157271E+03    0.14370E-09   -0.66957E-13 21248   0.227E-10
  91 F= -.43534716E+03 E0= -.43534716E+03  d E =0.000000E+00
       N       E                     dE             d eps       ncg     rms          rms(c)
DAV:   1    -0.435347157271E+03    0.64756E-09    0.31474E-12 21248   0.224E-10    0.954E-05
DAV:   2    -0.435347157270E+03    0.43838E-09    0.44564E-12 21248   0.243E-10    0.954E-05
DAV:   3    -0.435347157272E+03   -0.11987E-08    0.54143E-12 21248   0.297E-10    0.954E-05
DAV:   4    -0.435347157271E+03    0.17826E-09    0.11609E-12 21248   0.323E-10    0.954E-05
DAV:   5    -0.435347157272E+03   -0.18917E-09    0.68134E-13 21248   0.253E-10    0.954E-05
DAV:   6    -0.435347157271E+03    0.78580E-09    0.21666E-12 21248   0.266E-10
  92 F= -.43534716E+03 E0= -.43534716E+03  d E =0.000000E+00
       N       E                     dE             d eps       ncg     rms          rms(c)
DAV:   1    -0.435347157271E+03    0.10587E-08    0.28803E-13 21248   0.257E-10    0.954E-05
DAV:   2    -0.435347157271E+03   -0.81673E-09    0.17524E-12 21248   0.231E-10    0.954E-05
DAV:   3    -0.435347157271E+03    0.47839E-09    0.26517E-12 21248   0.256E-10    0.954E-05
DAV:   4    -0.435347157271E+03    0.44565E-09   -0.30717E-13 21248   0.266E-10    0.954E-05
DAV:   5    -0.435347157270E+03    0.76398E-10    0.29602E-12 21248   0.247E-10    0.954E-05
DAV:   6    -0.435347157271E+03   -0.41655E-09   -0.53730E-13 21248   0.160E-10
  93 F= -.43534716E+03 E0= -.43534716E+03  d E =0.000000E+00
       N       E                     dE             d eps       ncg     rms          rms(c)
DAV:   1    -0.435347157271E+03   -0.82400E-09    0.11441E-12 21248   0.206E-10    0.954E-05
DAV:   2    -0.435347157271E+03    0.36380E-09   -0.51772E-14 21248   0.225E-10    0.954E-05
DAV:   3    -0.435347157271E+03   -0.23829E-09   -0.13713E-12 21248   0.244E-10    0.954E-05
DAV:   4    -0.435347157271E+03   -0.23647E-10    0.17244E-12 21248   0.147E-10    0.954E-05
DAV:   5    -0.435347157271E+03   -0.61846E-10    0.74182E-13 21248   0.138E-10    0.954E-05
DAV:   6    -0.435347157271E+03    0.36380E-11    0.34221E-12 21248   0.193E-10
  94 F= -.43534716E+03 E0= -.43534716E+03  d E =0.000000E+00
       N       E                     dE             d eps       ncg     rms          rms(c)
DAV:   1    -0.435347157271E+03    0.46930E-09    0.33789E-12 21248   0.258E-10    0.954E-05
DAV:   2    -0.435347157271E+03   -0.18736E-09    0.35437E-13 21248   0.400E-10    0.954E-05
DAV:   3    -0.435347157271E+03   -0.11278E-09    0.36905E-12 21248   0.309E-10    0.954E-05
DAV:   4    -0.435347157270E+03    0.61118E-09   -0.33696E-13 21248   0.237E-10    0.954E-05
DAV:   5    -0.435347157271E+03   -0.29286E-09   -0.36519E-12 21248   0.319E-10    0.954E-05
DAV:   6    -0.435347157271E+03    0.20736E-09    0.36047E-12 21248   0.242E-10
  95 F= -.43534716E+03 E0= -.43534716E+03  d E =0.000000E+00
       N       E                     dE             d eps       ncg     rms          rms(c)
DAV:   1    -0.435347157272E+03   -0.83674E-09   -0.42966E-12 21248   0.144E-10    0.954E-05
DAV:   2    -0.435347157271E+03    0.79672E-09   -0.20494E-12 21248   0.271E-10    0.954E-05
DAV:   3    -0.435347157271E+03    0.92768E-10   -0.14812E-12 21248   0.294E-10    0.954E-05
DAV:   4    -0.435347157271E+03   -0.64574E-09   -0.10649E-14 21248   0.171E-10    0.954E-05
DAV:   5    -0.435347157271E+03    0.23647E-10    0.30243E-12 21248   0.171E-10    0.954E-05
DAV:   6    -0.435347157270E+03    0.99499E-09    0.30079E-12 21248   0.169E-10
  96 F= -.43534716E+03 E0= -.43534716E+03  d E =0.000000E+00
       N       E                     dE             d eps       ncg     rms          rms(c)
DAV:   1    -0.435347157271E+03   -0.20009E-10    0.17064E-12 21248   0.126E-10    0.954E-05
DAV:   2    -0.435347157271E+03    0.37835E-09   -0.28623E-12 21248   0.188E-10    0.954E-05
DAV:   3    -0.435347157272E+03   -0.60936E-09    0.41582E-12 21248   0.196E-10    0.954E-05
DAV:   4    -0.435347157272E+03   -0.70941E-10    0.19027E-12 21248   0.206E-10    0.954E-05
DAV:   5    -0.435347157271E+03    0.49658E-09    0.22277E-12 21248   0.229E-10    0.954E-05
DAV:   6    -0.435347157272E+03   -0.50204E-09    0.51935E-12 21248   0.189E-10
  97 F= -.43534716E+03 E0= -.43534716E+03  d E =0.000000E+00
       N       E                     dE             d eps       ncg     rms          rms(c)
DAV:   1    -0.435347157270E+03    0.82764E-09    0.30758E-12 21248   0.166E-10    0.954E-05
DAV:   2    -0.435347157271E+03   -0.91131E-09    0.25429E-12 21248   0.264E-10    0.954E-05
DAV:   3    -0.435347157270E+03    0.86038E-09   -0.39207E-12 21248   0.260E-10    0.954E-05
DAV:   4    -0.435347157271E+03   -0.33833E-09   -0.33495E-14 21248   0.243E-10    0.954E-05
DAV:   5    -0.435347157271E+03   -0.77125E-09    0.42241E-12 21248   0.257E-10    0.954E-05
DAV:   6    -0.435347157271E+03    0.50386E-09   -0.38292E-12 21248   0.170E-10
  98 F= -.43534716E+03 E0= -.43534716E+03  d E =0.000000E+00
       N       E                     dE             d eps       ncg     rms          rms(c)
DAV:   1    -0.435347157271E+03    0.62209E-09   -0.36042E-12 21248   0.146E-10    0.954E-05
DAV:   2    -0.435347157270E+03    0.54206E-09    0.27620E-12 21248   0.363E-10    0.954E-05
DAV:   3    -0.435347157270E+03   -0.18736E-09   -0.38754E-13 21248   0.386E-10    0.954E-05
DAV:   4    -0.435347157272E+03   -0.10532E-08    0.27068E-12 21248   0.226E-10    0.954E-05
DAV:   5    -0.435347157270E+03    0.11296E-08    0.37484E-12 21248   0.261E-10    0.954E-05
DAV:   6    -0.435347157270E+03   -0.78217E-10    0.57079E-13 21248   0.112E-10
  99 F= -.43534716E+03 E0= -.43534716E+03  d E =0.000000E+00
       N       E                     dE             d eps       ncg     rms          rms(c)
DAV:   1    -0.435347157271E+03   -0.49295E-09    0.13725E-12 21248   0.185E-10    0.954E-05
DAV:   2    -0.435347157271E+03    0.26012E-09   -0.24574E-12 21248   0.173E-10    0.954E-05
DAV:   3    -0.435347157271E+03   -0.13642E-09   -0.27944E-13 21248   0.225E-10    0.954E-05
DAV:   4    -0.435347157271E+03    0.28194E-09   -0.30131E-12 21248   0.170E-10    0.954E-05
DAV:   5    -0.435347157271E+03   -0.63665E-10   -0.94960E-13 21248   0.187E-10    0.954E-05
DAV:   6    -0.435347157271E+03    0.50932E-10   -0.35615E-13 21248   0.170E-10
 100 F= -.43534716E+03 E0= -.43534716E+03  d E =0.000000E+00
