 B  C 
 1.0000000000000000
    10.4082961823202780    0.0000000000000000    0.0000000000000000
     4.3578427764223679    9.2828298761076304    0.0000000000000000
     1.9318170045480236    1.3506455087034250    4.4995838492265960
 B   C  
  45  15
Cartesian
  4.9397550649625934  4.7980567813153421  3.6233459164822803
  7.1520900393441051  9.5040291945837936  3.6507414349100529
 10.0946658691204831  4.8345843066190275  3.6047930103271848
 12.3188883829903304  9.4669784586382946  3.6199194131998711
  6.5178408131732013  4.1648756487443688  1.3727055024701880
  8.7559385930673770  8.8151359842741055  1.3932867061618239
 11.7442911896666651  4.1374939339728112  1.3959373237426220
 13.9613551988574045  8.8150271504158351  1.4304688673736272
  6.4571712878315290  2.5351240344334536  3.6212587618353531
  8.5559767292166296  7.1778427337440673  3.6018711558194751
 11.6565337606579487  2.5612337420768645  3.6521608518185595
 13.8023859374831446  7.1409219269809441  3.6226632918485540
  4.4087991905590851  1.1629840623940162  0.8699544135844727
  6.5135038122540116  5.7988348671059997  0.8447554722127059
  9.6055003811987696  1.1923444744603768  0.9089890700809994
 11.7596222097486045  5.7767085962496569  0.8619327465209701
  2.8030237496777470  1.8637255922654046  3.1222862196193151
  4.9395389091322013  6.4466223273388374  3.0953079370640348
  7.9828567295508437  1.8297827062112975  3.0846607711624592
 10.1030145758033161  6.4699717181000098  3.0783782900500953
  2.8890156534415623  3.4335713246828123  0.8735193671086706
  5.0991312773461752  8.1259044408897694  0.9200821872145279
  8.0425946736083933  3.4628168641411410  0.8393041115368332
 10.2772540161789010  8.0990830786949708  0.8601792892824562
  7.4903430294186260  5.9462560079963911  4.4496484726653502
  9.7845958522007237 10.6125545133507764  4.4618146587867438
 12.7539847471723427  5.9125426911798913  4.4567028004304037
 14.9866658404804252 10.6016302816975472  4.4796525327034384
  8.5702814596084043  5.5155873044983466  2.9859844995989326
 10.8186583451029357 10.1590760358063310  3.0105242533044225
 13.8366883898562385  5.4731580084708105  3.0210350053348596
  8.5043481256217657  4.4621274086578069  4.4425903389642896
 10.7173175157735816  9.1010058978010715  4.4603579888899416
 13.7399403041184165  4.4053648370449690  4.4715175130287435
 15.9708624552329894  9.1079296640805811  4.4810535565329426
  1.7713164046544463  0.0801402025340560  0.0712087771053201
  6.9605945449650317  0.0443689369757075  0.0129380901652548
  9.0823224996932250  4.6828930585133470  0.0102593734450198
  0.7258639549518074  0.5141560451914684  1.5661122896385999
  2.8717935326571764  5.0970146744149423  1.4628163571235691
  5.9187338481779390  0.4776883362768662  1.4660972740805656
  8.0305845030379430  5.1177011993376382  1.4402557618830589
  2.9464786415054172  6.1607186444241187  0.0193316239132211
  5.9843298641748897  1.5338152190469372  0.0212933650092010
  8.1151186280095278  6.1788255131819128  0.0079244132069040
 16.0706767801895545 10.2075261438975620  3.1091703563637960
  3.8512082704174695  4.6593434635523883  0.0213309144296067
  0.7720129666345440  1.4967193177907521  0.0700082544541492
  5.7283667258634905  3.6798403046614783  2.7612045742889633
  7.8693972345236842  8.3744661819602104  2.7412136470373891
 10.9256842664894940  3.6468686120023333  2.7706531748589449
 13.0837725087889982  8.2868827132857081  2.7435730304233257
  3.6286304565190441  2.3368709179844913  1.7657662335228743
  5.8063725959204211  6.9515431641872194  1.7709728587931781
  8.8141938713303389  2.3603503649333755  1.7101196906710132
 10.9985939506056578  6.9457067402343338  1.7338503356537494
  4.6955637554132021  2.9891903014013179  2.2662084417938506
  6.8594218851551272  7.6406335095522877  2.2563940966192879
  9.8512081828994962  2.9992417926192441  2.2742172424516642
 12.0220085098989653  7.6308718893899066  2.2452129900664644
