<?xml version="1.0" encoding="ISO-8859-1"?>
<modeling>
 <generator>
  <i name="program" type="string">vasp </i>
  <i name="version" type="string">5.4.4.18Apr17-6-g9f103f2a35  </i>
  <i name="subversion" type="string">(build Mar 31 2021 23:10:14) complex            parallel </i>
  <i name="platform" type="string">LinuxIFC </i>
  <i name="date" type="string">2023 04 04 </i>
  <i name="time" type="string">12:30:52 </i>
 </generator>
 <incar>
  <i type="int" name="ISTART">     1</i>
  <i type="string" name="PREC">accurate     (precision level: normal</i>
  <i type="logical" name="ADDGRID"> T  </i>
  <i type="int" name="ISPIN">     1</i>
  <i type="int" name="NELM">    90</i>
  <i type="int" name="NELMIN">     6</i>
  <i type="int" name="IBRION">    -1</i>
  <i name="EDIFF">      0.00000001</i>
  <i name="EDIFFG">     -0.02000000</i>
  <i type="int" name="NSW">   100</i>
  <i type="int" name="ISIF">     7</i>
  <i name="ENCUT">    400.00000000</i>
  <i type="logical" name="LREAL"> F  </i>
  <i type="int" name="ISMEAR">    -5</i>
  <i name="SIGMA">      0.20000000</i>
  <i type="logical" name="LWAVE"> F  </i>
  <i type="logical" name="LCHARG"> T  </i>
  <i type="logical" name="LAECHG"> T  </i>
  <v type="int" name="KPOINT_BSE">    -1     0     0     0</v>
  <i type="int" name="NELM">    90</i>
 </incar>
 <structure name="primitive_cell" >
  <crystal>
   <varray name="basis" >
    <v>      10.40829618       0.00000000       0.00000000 </v>
    <v>       4.35784278       9.28282988       0.00000000 </v>
    <v>       1.93181700       1.35064551       4.49958385 </v>
   </varray>
   <i name="volume">    434.74278458 </i>
   <varray name="rec_basis" >
    <v>       0.09607720      -0.04510363      -0.02771024 </v>
    <v>       0.00000000       0.10772577      -0.03233617 </v>
    <v>       0.00000000       0.00000000       0.22224277 </v>
   </varray>
  </crystal>
  <varray name="positions" >
   <v>       0.15778427       0.39970922      -0.19473755 </v>
   <v>       0.30787765       0.30712684      -0.38634223 </v>
   <v>       0.15926892      -0.49875840       0.00474064 </v>
   <v>       0.09803927      -0.40562306      -0.31209018 </v>
   <v>       0.09849657       0.34163784       0.19413337 </v>
   <v>      -0.00118258       0.49191145      -0.32859680 </v>
   <v>      -0.00250974       0.32997955      -0.00623754 </v>
   <v>       0.25351611       0.24873232      -0.49635155 </v>
   <v>       0.40569770       0.15600053      -0.19520140 </v>
   <v>      -0.09637174      -0.34788176      -0.19488926 </v>
   <v>       0.40032690       0.40427639       0.30507388 </v>
   <v>       0.00468295      -0.33695695       0.00429631 </v>
   <v>       0.00548502      -0.49822205       0.32510037 </v>
   <v>      -0.09693910       0.40057545       0.31023698 </v>
   <v>       0.32815263       0.49668040      -0.01109778 </v>
   <v>       0.19429749       0.19464310       0.39242879 </v>
   <v>      -0.16480627       0.49282050      -0.00953000 </v>
   <v>       0.19524611      -0.30840614       0.39358592 </v>
   <v>       0.00472542       0.15897144       0.01555883 </v>
   <v>       0.34702365       0.09715236       0.19334108 </v>
   <v>      -0.15460328      -0.40557122       0.19155833 </v>
   <v>       0.34084234      -0.40263221       0.18774080 </v>
   <v>       0.33777389      -0.00103241      -0.00839393 </v>
   <v>      -0.49481300       0.16454288       0.00473230 </v>
   <v>       0.09872658       0.09980848      -0.30609445 </v>
   <v>       0.49271058       0.33702974      -0.01266640 </v>
   <v>       0.25188852      -0.24987002      -0.49853271 </v>
   <v>       0.16459530       0.00633055       0.01582564 </v>
   <v>       0.49189331       0.49761558      -0.33638652 </v>
   <v>      -0.49918064      -0.49526406       0.32008644 </v>
   <v>       0.49779286      -0.00295454      -0.33093274 </v>
   <v>      -0.19274130      -0.19600583      -0.39026072 </v>
   <v>      -0.40103599       0.09736862      -0.31445643 </v>
   <v>       0.09790677      -0.15438262       0.20448162 </v>
   <v>      -0.09679603       0.15781397      -0.18833364 </v>
   <v>       0.39847882      -0.34323210      -0.19951016 </v>
   <v>      -0.40673293       0.34589473       0.18652927 </v>
   <v>      -0.19155329       0.30326941      -0.38424235 </v>
   <v>      -0.00053598      -0.16374139      -0.00411822 </v>
   <v>       0.00315132       0.00474578       0.34805714 </v>
   <v>      -0.25135447      -0.25056005       0.49898236 </v>
   <v>      -0.33889562      -0.49586349       0.00228007 </v>
   <v>       0.30239114      -0.18649454      -0.39078507 </v>
   <v>       0.40504313      -0.09543625       0.30964790 </v>
   <v>      -0.49351599       0.00405137       0.32582953 </v>
   <v>      -0.15609775       0.09905300       0.20201625 </v>
   <v>      -0.25181927       0.24955615      -0.49457165 </v>
   <v>      -0.09586041      -0.09665030       0.31791137 </v>
   <v>      -0.30700510       0.19897183       0.38006175 </v>
   <v>      -0.30460786      -0.30783448       0.38533571 </v>
   <v>      -0.49922915      -0.33463751       0.00176114 </v>
   <v>      -0.00252668      -0.00092506      -0.30900935 </v>
   <v>       0.15732364      -0.09422214      -0.18864909 </v>
   <v>      -0.34807973       0.40424410      -0.19886080 </v>
   <v>       0.49560388      -0.16381804      -0.00871766 </v>
   <v>      -0.33360525       0.00436131       0.00287540 </v>
   <v>      -0.40645244      -0.40256029      -0.31585267 </v>
   <v>      -0.34373961      -0.09721680      -0.19549907 </v>
   <v>      -0.40172401      -0.15533494       0.19116863 </v>
   <v>      -0.16242734      -0.00278604      -0.00442959 </v>
  </varray>
 </structure>
 <varray name="primitive_index" >
  <v type="int" >        1 </v>
  <v type="int" >       49 </v>
  <v type="int" >       47 </v>
  <v type="int" >       18 </v>
  <v type="int" >       21 </v>
  <v type="int" >       31 </v>
  <v type="int" >       34 </v>
  <v type="int" >       57 </v>
  <v type="int" >        9 </v>
  <v type="int" >       12 </v>
  <v type="int" >        5 </v>
  <v type="int" >       43 </v>
  <v type="int" >       40 </v>
  <v type="int" >        7 </v>
  <v type="int" >       25 </v>
  <v type="int" >       53 </v>
  <v type="int" >       27 </v>
  <v type="int" >       54 </v>
  <v type="int" >       48 </v>
  <v type="int" >       13 </v>
  <v type="int" >       16 </v>
  <v type="int" >       14 </v>
  <v type="int" >       26 </v>
  <v type="int" >       44 </v>
  <v type="int" >       17 </v>
  <v type="int" >       32 </v>
  <v type="int" >       58 </v>
  <v type="int" >       36 </v>
  <v type="int" >       29 </v>
  <v type="int" >       42 </v>
  <v type="int" >       30 </v>
  <v type="int" >       52 </v>
  <v type="int" >       19 </v>
  <v type="int" >       22 </v>
  <v type="int" >       11 </v>
  <v type="int" >       10 </v>
  <v type="int" >       23 </v>
  <v type="int" >       51 </v>
  <v type="int" >       35 </v>
  <v type="int" >       39 </v>
  <v type="int" >       60 </v>
  <v type="int" >       38 </v>
  <v type="int" >       50 </v>
  <v type="int" >        6 </v>
  <v type="int" >       41 </v>
  <v type="int" >       15 </v>
  <v type="int" >       59 </v>
  <v type="int" >        8 </v>
  <v type="int" >       55 </v>
  <v type="int" >       56 </v>
  <v type="int" >       45 </v>
  <v type="int" >       46 </v>
  <v type="int" >        2 </v>
  <v type="int" >        3 </v>
  <v type="int" >       33 </v>
  <v type="int" >       37 </v>
  <v type="int" >       20 </v>
  <v type="int" >        4 </v>
  <v type="int" >       24 </v>
  <v type="int" >       28 </v>
 </varray>
 <kpoints>
  <generation param="Gamma">
   <v type="int" name="divisions">       5        6       11 </v>
   <v name="usershift">      0.00000000       0.00000000       0.00000000 </v>
   <v name="genvec1">      0.20000000      -0.00000000       0.00000000 </v>
   <v name="genvec2">      0.00000000       0.16666667      -0.00000000 </v>
   <v name="genvec3">      0.00000000       0.00000000       0.09090909 </v>
   <v name="shift">      0.00000000       0.00000000       0.00000000 </v>
  </generation>
  <varray name="kpointlist" >
   <v>       0.00000000       0.00000000       0.00000000 </v>
   <v>       0.20000000       0.00000000      -0.00000000 </v>
   <v>       0.40000000       0.00000000      -0.00000000 </v>
   <v>       0.00000000       0.16666667       0.00000000 </v>
   <v>       0.20000000       0.16666667      -0.00000000 </v>
   <v>       0.40000000       0.16666667      -0.00000000 </v>
   <v>      -0.40000000       0.16666667       0.00000000 </v>
   <v>      -0.20000000       0.16666667       0.00000000 </v>
   <v>       0.00000000       0.33333333       0.00000000 </v>
   <v>       0.20000000       0.33333333       0.00000000 </v>
   <v>       0.40000000       0.33333333      -0.00000000 </v>
   <v>      -0.40000000       0.33333333       0.00000000 </v>
   <v>      -0.20000000       0.33333333       0.00000000 </v>
   <v>       0.00000000       0.50000000       0.00000000 </v>
   <v>       0.20000000       0.50000000       0.00000000 </v>
   <v>       0.40000000       0.50000000      -0.00000000 </v>
   <v>       0.00000000       0.00000000       0.09090909 </v>
   <v>       0.20000000       0.00000000       0.09090909 </v>
   <v>       0.40000000       0.00000000       0.09090909 </v>
   <v>      -0.40000000      -0.00000000       0.09090909 </v>
   <v>      -0.20000000      -0.00000000       0.09090909 </v>
   <v>       0.00000000       0.16666667       0.09090909 </v>
   <v>       0.20000000       0.16666667       0.09090909 </v>
   <v>       0.40000000       0.16666667       0.09090909 </v>
   <v>      -0.40000000       0.16666667       0.09090909 </v>
   <v>      -0.20000000       0.16666667       0.09090909 </v>
   <v>       0.00000000       0.33333333       0.09090909 </v>
   <v>       0.20000000       0.33333333       0.09090909 </v>
   <v>       0.40000000       0.33333333       0.09090909 </v>
   <v>      -0.40000000       0.33333333       0.09090909 </v>
   <v>      -0.20000000       0.33333333       0.09090909 </v>
   <v>       0.00000000       0.50000000       0.09090909 </v>
   <v>       0.20000000       0.50000000       0.09090909 </v>
   <v>       0.40000000       0.50000000       0.09090909 </v>
   <v>      -0.40000000       0.50000000       0.09090909 </v>
   <v>      -0.20000000       0.50000000       0.09090909 </v>
   <v>       0.00000000      -0.33333333       0.09090909 </v>
   <v>       0.20000000      -0.33333333       0.09090909 </v>
   <v>       0.40000000      -0.33333333       0.09090909 </v>
   <v>      -0.40000000      -0.33333333       0.09090909 </v>
   <v>      -0.20000000      -0.33333333       0.09090909 </v>
   <v>       0.00000000      -0.16666667       0.09090909 </v>
   <v>       0.20000000      -0.16666667       0.09090909 </v>
   <v>       0.40000000      -0.16666667       0.09090909 </v>
   <v>      -0.40000000      -0.16666667       0.09090909 </v>
   <v>      -0.20000000      -0.16666667       0.09090909 </v>
   <v>       0.00000000       0.00000000       0.18181818 </v>
   <v>       0.20000000       0.00000000       0.18181818 </v>
   <v>       0.40000000       0.00000000       0.18181818 </v>
   <v>      -0.40000000      -0.00000000       0.18181818 </v>
   <v>      -0.20000000      -0.00000000       0.18181818 </v>
   <v>       0.00000000       0.16666667       0.18181818 </v>
   <v>       0.20000000       0.16666667       0.18181818 </v>
   <v>       0.40000000       0.16666667       0.18181818 </v>
   <v>      -0.40000000       0.16666667       0.18181818 </v>
   <v>      -0.20000000       0.16666667       0.18181818 </v>
   <v>       0.00000000       0.33333333       0.18181818 </v>
   <v>       0.20000000       0.33333333       0.18181818 </v>
   <v>       0.40000000       0.33333333       0.18181818 </v>
   <v>      -0.40000000       0.33333333       0.18181818 </v>
   <v>      -0.20000000       0.33333333       0.18181818 </v>
   <v>       0.00000000       0.50000000       0.18181818 </v>
   <v>       0.20000000       0.50000000       0.18181818 </v>
   <v>       0.40000000       0.50000000       0.18181818 </v>
   <v>      -0.40000000       0.50000000       0.18181818 </v>
   <v>      -0.20000000       0.50000000       0.18181818 </v>
   <v>       0.00000000      -0.33333333       0.18181818 </v>
   <v>       0.20000000      -0.33333333       0.18181818 </v>
   <v>       0.40000000      -0.33333333       0.18181818 </v>
   <v>      -0.40000000      -0.33333333       0.18181818 </v>
   <v>      -0.20000000      -0.33333333       0.18181818 </v>
   <v>       0.00000000      -0.16666667       0.18181818 </v>
   <v>       0.20000000      -0.16666667       0.18181818 </v>
   <v>       0.40000000      -0.16666667       0.18181818 </v>
   <v>      -0.40000000      -0.16666667       0.18181818 </v>
   <v>      -0.20000000      -0.16666667       0.18181818 </v>
   <v>       0.00000000       0.00000000       0.27272727 </v>
   <v>       0.20000000       0.00000000       0.27272727 </v>
   <v>       0.40000000       0.00000000       0.27272727 </v>
   <v>      -0.40000000      -0.00000000       0.27272727 </v>
   <v>      -0.20000000      -0.00000000       0.27272727 </v>
   <v>       0.00000000       0.16666667       0.27272727 </v>
   <v>       0.20000000       0.16666667       0.27272727 </v>
   <v>       0.40000000       0.16666667       0.27272727 </v>
   <v>      -0.40000000       0.16666667       0.27272727 </v>
   <v>      -0.20000000       0.16666667       0.27272727 </v>
   <v>       0.00000000       0.33333333       0.27272727 </v>
   <v>       0.20000000       0.33333333       0.27272727 </v>
   <v>       0.40000000       0.33333333       0.27272727 </v>
   <v>      -0.40000000       0.33333333       0.27272727 </v>
   <v>      -0.20000000       0.33333333       0.27272727 </v>
   <v>       0.00000000       0.50000000       0.27272727 </v>
   <v>       0.20000000       0.50000000       0.27272727 </v>
   <v>       0.40000000       0.50000000       0.27272727 </v>
   <v>      -0.40000000       0.50000000       0.27272727 </v>
   <v>      -0.20000000       0.50000000       0.27272727 </v>
   <v>       0.00000000      -0.33333333       0.27272727 </v>
   <v>       0.20000000      -0.33333333       0.27272727 </v>
   <v>       0.40000000      -0.33333333       0.27272727 </v>
   <v>      -0.40000000      -0.33333333       0.27272727 </v>
   <v>      -0.20000000      -0.33333333       0.27272727 </v>
   <v>       0.00000000      -0.16666667       0.27272727 </v>
   <v>       0.20000000      -0.16666667       0.27272727 </v>
   <v>       0.40000000      -0.16666667       0.27272727 </v>
   <v>      -0.40000000      -0.16666667       0.27272727 </v>
   <v>      -0.20000000      -0.16666667       0.27272727 </v>
   <v>       0.00000000       0.00000000       0.36363636 </v>
   <v>       0.20000000       0.00000000       0.36363636 </v>
   <v>       0.40000000       0.00000000       0.36363636 </v>
   <v>      -0.40000000      -0.00000000       0.36363636 </v>
   <v>      -0.20000000      -0.00000000       0.36363636 </v>
   <v>       0.00000000       0.16666667       0.36363636 </v>
   <v>       0.20000000       0.16666667       0.36363636 </v>
   <v>       0.40000000       0.16666667       0.36363636 </v>
   <v>      -0.40000000       0.16666667       0.36363636 </v>
   <v>      -0.20000000       0.16666667       0.36363636 </v>
   <v>       0.00000000       0.33333333       0.36363636 </v>
   <v>       0.20000000       0.33333333       0.36363636 </v>
   <v>       0.40000000       0.33333333       0.36363636 </v>
   <v>      -0.40000000       0.33333333       0.36363636 </v>
   <v>      -0.20000000       0.33333333       0.36363636 </v>
   <v>       0.00000000       0.50000000       0.36363636 </v>
   <v>       0.20000000       0.50000000       0.36363636 </v>
   <v>       0.40000000       0.50000000       0.36363636 </v>
   <v>      -0.40000000       0.50000000       0.36363636 </v>
   <v>      -0.20000000       0.50000000       0.36363636 </v>
   <v>       0.00000000      -0.33333333       0.36363636 </v>
   <v>       0.20000000      -0.33333333       0.36363636 </v>
   <v>       0.40000000      -0.33333333       0.36363636 </v>
   <v>      -0.40000000      -0.33333333       0.36363636 </v>
   <v>      -0.20000000      -0.33333333       0.36363636 </v>
   <v>       0.00000000      -0.16666667       0.36363636 </v>
   <v>       0.20000000      -0.16666667       0.36363636 </v>
   <v>       0.40000000      -0.16666667       0.36363636 </v>
   <v>      -0.40000000      -0.16666667       0.36363636 </v>
   <v>      -0.20000000      -0.16666667       0.36363636 </v>
   <v>       0.00000000       0.00000000       0.45454545 </v>
   <v>       0.20000000       0.00000000       0.45454545 </v>
   <v>       0.40000000       0.00000000       0.45454545 </v>
   <v>      -0.40000000      -0.00000000       0.45454545 </v>
   <v>      -0.20000000      -0.00000000       0.45454545 </v>
   <v>       0.00000000       0.16666667       0.45454545 </v>
   <v>       0.20000000       0.16666667       0.45454545 </v>
   <v>       0.40000000       0.16666667       0.45454545 </v>
   <v>      -0.40000000       0.16666667       0.45454545 </v>
   <v>      -0.20000000       0.16666667       0.45454545 </v>
   <v>       0.00000000       0.33333333       0.45454545 </v>
   <v>       0.20000000       0.33333333       0.45454545 </v>
   <v>       0.40000000       0.33333333       0.45454545 </v>
   <v>      -0.40000000       0.33333333       0.45454545 </v>
   <v>      -0.20000000       0.33333333       0.45454545 </v>
   <v>       0.00000000       0.50000000       0.45454545 </v>
   <v>       0.20000000       0.50000000       0.45454545 </v>
   <v>       0.40000000       0.50000000       0.45454545 </v>
   <v>      -0.40000000       0.50000000       0.45454545 </v>
   <v>      -0.20000000       0.50000000       0.45454545 </v>
   <v>       0.00000000      -0.33333333       0.45454545 </v>
   <v>       0.20000000      -0.33333333       0.45454545 </v>
   <v>       0.40000000      -0.33333333       0.45454545 </v>
   <v>      -0.40000000      -0.33333333       0.45454545 </v>
   <v>      -0.20000000      -0.33333333       0.45454545 </v>
   <v>       0.00000000      -0.16666667       0.45454545 </v>
   <v>       0.20000000      -0.16666667       0.45454545 </v>
   <v>       0.40000000      -0.16666667       0.45454545 </v>
   <v>      -0.40000000      -0.16666667       0.45454545 </v>
   <v>      -0.20000000      -0.16666667       0.45454545 </v>
  </varray>
  <varray name="weights" >
   <v>       0.00303030 </v>
   <v>       0.00606061 </v>
   <v>       0.00606061 </v>
   <v>       0.00606061 </v>
   <v>       0.00606061 </v>
   <v>       0.00606061 </v>
   <v>       0.00606061 </v>
   <v>       0.00606061 </v>
   <v>       0.00606061 </v>
   <v>       0.00606061 </v>
   <v>       0.00606061 </v>
   <v>       0.00606061 </v>
   <v>       0.00606061 </v>
   <v>       0.00303030 </v>
   <v>       0.00606061 </v>
   <v>       0.00606061 </v>
   <v>       0.00606061 </v>
   <v>       0.00606061 </v>
   <v>       0.00606061 </v>
   <v>       0.00606061 </v>
   <v>       0.00606061 </v>
   <v>       0.00606061 </v>
   <v>       0.00606061 </v>
   <v>       0.00606061 </v>
   <v>       0.00606061 </v>
   <v>       0.00606061 </v>
   <v>       0.00606061 </v>
   <v>       0.00606061 </v>
   <v>       0.00606061 </v>
   <v>       0.00606061 </v>
   <v>       0.00606061 </v>
   <v>       0.00606061 </v>
   <v>       0.00606061 </v>
   <v>       0.00606061 </v>
   <v>       0.00606061 </v>
   <v>       0.00606061 </v>
   <v>       0.00606061 </v>
   <v>       0.00606061 </v>
   <v>       0.00606061 </v>
   <v>       0.00606061 </v>
   <v>       0.00606061 </v>
   <v>       0.00606061 </v>
   <v>       0.00606061 </v>
   <v>       0.00606061 </v>
   <v>       0.00606061 </v>
   <v>       0.00606061 </v>
   <v>       0.00606061 </v>
   <v>       0.00606061 </v>
   <v>       0.00606061 </v>
   <v>       0.00606061 </v>
   <v>       0.00606061 </v>
   <v>       0.00606061 </v>
   <v>       0.00606061 </v>
   <v>       0.00606061 </v>
   <v>       0.00606061 </v>
   <v>       0.00606061 </v>
   <v>       0.00606061 </v>
   <v>       0.00606061 </v>
   <v>       0.00606061 </v>
   <v>       0.00606061 </v>
   <v>       0.00606061 </v>
   <v>       0.00606061 </v>
   <v>       0.00606061 </v>
   <v>       0.00606061 </v>
   <v>       0.00606061 </v>
   <v>       0.00606061 </v>
   <v>       0.00606061 </v>
   <v>       0.00606061 </v>
   <v>       0.00606061 </v>
   <v>       0.00606061 </v>
   <v>       0.00606061 </v>
   <v>       0.00606061 </v>
   <v>       0.00606061 </v>
   <v>       0.00606061 </v>
   <v>       0.00606061 </v>
   <v>       0.00606061 </v>
   <v>       0.00606061 </v>
   <v>       0.00606061 </v>
   <v>       0.00606061 </v>
   <v>       0.00606061 </v>
   <v>       0.00606061 </v>
   <v>       0.00606061 </v>
   <v>       0.00606061 </v>
   <v>       0.00606061 </v>
   <v>       0.00606061 </v>
   <v>       0.00606061 </v>
   <v>       0.00606061 </v>
   <v>       0.00606061 </v>
   <v>       0.00606061 </v>
   <v>       0.00606061 </v>
   <v>       0.00606061 </v>
   <v>       0.00606061 </v>
   <v>       0.00606061 </v>
   <v>       0.00606061 </v>
   <v>       0.00606061 </v>
   <v>       0.00606061 </v>
   <v>       0.00606061 </v>
   <v>       0.00606061 </v>
   <v>       0.00606061 </v>
   <v>       0.00606061 </v>
   <v>       0.00606061 </v>
   <v>       0.00606061 </v>
   <v>       0.00606061 </v>
   <v>       0.00606061 </v>
   <v>       0.00606061 </v>
   <v>       0.00606061 </v>
   <v>       0.00606061 </v>
   <v>       0.00606061 </v>
   <v>       0.00606061 </v>
   <v>       0.00606061 </v>
   <v>       0.00606061 </v>
   <v>       0.00606061 </v>
   <v>       0.00606061 </v>
   <v>       0.00606061 </v>
   <v>       0.00606061 </v>
   <v>       0.00606061 </v>
   <v>       0.00606061 </v>
   <v>       0.00606061 </v>
   <v>       0.00606061 </v>
   <v>       0.00606061 </v>
   <v>       0.00606061 </v>
   <v>       0.00606061 </v>
   <v>       0.00606061 </v>
   <v>       0.00606061 </v>
   <v>       0.00606061 </v>
   <v>       0.00606061 </v>
   <v>       0.00606061 </v>
   <v>       0.00606061 </v>
   <v>       0.00606061 </v>
   <v>       0.00606061 </v>
   <v>       0.00606061 </v>
   <v>       0.00606061 </v>
   <v>       0.00606061 </v>
   <v>       0.00606061 </v>
   <v>       0.00606061 </v>
   <v>       0.00606061 </v>
   <v>       0.00606061 </v>
   <v>       0.00606061 </v>
   <v>       0.00606061 </v>
   <v>       0.00606061 </v>
   <v>       0.00606061 </v>
   <v>       0.00606061 </v>
   <v>       0.00606061 </v>
   <v>       0.00606061 </v>
   <v>       0.00606061 </v>
   <v>       0.00606061 </v>
   <v>       0.00606061 </v>
   <v>       0.00606061 </v>
   <v>       0.00606061 </v>
   <v>       0.00606061 </v>
   <v>       0.00606061 </v>
   <v>       0.00606061 </v>
   <v>       0.00606061 </v>
   <v>       0.00606061 </v>
   <v>       0.00606061 </v>
   <v>       0.00606061 </v>
   <v>       0.00606061 </v>
   <v>       0.00606061 </v>
   <v>       0.00606061 </v>
   <v>       0.00606061 </v>
   <v>       0.00606061 </v>
   <v>       0.00606061 </v>
   <v>       0.00606061 </v>
   <v>       0.00606061 </v>
   <v>       0.00606061 </v>
   <v>       0.00606061 </v>
  </varray>
  <varray name="tetrahedronlist"  type="int" >
   <v type="int" >        2        1        4        5       23 </v>
   <v type="int" >        2        1        2        5       23 </v>
   <v type="int" >        2        1        2       18       23 </v>
   <v type="int" >        2        1        4       22       23 </v>
   <v type="int" >        2        1       17       22       23 </v>
   <v type="int" >        2        1       17       18       23 </v>
   <v type="int" >        2        2        5        6       24 </v>
   <v type="int" >        2        2        3        6       24 </v>
   <v type="int" >        2        2        3       19       24 </v>
   <v type="int" >        2        2        5       23       24 </v>
   <v type="int" >        2        2       18       23       24 </v>
   <v type="int" >        2        2       18       19       24 </v>
   <v type="int" >        2        3        6        7       25 </v>
   <v type="int" >        2        3        3        7       25 </v>
   <v type="int" >        2        3        3       20       25 </v>
   <v type="int" >        2        3        6       24       25 </v>
   <v type="int" >        2        3       19       24       25 </v>
   <v type="int" >        2        3       19       20       25 </v>
   <v type="int" >        2        3        7        8       26 </v>
   <v type="int" >        2        2        3        8       26 </v>
   <v type="int" >        2        2        3       21       26 </v>
   <v type="int" >        2        3        7       25       26 </v>
   <v type="int" >        2        3       20       25       26 </v>
   <v type="int" >        2        3       20       21       26 </v>
   <v type="int" >        2        2        4        8       22 </v>
   <v type="int" >        2        1        2        4       22 </v>
   <v type="int" >        2        1        2       17       22 </v>
   <v type="int" >        2        2        8       22       26 </v>
   <v type="int" >        2        2       21       22       26 </v>
   <v type="int" >        2        2       17       21       22 </v>
   <v type="int" >        2        4        9       10       28 </v>
   <v type="int" >        2        4        5       10       28 </v>
   <v type="int" >        2        4        5       23       28 </v>
   <v type="int" >        2        4        9       27       28 </v>
   <v type="int" >        2        4       22       27       28 </v>
   <v type="int" >        2        4       22       23       28 </v>
   <v type="int" >        2        5       10       11       29 </v>
   <v type="int" >        2        5        6       11       29 </v>
   <v type="int" >        2        5        6       24       29 </v>
   <v type="int" >        2        5       10       28       29 </v>
   <v type="int" >        2        5       23       28       29 </v>
   <v type="int" >        2        5       23       24       29 </v>
   <v type="int" >        2        6       11       12       30 </v>
   <v type="int" >        2        6        7       12       30 </v>
   <v type="int" >        2        6        7       25       30 </v>
   <v type="int" >        2        6       11       29       30 </v>
   <v type="int" >        2        6       24       29       30 </v>
   <v type="int" >        2        6       24       25       30 </v>
   <v type="int" >        2        7       12       13       31 </v>
   <v type="int" >        2        7        8       13       31 </v>
   <v type="int" >        2        7        8       26       31 </v>
   <v type="int" >        2        7       12       30       31 </v>
   <v type="int" >        2        7       25       30       31 </v>
   <v type="int" >        2        7       25       26       31 </v>
   <v type="int" >        2        8        9       13       27 </v>
   <v type="int" >        2        4        8        9       27 </v>
   <v type="int" >        2        4        8       22       27 </v>
   <v type="int" >        2        8       13       27       31 </v>
   <v type="int" >        2        8       26       27       31 </v>
   <v type="int" >        2        8       22       26       27 </v>
   <v type="int" >        2        9       14       15       33 </v>
   <v type="int" >        2        9       10       15       33 </v>
   <v type="int" >        2        9       10       28       33 </v>
   <v type="int" >        2        9       14       32       33 </v>
   <v type="int" >        2        9       27       32       33 </v>
   <v type="int" >        2        9       27       28       33 </v>
   <v type="int" >        2       10       15       16       34 </v>
   <v type="int" >        2       10       11       16       34 </v>
   <v type="int" >        2       10       11       29       34 </v>
   <v type="int" >        2       10       15       33       34 </v>
   <v type="int" >        2       10       28       33       34 </v>
   <v type="int" >        2       10       28       29       34 </v>
   <v type="int" >        2       11       16       16       35 </v>
   <v type="int" >        2       11       12       16       35 </v>
   <v type="int" >        2       11       12       30       35 </v>
   <v type="int" >        2       11       16       34       35 </v>
   <v type="int" >        2       11       29       34       35 </v>
   <v type="int" >        2       11       29       30       35 </v>
   <v type="int" >        2       12       15       16       36 </v>
   <v type="int" >        2       12       13       15       36 </v>
   <v type="int" >        2       12       13       31       36 </v>
   <v type="int" >        2       12       16       35       36 </v>
   <v type="int" >        2       12       30       35       36 </v>
   <v type="int" >        2       12       30       31       36 </v>
   <v type="int" >        2       13       14       15       32 </v>
   <v type="int" >        2        9       13       14       32 </v>
   <v type="int" >        2        9       13       27       32 </v>
   <v type="int" >        2       13       15       32       36 </v>
   <v type="int" >        2       13       31       32       36 </v>
   <v type="int" >        2       13       27       31       32 </v>
   <v type="int" >        2        9       13       14       38 </v>
   <v type="int" >        2       13       14       15       38 </v>
   <v type="int" >        2       14       15       33       38 </v>
   <v type="int" >        2        9       14       37       38 </v>
   <v type="int" >        2       14       32       37       38 </v>
   <v type="int" >        2       14       32       33       38 </v>
   <v type="int" >        2       12       13       15       39 </v>
   <v type="int" >        2       12       15       16       39 </v>
   <v type="int" >        2       15       16       34       39 </v>
   <v type="int" >        2       13       15       38       39 </v>
   <v type="int" >        2       15       33       38       39 </v>
   <v type="int" >        2       15       33       34       39 </v>
   <v type="int" >        2       11       12       16       40 </v>
   <v type="int" >        2       11       16       16       40 </v>
   <v type="int" >        2       16       16       35       40 </v>
   <v type="int" >        2       12       16       39       40 </v>
   <v type="int" >        2       16       34       39       40 </v>
   <v type="int" >        2       16       34       35       40 </v>
   <v type="int" >        2       10       11       16       41 </v>
   <v type="int" >        2       10       15       16       41 </v>
   <v type="int" >        2       15       16       36       41 </v>
   <v type="int" >        2       11       16       40       41 </v>
   <v type="int" >        2       16       35       40       41 </v>
   <v type="int" >        2       16       35       36       41 </v>
   <v type="int" >        2        9       10       15       37 </v>
   <v type="int" >        2        9       14       15       37 </v>
   <v type="int" >        2       14       15       32       37 </v>
   <v type="int" >        2       10       15       37       41 </v>
   <v type="int" >        2       15       36       37       41 </v>
   <v type="int" >        2       15       32       36       37 </v>
   <v type="int" >        2        4        8        9       43 </v>
   <v type="int" >        2        8        9       13       43 </v>
   <v type="int" >        2        9       13       38       43 </v>
   <v type="int" >        2        4        9       42       43 </v>
   <v type="int" >        2        9       37       42       43 </v>
   <v type="int" >        2        9       37       38       43 </v>
   <v type="int" >        2        7        8       13       44 </v>
   <v type="int" >        2        7       12       13       44 </v>
   <v type="int" >        2       12       13       39       44 </v>
   <v type="int" >        2        8       13       43       44 </v>
   <v type="int" >        2       13       38       43       44 </v>
   <v type="int" >        2       13       38       39       44 </v>
   <v type="int" >        2        6        7       12       45 </v>
   <v type="int" >        2        6       11       12       45 </v>
   <v type="int" >        2       11       12       40       45 </v>
   <v type="int" >        2        7       12       44       45 </v>
   <v type="int" >        2       12       39       44       45 </v>
   <v type="int" >        2       12       39       40       45 </v>
   <v type="int" >        2        5        6       11       46 </v>
   <v type="int" >        2        5       10       11       46 </v>
   <v type="int" >        2       10       11       41       46 </v>
   <v type="int" >        2        6       11       45       46 </v>
   <v type="int" >        2       11       40       45       46 </v>
   <v type="int" >        2       11       40       41       46 </v>
   <v type="int" >        2        4        5       10       42 </v>
   <v type="int" >        2        4        9       10       42 </v>
   <v type="int" >        2        9       10       37       42 </v>
   <v type="int" >        2        5       10       42       46 </v>
   <v type="int" >        2       10       41       42       46 </v>
   <v type="int" >        2       10       37       41       42 </v>
   <v type="int" >        2        1        2        4       18 </v>
   <v type="int" >        2        2        4        8       18 </v>
   <v type="int" >        2        4        8       18       43 </v>
   <v type="int" >        2        1        4       17       18 </v>
   <v type="int" >        2        4       17       18       42 </v>
   <v type="int" >        2        4       18       42       43 </v>
   <v type="int" >        2        2        3        8       19 </v>
   <v type="int" >        2        3        7        8       19 </v>
   <v type="int" >        2        7        8       19       44 </v>
   <v type="int" >        2        2        8       18       19 </v>
   <v type="int" >        2        8       18       19       43 </v>
   <v type="int" >        2        8       19       43       44 </v>
   <v type="int" >        2        3        3        7       20 </v>
   <v type="int" >        2        3        6        7       20 </v>
   <v type="int" >        2        6        7       20       45 </v>
   <v type="int" >        2        3        7       19       20 </v>
   <v type="int" >        2        7       19       20       44 </v>
   <v type="int" >        2        7       20       44       45 </v>
   <v type="int" >        2        2        3        6       21 </v>
   <v type="int" >        2        2        5        6       21 </v>
   <v type="int" >        2        5        6       21       46 </v>
   <v type="int" >        2        3        6       20       21 </v>
   <v type="int" >        2        6       20       21       45 </v>
   <v type="int" >        2        6       21       45       46 </v>
   <v type="int" >        2        1        2        5       17 </v>
   <v type="int" >        2        1        4        5       17 </v>
   <v type="int" >        2        4        5       17       42 </v>
   <v type="int" >        2        2        5       17       21 </v>
   <v type="int" >        2        5       17       21       46 </v>
   <v type="int" >        2        5       17       42       46 </v>
   <v type="int" >        2       17       22       23       53 </v>
   <v type="int" >        2       17       18       23       53 </v>
   <v type="int" >        2       17       18       48       53 </v>
   <v type="int" >        2       17       22       52       53 </v>
   <v type="int" >        2       17       47       52       53 </v>
   <v type="int" >        2       17       47       48       53 </v>
   <v type="int" >        2       18       23       24       54 </v>
   <v type="int" >        2       18       19       24       54 </v>
   <v type="int" >        2       18       19       49       54 </v>
   <v type="int" >        2       18       23       53       54 </v>
   <v type="int" >        2       18       48       53       54 </v>
   <v type="int" >        2       18       48       49       54 </v>
   <v type="int" >        2       19       24       25       55 </v>
   <v type="int" >        2       19       20       25       55 </v>
   <v type="int" >        2       19       20       50       55 </v>
   <v type="int" >        2       19       24       54       55 </v>
   <v type="int" >        2       19       49       54       55 </v>
   <v type="int" >        2       19       49       50       55 </v>
   <v type="int" >        2       20       25       26       56 </v>
   <v type="int" >        2       20       21       26       56 </v>
   <v type="int" >        2       20       21       51       56 </v>
   <v type="int" >        2       20       25       55       56 </v>
   <v type="int" >        2       20       50       55       56 </v>
   <v type="int" >        2       20       50       51       56 </v>
   <v type="int" >        2       21       22       26       52 </v>
   <v type="int" >        2       17       21       22       52 </v>
   <v type="int" >        2       17       21       47       52 </v>
   <v type="int" >        2       21       26       52       56 </v>
   <v type="int" >        2       21       51       52       56 </v>
   <v type="int" >        2       21       47       51       52 </v>
   <v type="int" >        2       22       27       28       58 </v>
   <v type="int" >        2       22       23       28       58 </v>
   <v type="int" >        2       22       23       53       58 </v>
   <v type="int" >        2       22       27       57       58 </v>
   <v type="int" >        2       22       52       57       58 </v>
   <v type="int" >        2       22       52       53       58 </v>
   <v type="int" >        2       23       28       29       59 </v>
   <v type="int" >        2       23       24       29       59 </v>
   <v type="int" >        2       23       24       54       59 </v>
   <v type="int" >        2       23       28       58       59 </v>
   <v type="int" >        2       23       53       58       59 </v>
   <v type="int" >        2       23       53       54       59 </v>
   <v type="int" >        2       24       29       30       60 </v>
   <v type="int" >        2       24       25       30       60 </v>
   <v type="int" >        2       24       25       55       60 </v>
   <v type="int" >        2       24       29       59       60 </v>
   <v type="int" >        2       24       54       59       60 </v>
   <v type="int" >        2       24       54       55       60 </v>
   <v type="int" >        2       25       30       31       61 </v>
   <v type="int" >        2       25       26       31       61 </v>
   <v type="int" >        2       25       26       56       61 </v>
   <v type="int" >        2       25       30       60       61 </v>
   <v type="int" >        2       25       55       60       61 </v>
   <v type="int" >        2       25       55       56       61 </v>
   <v type="int" >        2       26       27       31       57 </v>
   <v type="int" >        2       22       26       27       57 </v>
   <v type="int" >        2       22       26       52       57 </v>
   <v type="int" >        2       26       31       57       61 </v>
   <v type="int" >        2       26       56       57       61 </v>
   <v type="int" >        2       26       52       56       57 </v>
   <v type="int" >        2       27       32       33       63 </v>
   <v type="int" >        2       27       28       33       63 </v>
   <v type="int" >        2       27       28       58       63 </v>
   <v type="int" >        2       27       32       62       63 </v>
   <v type="int" >        2       27       57       62       63 </v>
   <v type="int" >        2       27       57       58       63 </v>
   <v type="int" >        2       28       33       34       64 </v>
   <v type="int" >        2       28       29       34       64 </v>
   <v type="int" >        2       28       29       59       64 </v>
   <v type="int" >        2       28       33       63       64 </v>
   <v type="int" >        2       28       58       63       64 </v>
   <v type="int" >        2       28       58       59       64 </v>
   <v type="int" >        2       29       34       35       65 </v>
   <v type="int" >        2       29       30       35       65 </v>
   <v type="int" >        2       29       30       60       65 </v>
   <v type="int" >        2       29       34       64       65 </v>
   <v type="int" >        2       29       59       64       65 </v>
   <v type="int" >        2       29       59       60       65 </v>
   <v type="int" >        2       30       35       36       66 </v>
   <v type="int" >        2       30       31       36       66 </v>
   <v type="int" >        2       30       31       61       66 </v>
   <v type="int" >        2       30       35       65       66 </v>
   <v type="int" >        2       30       60       65       66 </v>
   <v type="int" >        2       30       60       61       66 </v>
   <v type="int" >        2       31       32       36       62 </v>
   <v type="int" >        2       27       31       32       62 </v>
   <v type="int" >        2       27       31       57       62 </v>
   <v type="int" >        2       31       36       62       66 </v>
   <v type="int" >        2       31       61       62       66 </v>
   <v type="int" >        2       31       57       61       62 </v>
   <v type="int" >        2       32       37       38       68 </v>
   <v type="int" >        2       32       33       38       68 </v>
   <v type="int" >        2       32       33       63       68 </v>
   <v type="int" >        2       32       37       67       68 </v>
   <v type="int" >        2       32       62       67       68 </v>
   <v type="int" >        2       32       62       63       68 </v>
   <v type="int" >        2       33       38       39       69 </v>
   <v type="int" >        2       33       34       39       69 </v>
   <v type="int" >        2       33       34       64       69 </v>
   <v type="int" >        2       33       38       68       69 </v>
   <v type="int" >        2       33       63       68       69 </v>
   <v type="int" >        2       33       63       64       69 </v>
   <v type="int" >        2       34       39       40       70 </v>
   <v type="int" >        2       34       35       40       70 </v>
   <v type="int" >        2       34       35       65       70 </v>
   <v type="int" >        2       34       39       69       70 </v>
   <v type="int" >        2       34       64       69       70 </v>
   <v type="int" >        2       34       64       65       70 </v>
   <v type="int" >        2       35       40       41       71 </v>
   <v type="int" >        2       35       36       41       71 </v>
   <v type="int" >        2       35       36       66       71 </v>
   <v type="int" >        2       35       40       70       71 </v>
   <v type="int" >        2       35       65       70       71 </v>
   <v type="int" >        2       35       65       66       71 </v>
   <v type="int" >        2       36       37       41       67 </v>
   <v type="int" >        2       32       36       37       67 </v>
   <v type="int" >        2       32       36       62       67 </v>
   <v type="int" >        2       36       41       67       71 </v>
   <v type="int" >        2       36       66       67       71 </v>
   <v type="int" >        2       36       62       66       67 </v>
   <v type="int" >        2       37       42       43       73 </v>
   <v type="int" >        2       37       38       43       73 </v>
   <v type="int" >        2       37       38       68       73 </v>
   <v type="int" >        2       37       42       72       73 </v>
   <v type="int" >        2       37       67       72       73 </v>
   <v type="int" >        2       37       67       68       73 </v>
   <v type="int" >        2       38       43       44       74 </v>
   <v type="int" >        2       38       39       44       74 </v>
   <v type="int" >        2       38       39       69       74 </v>
   <v type="int" >        2       38       43       73       74 </v>
   <v type="int" >        2       38       68       73       74 </v>
   <v type="int" >        2       38       68       69       74 </v>
   <v type="int" >        2       39       44       45       75 </v>
   <v type="int" >        2       39       40       45       75 </v>
   <v type="int" >        2       39       40       70       75 </v>
   <v type="int" >        2       39       44       74       75 </v>
   <v type="int" >        2       39       69       74       75 </v>
   <v type="int" >        2       39       69       70       75 </v>
   <v type="int" >        2       40       45       46       76 </v>
   <v type="int" >        2       40       41       46       76 </v>
   <v type="int" >        2       40       41       71       76 </v>
   <v type="int" >        2       40       45       75       76 </v>
   <v type="int" >        2       40       70       75       76 </v>
   <v type="int" >        2       40       70       71       76 </v>
   <v type="int" >        2       41       42       46       72 </v>
   <v type="int" >        2       37       41       42       72 </v>
   <v type="int" >        2       37       41       67       72 </v>
   <v type="int" >        2       41       46       72       76 </v>
   <v type="int" >        2       41       71       72       76 </v>
   <v type="int" >        2       41       67       71       72 </v>
   <v type="int" >        2       17       18       42       48 </v>
   <v type="int" >        2       18       42       43       48 </v>
   <v type="int" >        2       42       43       48       73 </v>
   <v type="int" >        2       17       42       47       48 </v>
   <v type="int" >        2       42       47       48       72 </v>
   <v type="int" >        2       42       48       72       73 </v>
   <v type="int" >        2       18       19       43       49 </v>
   <v type="int" >        2       19       43       44       49 </v>
   <v type="int" >        2       43       44       49       74 </v>
   <v type="int" >        2       18       43       48       49 </v>
   <v type="int" >        2       43       48       49       73 </v>
   <v type="int" >        2       43       49       73       74 </v>
   <v type="int" >        2       19       20       44       50 </v>
   <v type="int" >        2       20       44       45       50 </v>
   <v type="int" >        2       44       45       50       75 </v>
   <v type="int" >        2       19       44       49       50 </v>
   <v type="int" >        2       44       49       50       74 </v>
   <v type="int" >        2       44       50       74       75 </v>
   <v type="int" >        2       20       21       45       51 </v>
   <v type="int" >        2       21       45       46       51 </v>
   <v type="int" >        2       45       46       51       76 </v>
   <v type="int" >        2       20       45       50       51 </v>
   <v type="int" >        2       45       50       51       75 </v>
   <v type="int" >        2       45       51       75       76 </v>
   <v type="int" >        2       17       21       46       47 </v>
   <v type="int" >        2       17       42       46       47 </v>
   <v type="int" >        2       42       46       47       72 </v>
   <v type="int" >        2       21       46       47       51 </v>
   <v type="int" >        2       46       47       51       76 </v>
   <v type="int" >        2       46       47       72       76 </v>
   <v type="int" >        2       47       52       53       83 </v>
   <v type="int" >        2       47       48       53       83 </v>
   <v type="int" >        2       47       48       78       83 </v>
   <v type="int" >        2       47       52       82       83 </v>
   <v type="int" >        2       47       77       82       83 </v>
   <v type="int" >        2       47       77       78       83 </v>
   <v type="int" >        2       48       53       54       84 </v>
   <v type="int" >        2       48       49       54       84 </v>
   <v type="int" >        2       48       49       79       84 </v>
   <v type="int" >        2       48       53       83       84 </v>
   <v type="int" >        2       48       78       83       84 </v>
   <v type="int" >        2       48       78       79       84 </v>
   <v type="int" >        2       49       54       55       85 </v>
   <v type="int" >        2       49       50       55       85 </v>
   <v type="int" >        2       49       50       80       85 </v>
   <v type="int" >        2       49       54       84       85 </v>
   <v type="int" >        2       49       79       84       85 </v>
   <v type="int" >        2       49       79       80       85 </v>
   <v type="int" >        2       50       55       56       86 </v>
   <v type="int" >        2       50       51       56       86 </v>
   <v type="int" >        2       50       51       81       86 </v>
   <v type="int" >        2       50       55       85       86 </v>
   <v type="int" >        2       50       80       85       86 </v>
   <v type="int" >        2       50       80       81       86 </v>
   <v type="int" >        2       51       52       56       82 </v>
   <v type="int" >        2       47       51       52       82 </v>
   <v type="int" >        2       47       51       77       82 </v>
   <v type="int" >        2       51       56       82       86 </v>
   <v type="int" >        2       51       81       82       86 </v>
   <v type="int" >        2       51       77       81       82 </v>
   <v type="int" >        2       52       57       58       88 </v>
   <v type="int" >        2       52       53       58       88 </v>
   <v type="int" >        2       52       53       83       88 </v>
   <v type="int" >        2       52       57       87       88 </v>
   <v type="int" >        2       52       82       87       88 </v>
   <v type="int" >        2       52       82       83       88 </v>
   <v type="int" >        2       53       58       59       89 </v>
   <v type="int" >        2       53       54       59       89 </v>
   <v type="int" >        2       53       54       84       89 </v>
   <v type="int" >        2       53       58       88       89 </v>
   <v type="int" >        2       53       83       88       89 </v>
   <v type="int" >        2       53       83       84       89 </v>
   <v type="int" >        2       54       59       60       90 </v>
   <v type="int" >        2       54       55       60       90 </v>
   <v type="int" >        2       54       55       85       90 </v>
   <v type="int" >        2       54       59       89       90 </v>
   <v type="int" >        2       54       84       89       90 </v>
   <v type="int" >        2       54       84       85       90 </v>
   <v type="int" >        2       55       60       61       91 </v>
   <v type="int" >        2       55       56       61       91 </v>
   <v type="int" >        2       55       56       86       91 </v>
   <v type="int" >        2       55       60       90       91 </v>
   <v type="int" >        2       55       85       90       91 </v>
   <v type="int" >        2       55       85       86       91 </v>
   <v type="int" >        2       56       57       61       87 </v>
   <v type="int" >        2       52       56       57       87 </v>
   <v type="int" >        2       52       56       82       87 </v>
   <v type="int" >        2       56       61       87       91 </v>
   <v type="int" >        2       56       86       87       91 </v>
   <v type="int" >        2       56       82       86       87 </v>
   <v type="int" >        2       57       62       63       93 </v>
   <v type="int" >        2       57       58       63       93 </v>
   <v type="int" >        2       57       58       88       93 </v>
   <v type="int" >        2       57       62       92       93 </v>
   <v type="int" >        2       57       87       92       93 </v>
   <v type="int" >        2       57       87       88       93 </v>
   <v type="int" >        2       58       63       64       94 </v>
   <v type="int" >        2       58       59       64       94 </v>
   <v type="int" >        2       58       59       89       94 </v>
   <v type="int" >        2       58       63       93       94 </v>
   <v type="int" >        2       58       88       93       94 </v>
   <v type="int" >        2       58       88       89       94 </v>
   <v type="int" >        2       59       64       65       95 </v>
   <v type="int" >        2       59       60       65       95 </v>
   <v type="int" >        2       59       60       90       95 </v>
   <v type="int" >        2       59       64       94       95 </v>
   <v type="int" >        2       59       89       94       95 </v>
   <v type="int" >        2       59       89       90       95 </v>
   <v type="int" >        2       60       65       66       96 </v>
   <v type="int" >        2       60       61       66       96 </v>
   <v type="int" >        2       60       61       91       96 </v>
   <v type="int" >        2       60       65       95       96 </v>
   <v type="int" >        2       60       90       95       96 </v>
   <v type="int" >        2       60       90       91       96 </v>
   <v type="int" >        2       61       62       66       92 </v>
   <v type="int" >        2       57       61       62       92 </v>
   <v type="int" >        2       57       61       87       92 </v>
   <v type="int" >        2       61       66       92       96 </v>
   <v type="int" >        2       61       91       92       96 </v>
   <v type="int" >        2       61       87       91       92 </v>
   <v type="int" >        2       62       67       68       98 </v>
   <v type="int" >        2       62       63       68       98 </v>
   <v type="int" >        2       62       63       93       98 </v>
   <v type="int" >        2       62       67       97       98 </v>
   <v type="int" >        2       62       92       97       98 </v>
   <v type="int" >        2       62       92       93       98 </v>
   <v type="int" >        2       63       68       69       99 </v>
   <v type="int" >        2       63       64       69       99 </v>
   <v type="int" >        2       63       64       94       99 </v>
   <v type="int" >        2       63       68       98       99 </v>
   <v type="int" >        2       63       93       98       99 </v>
   <v type="int" >        2       63       93       94       99 </v>
   <v type="int" >        2       64       69       70      100 </v>
   <v type="int" >        2       64       65       70      100 </v>
   <v type="int" >        2       64       65       95      100 </v>
   <v type="int" >        2       64       69       99      100 </v>
   <v type="int" >        2       64       94       99      100 </v>
   <v type="int" >        2       64       94       95      100 </v>
   <v type="int" >        2       65       70       71      101 </v>
   <v type="int" >        2       65       66       71      101 </v>
   <v type="int" >        2       65       66       96      101 </v>
   <v type="int" >        2       65       70      100      101 </v>
   <v type="int" >        2       65       95      100      101 </v>
   <v type="int" >        2       65       95       96      101 </v>
   <v type="int" >        2       66       67       71       97 </v>
   <v type="int" >        2       62       66       67       97 </v>
   <v type="int" >        2       62       66       92       97 </v>
   <v type="int" >        2       66       71       97      101 </v>
   <v type="int" >        2       66       96       97      101 </v>
   <v type="int" >        2       66       92       96       97 </v>
   <v type="int" >        2       67       72       73      103 </v>
   <v type="int" >        2       67       68       73      103 </v>
   <v type="int" >        2       67       68       98      103 </v>
   <v type="int" >        2       67       72      102      103 </v>
   <v type="int" >        2       67       97      102      103 </v>
   <v type="int" >        2       67       97       98      103 </v>
   <v type="int" >        2       68       73       74      104 </v>
   <v type="int" >        2       68       69       74      104 </v>
   <v type="int" >        2       68       69       99      104 </v>
   <v type="int" >        2       68       73      103      104 </v>
   <v type="int" >        2       68       98      103      104 </v>
   <v type="int" >        2       68       98       99      104 </v>
   <v type="int" >        2       69       74       75      105 </v>
   <v type="int" >        2       69       70       75      105 </v>
   <v type="int" >        2       69       70      100      105 </v>
   <v type="int" >        2       69       74      104      105 </v>
   <v type="int" >        2       69       99      104      105 </v>
   <v type="int" >        2       69       99      100      105 </v>
   <v type="int" >        2       70       75       76      106 </v>
   <v type="int" >        2       70       71       76      106 </v>
   <v type="int" >        2       70       71      101      106 </v>
   <v type="int" >        2       70       75      105      106 </v>
   <v type="int" >        2       70      100      105      106 </v>
   <v type="int" >        2       70      100      101      106 </v>
   <v type="int" >        2       71       72       76      102 </v>
   <v type="int" >        2       67       71       72      102 </v>
   <v type="int" >        2       67       71       97      102 </v>
   <v type="int" >        2       71       76      102      106 </v>
   <v type="int" >        2       71      101      102      106 </v>
   <v type="int" >        2       71       97      101      102 </v>
   <v type="int" >        2       47       48       72       78 </v>
   <v type="int" >        2       48       72       73       78 </v>
   <v type="int" >        2       72       73       78      103 </v>
   <v type="int" >        2       47       72       77       78 </v>
   <v type="int" >        2       72       77       78      102 </v>
   <v type="int" >        2       72       78      102      103 </v>
   <v type="int" >        2       48       49       73       79 </v>
   <v type="int" >        2       49       73       74       79 </v>
   <v type="int" >        2       73       74       79      104 </v>
   <v type="int" >        2       48       73       78       79 </v>
   <v type="int" >        2       73       78       79      103 </v>
   <v type="int" >        2       73       79      103      104 </v>
   <v type="int" >        2       49       50       74       80 </v>
   <v type="int" >        2       50       74       75       80 </v>
   <v type="int" >        2       74       75       80      105 </v>
   <v type="int" >        2       49       74       79       80 </v>
   <v type="int" >        2       74       79       80      104 </v>
   <v type="int" >        2       74       80      104      105 </v>
   <v type="int" >        2       50       51       75       81 </v>
   <v type="int" >        2       51       75       76       81 </v>
   <v type="int" >        2       75       76       81      106 </v>
   <v type="int" >        2       50       75       80       81 </v>
   <v type="int" >        2       75       80       81      105 </v>
   <v type="int" >        2       75       81      105      106 </v>
   <v type="int" >        2       47       51       76       77 </v>
   <v type="int" >        2       47       72       76       77 </v>
   <v type="int" >        2       72       76       77      102 </v>
   <v type="int" >        2       51       76       77       81 </v>
   <v type="int" >        2       76       77       81      106 </v>
   <v type="int" >        2       76       77      102      106 </v>
   <v type="int" >        2       77       82       83      113 </v>
   <v type="int" >        2       77       78       83      113 </v>
   <v type="int" >        2       77       78      108      113 </v>
   <v type="int" >        2       77       82      112      113 </v>
   <v type="int" >        2       77      107      112      113 </v>
   <v type="int" >        2       77      107      108      113 </v>
   <v type="int" >        2       78       83       84      114 </v>
   <v type="int" >        2       78       79       84      114 </v>
   <v type="int" >        2     