 120 120   0   0
  0.6835014E+01  0.1012369E-08  0.1094035E-08  0.9990355E-09  0.5000000E-15
  1.000000000000000E-004
  CAR 
 unknown system                          
     15.95988671    -13.53701920  301      5.38590756      1.00000000
    -13.537  0.0000E+00  0.0000E+00
    -13.439  0.0000E+00  0.0000E+00
    -13.340  0.0000E+00  0.0000E+00
    -13.242  0.0000E+00  0.0000E+00
    -13.144  0.0000E+00  0.0000E+00
    -13.045  0.0000E+00  0.0000E+00
    -12.947  0.0000E+00  0.0000E+00
    -12.849  0.0000E+00  0.0000E+00
    -12.750  0.0000E+00  0.0000E+00
    -12.652  0.0000E+00  0.0000E+00
    -12.554  0.0000E+00  0.0000E+00
    -12.455  0.0000E+00  0.0000E+00
    -12.357  0.0000E+00  0.0000E+00
    -12.259  0.0000E+00  0.0000E+00
    -12.160  0.0000E+00  0.0000E+00
    -12.062  0.0000E+00  0.0000E+00
    -11.964  0.0000E+00  0.0000E+00
    -11.866  0.0000E+00  0.0000E+00
    -11.767  0.0000E+00  0.0000E+00
    -11.669  0.0000E+00  0.0000E+00
    -11.571  0.0000E+00  0.0000E+00
    -11.472  0.2361E+00  0.8640E-02
    -11.374  0.0000E+00  0.2000E-01
    -11.276  0.2126E+00  0.3765E-01
    -11.177  0.0000E+00  0.6000E-01
    -11.079  0.0000E+00  0.6000E-01
    -10.981  0.0000E+00  0.6000E-01
    -10.882  0.0000E+00  0.6000E-01
    -10.784  0.0000E+00  0.6000E-01
    -10.686  0.0000E+00  0.6000E-01
    -10.587  0.0000E+00  0.6000E-01
    -10.489  0.0000E+00  0.6000E-01
    -10.391  0.0000E+00  0.6000E-01
    -10.292  0.0000E+00  0.6000E-01
    -10.194  0.0000E+00  0.6000E-01
    -10.096  0.0000E+00  0.6000E-01
     -9.997  0.1007E+00  0.6462E-01
     -9.899  0.4762E-01  0.8021E-01
     -9.801  0.1037E+00  0.9674E-01
     -9.702  0.1071E+00  0.1059E+00
     -9.604  0.1891E+00  0.1189E+00
     -9.506  0.1700E+00  0.1368E+00
     -9.407  0.1165E+00  0.1578E+00
     -9.309  0.2732E+00  0.1770E+00
     -9.211  0.2172E+00  0.2024E+00
     -9.112  0.7276E-02  0.2200E+00
     -9.014  0.1844E-02  0.2200E+00
     -8.916  0.2088E-01  0.2210E+00
     -8.818  0.6870E-01  0.2252E+00
     -8.719  0.1533E+00  0.2361E+00
     -8.621  0.2277E+00  0.2541E+00
     -8.523  0.1431E+00  0.2686E+00
     -8.424  0.1588E+00  0.2823E+00
     -8.326  0.2146E+00  0.2951E+00
     -8.228  0.1417E+00  0.3081E+00
     -8.129  0.1100E+00  0.3212E+00
     -8.031  0.1604E+00  0.3381E+00
     -7.933  0.1333E+00  0.3492E+00
     -7.834  0.1810E+00  0.3620E+00
     -7.736  0.9139E-01  0.3769E+00
     -7.638  0.1708E+00  0.3875E+00
     -7.539  0.1819E+00  0.4050E+00
     -7.441  0.1729E+00  0.4208E+00
     -7.343  0.1102E+00  0.4395E+00
     -7.244  0.1057E+00  0.4496E+00
     -7.146  0.1182E+00  0.4591E+00
     -7.048  0.9781E-01  0.4708E+00
     -6.949  0.4380E-01  0.4784E+00
     -6.851  0.0000E+00  0.4800E+00
     -6.753  0.0000E+00  0.4800E+00
     -6.654  0.0000E+00  0.4800E+00
     -6.556  0.0000E+00  0.4800E+00
     -6.458  0.1631E-01  0.4804E+00
     -6.359  0.4047E-01  0.4831E+00
     -6.261  0.9945E-01  0.4892E+00
     -6.163  0.2179E+00  0.5056E+00
     -6.064  0.1866E+00  0.5244E+00
     -5.966  0.1936E+00  0.5428E+00
     -5.868  0.1616E+00  0.5599E+00
     -5.770  0.1817E+00  0.5765E+00
     -5.671  0.1598E+00  0.5941E+00
     -5.573  0.2169E+00  0.6138E+00
     -5.475  0.1771E+00  0.6348E+00
     -5.376  0.2207E+00  0.6536E+00
     -5.278  0.1798E+00  0.6731E+00
     -5.180  0.1607E+00  0.6900E+00
     -5.081  0.2356E+00  0.7089E+00
     -4.983  0.2346E+00  0.7317E+00
     -4.885  0.2578E+00  0.7568E+00
     -4.786  0.2040E+00  0.7756E+00
     -4.688  0.1388E+00  0.7938E+00
     -4.590  0.7305E-01  0.8034E+00
     -4.491  0.1353E+00  0.8132E+00
     -4.393  0.1756E+00  0.8281E+00
     -4.295  0.1973E+00  0.8464E+00
     -4.196  0.1907E+00  0.8631E+00
     -4.098  0.1615E+00  0.8804E+00
     -4.000  0.2152E+00  0.8997E+00
     -3.901  0.1828E+00  0.9200E+00
     -3.803  0.1599E+00  0.9370E+00
     -3.705  0.8333E-01  0.9502E+00
     -3.606  0.3879E-01  0.9559E+00
     -3.508  0.1620E-01  0.9600E+00
     -3.410  0.2622E-01  0.9620E+00
     -3.311  0.5626E-01  0.9664E+00
     -3.213  0.1131E+00  0.9743E+00
     -3.115  0.1576E+00  0.9877E+00
     -3.016  0.1733E+00  0.1004E+01
     -2.918  0.1656E+00  0.1020E+01
     -2.820  0.2124E+00  0.1041E+01
     -2.721  0.2613E+00  0.1065E+01
     -2.623  0.2411E+00  0.1091E+01
     -2.525  0.2405E+00  0.1115E+01
     -2.427  0.2473E+00  0.1139E+01
     -2.328  0.2271E+00  0.1163E+01
     -2.230  0.2293E+00  0.1185E+01
     -2.132  0.2604E+00  0.1212E+01
     -2.033  0.2559E+00  0.1237E+01
     -1.935  0.2380E+00  0.1261E+01
     -1.837  0.2658E+00  0.1285E+01
     -1.738  0.2705E+00  0.1311E+01
     -1.640  0.2654E+00  0.1338E+01
     -1.542  0.2722E+00  0.1365E+01
     -1.443  0.3233E+00  0.1393E+01
     -1.345  0.2741E+00  0.1422E+01
     -1.247  0.3019E+00  0.1451E+01
     -1.148  0.3225E+00  0.1482E+01
     -1.050  0.3151E+00  0.1513E+01
     -0.952  0.3155E+00  0.1544E+01
     -0.853  0.2975E+00  0.1575E+01
     -0.755  0.3181E+00  0.1605E+01
     -0.657  0.2930E+00  0.1636E+01
     -0.558  0.3037E+00  0.1666E+01
     -0.460  0.2756E+00  0.1694E+01
     -0.362  0.2783E+00  0.1722E+01
     -0.263  0.3097E+00  0.1752E+01
     -0.165  0.2938E+00  0.1781E+01
     -0.067  0.3115E+00  0.1809E+01
      0.032  0.2846E+00  0.1838E+01
      0.130  0.3076E+00  0.1869E+01
      0.228  0.2842E+00  0.1898E+01
      0.327  0.3268E+00  0.1929E+01
      0.425  0.3349E+00  0.1960E+01
      0.523  0.3135E+00  0.1991E+01
      0.621  0.3133E+00  0.2021E+01
      0.720  0.3234E+00  0.2054E+01
      0.818  0.3166E+00  0.2085E+01
      0.916  0.3266E+00  0.2117E+01
      1.015  0.3149E+00  0.2149E+01
      1.113  0.3021E+00  0.2181E+01
      1.211  0.3149E+00  0.2212E+01
      1.310  0.3066E+00  0.2242E+01
      1.408  0.2727E+00  0.2270E+01
      1.506  0.2313E+00  0.2296E+01
      1.605  0.2855E+00  0.2322E+01
      1.703  0.2981E+00  0.2351E+01
      1.801  0.3136E+00  0.2379E+01
      1.900  0.2702E+00  0.2408E+01
      1.998  0.2949E+00  0.2435E+01
      2.096  0.3339E+00  0.2464E+01
      2.195  0.3761E+00  0.2500E+01
      2.293  0.4250E+00  0.2539E+01
      2.391  0.3702E+00  0.2578E+01
      2.490  0.4010E+00  0.2614E+01
      2.588  0.4278E+00  0.2653E+01
      2.686  0.3819E+00  0.2693E+01
      2.785  0.4104E+00  0.2732E+01
      2.883  0.4264E+00  0.2772E+01
      2.981  0.4890E+00  0.2816E+01
      3.080  0.4991E+00  0.2863E+01
      3.178  0.4425E+00  0.2910E+01
      3.276  0.4286E+00  0.2954E+01
      3.375  0.4380E+00  0.2999E+01
      3.473  0.4082E+00  0.3044E+01
      3.571  0.3648E+00  0.3083E+01
      3.670  0.4362E+00  0.3122E+01
      3.768  0.4442E+00  0.3164E+01
      3.866  0.4196E+00  0.3205E+01
      3.964  0.4203E+00  0.3247E+01
      4.063  0.3784E+00  0.3287E+01
      4.161  0.4182E+00  0.3326E+01
      4.259  0.4039E+00  0.3366E+01
      4.358  0.3329E+00  0.3400E+01
      4.456  0.3507E+00  0.3434E+01
      4.554  0.2931E+00  0.3471E+01
      4.653  0.3683E+00  0.3504E+01
      4.751  0.4229E+00  0.3542E+01
      4.849  0.4339E+00  0.3583E+01
      4.948  0.4203E+00  0.3624E+01
      5.046  0.3817E+00  0.3664E+01
      5.144  0.4365E+00  0.3705E+01
      5.243  0.3530E+00  0.3744E+01
      5.341  0.3196E+00  0.3776E+01
      5.439  0.2789E+00  0.3806E+01
      5.538  0.1466E+00  0.3826E+01
      5.636  0.7131E-01  0.3837E+01
      5.734  0.0000E+00  0.3840E+01
      5.833  0.0000E+00  0.3840E+01
      5.931  0.0000E+00  0.3840E+01
      6.029  0.0000E+00  0.3840E+01
      6.128  0.0000E+00  0.3840E+01
      6.226  0.0000E+00  0.3840E+01
      6.324  0.0000E+00  0.3840E+01
      6.423  0.0000E+00  0.3840E+01
      6.521  0.0000E+00  0.3840E+01
      6.619  0.3199E-02  0.3840E+01
      6.718  0.6203E-01  0.3842E+01
      6.816  0.1847E+00  0.3854E+01
      6.914  0.2261E+00  0.3873E+01
      7.012  0.1461E+00  0.3889E+01
      7.111  0.0000E+00  0.3900E+01
      7.209  0.0000E+00  0.3900E+01
      7.307  0.0000E+00  0.3900E+01
      7.406  0.0000E+00  0.3900E+01
      7.504  0.2293E-01  0.3901E+01
      7.602  0.7654E-01  0.3906E+01
      7.701  0.1684E+00  0.3917E+01
      7.799  0.1973E+00  0.3938E+01
      7.897  0.1411E+00  0.3955E+01
      7.996  0.0000E+00  0.3960E+01
      8.094  0.0000E+00  0.3960E+01
      8.192  0.1440E-03  0.3960E+01
      8.291  0.3972E-01  0.3962E+01
      8.389  0.5373E-01  0.3967E+01
      8.487  0.5242E-01  0.3973E+01
      8.586  0.1139E+00  0.3979E+01
      8.684  0.1631E+00  0.3992E+01
      8.782  0.1399E+00  0.4008E+01
      8.881  0.1264E+00  0.4021E+01
      8.979  0.1631E+00  0.4035E+01
      9.077  0.1214E+00  0.4042E+01
      9.176  0.7420E-01  0.4056E+01
      9.274  0.1328E+00  0.4064E+01
      9.372  0.1687E+00  0.4079E+01
      9.471  0.1905E+00  0.4096E+01
      9.569  0.1750E+00  0.4112E+01
      9.667  0.1678E+00  0.4129E+01
      9.766  0.2030E+00  0.4148E+01
      9.864  0.2116E+00  0.4167E+01
      9.962  0.2191E+00  0.4190E+01
     10.061  0.2379E+00  0.4211E+01
     10.159  0.1777E+00  0.4232E+01
     10.257  0.1862E+00  0.4250E+01
     10.355  0.2140E+00  0.4270E+01
     10.454  0.2263E+00  0.4292E+01
     10.552  0.2513E+00  0.4316E+01
     10.650  0.2228E+00  0.4338E+01
     10.749  0.1975E+00  0.4358E+01
     10.847  0.2118E+00  0.4377E+01
     10.945  0.2347E+00  0.4400E+01
     11.044  0.2531E+00  0.4423E+01
     11.142  0.2281E+00  0.4445E+01
     11.240  0.2481E+00  0.4468E+01
     11.339  0.2970E+00  0.4494E+01
     11.437  0.3216E+00  0.4524E+01
     11.535  0.2889E+00  0.4554E+01
     11.634  0.2964E+00  0.4584E+01
     11.732  0.3228E+00  0.4615E+01
     11.830  0.3504E+00  0.4649E+01
     11.929  0.3658E+00  0.4685E+01
     12.027  0.3698E+00  0.4719E+01
     12.125  0.3098E+00  0.4753E+01
     12.224  0.3213E+00  0.4786E+01
     12.322  0.3226E+00  0.4817E+01
     12.420  0.2650E+00  0.4845E+01
     12.519  0.2511E+00  0.4868E+01
     12.617  0.2339E+00  0.4891E+01
     12.715  0.2334E+00  0.4912E+01
     12.814  0.2283E+00  0.4936E+01
     12.912  0.1692E+00  0.4955E+01
     13.010  0.1551E+00  0.4970E+01
     13.109  0.1539E+00  0.4986E+01
     13.207  0.1828E+00  0.5003E+01
     13.305  0.1775E+00  0.5020E+01
     13.403  0.1664E+00  0.5037E+01
     13.502  0.2005E+00  0.5057E+01
     13.600  0.2145E+00  0.5078E+01
     13.698  0.2091E+00  0.5098E+01
     13.797  0.9327E-01  0.5116E+01
     13.895  0.5593E-02  0.5120E+01
     13.993  0.0000E+00  0.5120E+01
     14.092  0.0000E+00  0.5120E+01
     14.190  0.0000E+00  0.5120E+01
     14.288  0.0000E+00  0.5120E+01
     14.387  0.0000E+00  0.5120E+01
     14.485  0.0000E+00  0.5120E+01
     14.583  0.0000E+00  0.5120E+01
     14.682  0.0000E+00  0.5120E+01
     14.780  0.0000E+00  0.5120E+01
     14.878  0.0000E+00  0.5120E+01
     14.977  0.0000E+00  0.5120E+01
     15.075  0.0000E+00  0.5120E+01
     15.173  0.0000E+00  0.5120E+01
     15.272  0.0000E+00  0.5120E+01
     15.370  0.0000E+00  0.5120E+01
     15.468  0.0000E+00  0.5120E+01
     15.567  0.0000E+00  0.5120E+01
     15.665  0.0000E+00  0.5120E+01
     15.763  0.0000E+00  0.5120E+01
     15.862  0.0000E+00  0.5120E+01
     15.960  0.0000E+00  0.5120E+01
