       N       E                     dE             d eps       ncg     rms          rms(c)
DAV:   1     0.788930689191E+03    0.78893E+03   -0.15712E+05 57344   0.112E+03
DAV:   2    -0.841189775747E+03   -0.16301E+04   -0.15483E+04 73280   0.229E+02
DAV:   3    -0.903215148538E+03   -0.62025E+02   -0.61208E+02 71680   0.442E+01
DAV:   4    -0.904123836814E+03   -0.90869E+00   -0.90719E+00 71616   0.583E+00
DAV:   5    -0.904141815146E+03   -0.17978E-01   -0.17976E-01 71680   0.782E-01    0.441E+01
DAV:   6    -0.845767901229E+03    0.58374E+02   -0.94474E+01 75072   0.170E+01    0.228E+01
DAV:   7    -0.835781677377E+03    0.99862E+01   -0.29619E+01 71680   0.958E+00    0.101E+01
DAV:   8    -0.834973476393E+03    0.80820E+00   -0.32154E+00 71680   0.336E+00    0.330E+00
DAV:   9    -0.834978603899E+03   -0.51275E-02   -0.72245E-01 72000   0.141E+00    0.110E+00
DAV:  10    -0.834969270480E+03    0.93334E-02   -0.17123E-01 73088   0.627E-01    0.536E-01
DAV:  11    -0.834971452410E+03   -0.21819E-02   -0.21935E-02 71680   0.283E-01    0.175E-01
DAV:  12    -0.834972286073E+03   -0.83366E-03   -0.27814E-03 71680   0.107E-01    0.782E-02
DAV:  13    -0.834972488314E+03   -0.20224E-03   -0.48867E-04 71872   0.452E-02    0.351E-02
DAV:  14    -0.834972564247E+03   -0.75933E-04   -0.20554E-04 71680   0.257E-02    0.174E-02
DAV:  15    -0.834972573813E+03   -0.95655E-05   -0.29332E-05 71680   0.103E-02    0.916E-03
DAV:  16    -0.834972579265E+03   -0.54521E-05   -0.13537E-05 71808   0.758E-03    0.313E-03
DAV:  17    -0.834972579756E+03   -0.49055E-06   -0.15356E-06 71808   0.265E-03    0.141E-03
DAV:  18    -0.834972579996E+03   -0.24046E-06   -0.41761E-07 71744   0.120E-03    0.453E-04
DAV:  19    -0.834972580095E+03   -0.98618E-07   -0.36453E-08 64704   0.411E-04    0.198E-04
DAV:  20    -0.834972580151E+03   -0.56221E-07   -0.56150E-09 50176   0.157E-04    0.975E-05
DAV:  21    -0.834972580157E+03   -0.57553E-08   -0.67654E-10 50176   0.603E-05
   1 F= -.83497258E+03 E0= -.83497258E+03  d E =0.000000E+00
       N       E                     dE             d eps       ncg     rms          rms(c)
DAV:   1    -0.834972580162E+03   -0.11518E-07   -0.16600E-10 50176   0.261E-05    0.772E-05
DAV:   2    -0.834972580162E+03    0.43292E-09   -0.17503E-11 50176   0.105E-05    0.763E-05
DAV:   3    -0.834972580162E+03    0.36016E-09   -0.29486E-11 50176   0.817E-06    0.758E-05
DAV:   4    -0.834972580161E+03    0.10186E-09    0.21220E-12 50176   0.394E-06    0.758E-05
DAV:   5    -0.834972580162E+03   -0.87675E-09    0.41781E-12 50176   0.197E-06    0.757E-05
DAV:   6    -0.834972580163E+03   -0.51296E-09   -0.14057E-11 50176   0.119E-06
   2 F= -.83497258E+03 E0= -.83497258E+03  d E =0.000000E+00
       N       E                     dE             d eps       ncg     rms          rms(c)
DAV:   1    -0.834972580162E+03    0.10186E-09   -0.19718E-11 50176   0.406E-07    0.757E-05
DAV:   2    -0.834972580163E+03   -0.55661E-09    0.56884E-12 50176   0.170E-07    0.757E-05
DAV:   3    -0.834972580163E+03    0.16007E-09   -0.55597E-13 50176   0.111E-07    0.757E-05
DAV:   4    -0.834972580162E+03    0.42201E-09    0.32890E-12 50176   0.651E-08    0.757E-05
DAV:   5    -0.834972580163E+03   -0.32742E-09    0.67041E-12 50176   0.462E-08    0.757E-05
DAV:   6    -0.834972580162E+03    0.31287E-09   -0.43956E-12 50176   0.342E-08
   3 F= -.83497258E+03 E0= -.83497258E+03  d E =0.000000E+00
       N       E                     dE             d eps       ncg     rms          rms(c)
DAV:   1    -0.834972580162E+03    0.17462E-09   -0.36549E-12 50176   0.223E-08    0.757E-05
DAV:   2    -0.834972580162E+03    0.38563E-09   -0.25222E-12 49792   0.137E-08    0.757E-05
DAV:   3    -0.834972580162E+03   -0.41473E-09   -0.53154E-12 49344   0.163E-08    0.757E-05
DAV:   4    -0.834972580162E+03    0.49477E-09   -0.15022E-11 49024   0.232E-08    0.757E-05
DAV:   5    -0.834972580162E+03   -0.18554E-09    0.68257E-12 48832   0.116E-08    0.757E-05
DAV:   6    -0.834972580162E+03   -0.31650E-09    0.60636E-12 48640   0.599E-09
   4 F= -.83497258E+03 E0= -.83497258E+03  d E =0.000000E+00
       N       E                     dE             d eps       ncg     rms          rms(c)
DAV:   1    -0.834972580162E+03    0.47294E-10    0.19128E-11 48384   0.316E-09    0.757E-05
DAV:   2    -0.834972580162E+03   -0.40018E-09    0.57566E-12 47808   0.134E-09    0.757E-05
DAV:   3    -0.834972580162E+03    0.22919E-09    0.50664E-12 47424   0.698E-10    0.757E-05
DAV:   4    -0.834972580162E+03   -0.12733E-09    0.24405E-12 47104   0.520E-10    0.757E-05
DAV:   5    -0.834972580162E+03    0.98225E-10    0.10294E-12 46784   0.340E-10    0.757E-05
DAV:   6    -0.834972580162E+03   -0.23647E-09    0.77317E-12 46272   0.290E-10
   5 F= -.83497258E+03 E0= -.83497258E+03  d E =0.000000E+00
       N       E                     dE             d eps       ncg     rms          rms(c)
DAV:   1    -0.834972580162E+03    0.65484E-10    0.15471E-11 46144   0.284E-10    0.757E-05
DAV:   2    -0.834972580163E+03   -0.49113E-09    0.26934E-12 46016   0.217E-10    0.757E-05
DAV:   3    -0.834972580162E+03    0.60390E-09    0.12420E-11 45824   0.256E-10    0.757E-05
DAV:   4    -0.834972580162E+03   -0.18554E-09    0.49730E-12 45440   0.275E-10    0.757E-05
DAV:   5    -0.834972580162E+03    0.28012E-09   -0.25050E-12 45184   0.259E-10    0.757E-05
DAV:   6    -0.834972580162E+03    0.18190E-09    0.10228E-11 44736   0.244E-10
   6 F= -.83497258E+03 E0= -.83497258E+03  d E =0.000000E+00
       N       E                     dE             d eps       ncg     rms          rms(c)
DAV:   1    -0.834972580162E+03   -0.17826E-09    0.70434E-12 44608   0.292E-10    0.757E-05
DAV:   2    -0.834972580162E+03   -0.20009E-09    0.44468E-12 44608   0.288E-10    0.757E-05
DAV:   3    -0.834972580163E+03   -0.48385E-09    0.78190E-12 44416   0.292E-10    0.757E-05
DAV:   4    -0.834972580162E+03    0.88403E-09    0.23409E-12 43904   0.236E-10    0.757E-05
DAV:   5    -0.834972580162E+03   -0.22555E-09    0.14298E-11 43712   0.225E-10    0.757E-05
DAV:   6    -0.834972580162E+03    0.10186E-09   -0.93472E-13 43520   0.263E-10
   7 F= -.83497258E+03 E0= -.83497258E+03  d E =0.000000E+00
       N       E                     dE             d eps       ncg     rms          rms(c)
DAV:   1    -0.834972580162E+03   -0.29468E-09    0.72847E-12 43200   0.257E-10    0.757E-05
DAV:   2    -0.834972580163E+03   -0.13824E-09    0.38871E-12 43072   0.398E-10    0.757E-05
DAV:   3    -0.834972580163E+03   -0.16371E-09    0.10216E-11 43072   0.398E-10    0.757E-05
DAV:   4    -0.834972580162E+03    0.28376E-09    0.12404E-12 42880   0.297E-10    0.757E-05
DAV:   5    -0.834972580162E+03    0.20373E-09   -0.43134E-12 42752   0.280E-10    0.757E-05
DAV:   6    -0.834972580162E+03    0.11642E-09    0.29068E-12 42624   0.295E-10
   8 F= -.83497258E+03 E0= -.83497258E+03  d E =0.000000E+00
       N       E                     dE             d eps       ncg     rms          rms(c)
DAV:   1    -0.834972580163E+03   -0.26193E-09    0.11347E-11 42240   0.436E-10    0.757E-05
DAV:   2    -0.834972580162E+03    0.70577E-09    0.54538E-12 42112   0.401E-10    0.757E-05
DAV:   3    -0.834972580162E+03   -0.58208E-09    0.11945E-11 41984   0.324E-10    0.757E-05
DAV:   4    -0.834972580162E+03    0.65484E-10   -0.39691E-12 41920   0.242E-10    0.757E-05
DAV:   5    -0.834972580163E+03   -0.25102E-09    0.99897E-12 41920   0.333E-10    0.757E-05
DAV:   6    -0.834972580162E+03    0.25102E-09    0.14324E-11 41728   0.261E-10
   9 F= -.83497258E+03 E0= -.83497258E+03  d E =0.000000E+00
       N       E                     dE             d eps       ncg     rms          rms(c)
DAV:   1    -0.834972580162E+03    0.90949E-10    0.10201E-11 41536   0.232E-10    0.757E-05
DAV:   2    -0.834972580162E+03    0.36744E-09    0.10932E-11 41344   0.194E-10    0.757E-05
DAV:   3    -0.834972580162E+03    0.94587E-10    0.90198E-12 41344   0.273E-10    0.757E-05
DAV:   4    -0.834972580162E+03   -0.28012E-09    0.10496E-11 41152   0.254E-10    0.757E-05
DAV:   5    -0.834972580163E+03   -0.21100E-09    0.55258E-12 40960   0.318E-10    0.757E-05
DAV:   6    -0.834972580162E+03    0.37835E-09    0.83525E-12 40704   0.371E-10
  10 F= -.83497258E+03 E0= -.83497258E+03  d E =0.000000E+00
       N       E                     dE             d eps       ncg     rms          rms(c)
DAV:   1    -0.834972580162E+03    0.18190E-09    0.18107E-12 40320   0.294E-10    0.757E-05
DAV:   2    -0.834972580163E+03   -0.29104E-09    0.84319E-12 40192   0.384E-10    0.757E-05
DAV:   3    -0.834972580162E+03    0.50932E-09   -0.30402E-12 40064   0.307E-10    0.757E-05
DAV:   4    -0.834972580162E+03   -0.31287E-09    0.77834E-12 39616   0.309E-10    0.757E-05
DAV:   5    -0.834972580162E+03    0.83674E-10    0.16294E-11 39168   0.397E-10    0.757E-05
DAV:   6    -0.834972580162E+03    0.20736E-09    0.13969E-11 38912   0.277E-10
  11 F= -.83497258E+03 E0= -.83497258E+03  d E =0.000000E+00
       N       E                     dE             d eps       ncg     rms          rms(c)
DAV:   1    -0.834972580163E+03   -0.37107E-09    0.15858E-11 38848   0.270E-10    0.757E-05
DAV:   2    -0.834972580162E+03    0.69485E-09    0.50378E-13 38848   0.292E-10    0.757E-05
DAV:   3    -0.834972580162E+03   -0.29104E-10    0.46219E-12 38720   0.376E-10    0.757E-05
DAV:   4    -0.834972580162E+03   -0.61846E-10    0.10672E-11 38656   0.318E-10    0.757E-05
DAV:   5    -0.834972580163E+03   -0.68394E-09    0.15777E-11 38656   0.301E-10    0.757E-05
DAV:   6    -0.834972580162E+03    0.79672E-09    0.12218E-11 38656   0.293E-10
  12 F= -.83497258E+03 E0= -.83497258E+03  d E =0.000000E+00
       N       E                     dE             d eps       ncg     rms          rms(c)
DAV:   1    -0.834972580162E+03    0.84037E-09    0.11884E-11 38656   0.348E-10    0.757E-05
DAV:   2    -0.834972580162E+03   -0.52387E-09    0.15832E-11 38528   0.321E-10    0.757E-05
DAV:   3    -0.834972580162E+03    0.31287E-09    0.78080E-12 38336   0.401E-10    0.757E-05
DAV:   4    -0.834972580162E+03    0.20009E-09    0.18779E-11 38208   0.268E-10    0.757E-05
DAV:   5    -0.834972580162E+03   -0.30195E-09    0.12801E-11 38080   0.224E-10    0.757E-05
DAV:   6    -0.834972580162E+03   -0.21100E-09    0.20305E-11 37952   0.322E-10
  13 F= -.83497258E+03 E0= -.83497258E+03  d E =0.000000E+00
       N       E                     dE             d eps       ncg     rms          rms(c)
DAV:   1    -0.834972580163E+03   -0.52387E-09    0.58835E-12 37888   0.313E-10    0.757E-05
DAV:   2    -0.834972580162E+03    0.82946E-09    0.13349E-11 37888   0.269E-10    0.757E-05
DAV:   3    -0.834972580162E+03   -0.48385E-09    0.13649E-11 37888   0.321E-10    0.757E-05
DAV:   4    -0.834972580163E+03   -0.16371E-09    0.17362E-11 37632   0.324E-10    0.757E-05
DAV:   5    -0.834972580162E+03    0.70577E-09    0.17505E-11 37504   0.385E-10    0.757E-05
DAV:   6    -0.834972580162E+03   -0.46566E-09    0.16446E-11 37440   0.332E-10
  14 F= -.83497258E+03 E0= -.83497258E+03  d E =0.000000E+00
       N       E                     dE             d eps       ncg     rms          rms(c)
DAV:   1    -0.834972580162E+03   -0.35652E-09    0.10906E-11 37184   0.365E-10    0.757E-05
DAV:   2    -0.834972580163E+03   -0.52387E-09    0.15233E-11 36992   0.225E-10    0.757E-05
DAV:   3    -0.834972580162E+03    0.66211E-09    0.22128E-11 36928   0.231E-10    0.757E-05
DAV:   4    -0.834972580162E+03   -0.22192E-09    0.22764E-11 36928   0.316E-10    0.757E-05
DAV:   5    -0.834972580163E+03   -0.40018E-09    0.75875E-12 36928   0.321E-10    0.757E-05
DAV:   6    -0.834972580163E+03    0.32742E-10    0.22256E-11 36928   0.268E-10
  15 F= -.83497258E+03 E0= -.83497258E+03  d E =0.000000E+00
       N       E                     dE             d eps       ncg     rms          rms(c)
DAV:   1    -0.834972580162E+03    0.94951E-09    0.22368E-11 36864   0.252E-10    0.757E-05
DAV:   2    -0.834972580163E+03   -0.71304E-09    0.20902E-11 36736   0.221E-10    0.757E-05
DAV:   3    -0.834972580162E+03    0.23283E-09    0.12083E-11 36736   0.232E-10    0.757E-05
DAV:   4    -0.834972580162E+03   -0.16735E-09    0.13495E-11 36672   0.267E-10    0.757E-05
DAV:   5    -0.834972580162E+03    0.40018E-09    0.15066E-11 36544   0.204E-10    0.757E-05
DAV:   6    -0.834972580163E+03   -0.73123E-09    0.69951E-12 36416   0.241E-10
  16 F= -.83497258E+03 E0= -.83497258E+03  d E =0.000000E+00
       N       E                     dE             d eps       ncg     rms          rms(c)
DAV:   1    -0.834972580162E+03    0.22555E-09    0.13482E-11 36352   0.397E-10    0.757E-05
DAV:   2    -0.834972580162E+03   -0.53114E-09    0.15074E-11 36352   0.283E-10    0.757E-05
DAV:   3    -0.834972580163E+03   -0.20373E-09    0.23049E-12 35968   0.255E-10    0.757E-05
DAV:   4    -0.834972580162E+03    0.27649E-09    0.23570E-11 35584   0.280E-10    0.757E-05
DAV:   5    -0.834972580163E+03   -0.27649E-09    0.22427E-11 35456   0.243E-10    0.757E-05
DAV:   6    -0.834972580162E+03    0.64028E-09    0.19118E-11 35392   0.267E-10
  17 F= -.83497258E+03 E0= -.83497258E+03  d E =0.000000E+00
       N       E                     dE             d eps       ncg     rms          rms(c)
DAV:   1    -0.834972580162E+03    0.65484E-10    0.19844E-11 35392   0.349E-10    0.757E-05
DAV:   2    -0.834972580163E+03   -0.33106E-09    0.13230E-11 35264   0.351E-10    0.757E-05
DAV:   3    -0.834972580162E+03    0.55661E-09    0.14092E-11 35200   0.350E-10    0.757E-05
DAV:   4    -0.834972580163E+03   -0.35652E-09    0.12112E-11 35200   0.279E-10    0.757E-05
DAV:   5    -0.834972580162E+03    0.70577E-09    0.32797E-11 35072   0.218E-10    0.757E-05
DAV:   6    -0.834972580162E+03   -0.37107E-09    0.26330E-11 34880   0.251E-10
  18 F= -.83497258E+03 E0= -.83497258E+03  d E =0.000000E+00
       N       E                     dE             d eps       ncg     rms          rms(c)
DAV:   1    -0.834972580162E+03    0.17462E-09    0.11961E-11 34816   0.335E-10    0.757E-05
DAV:   2    -0.834972580162E+03   -0.72032E-09    0.66214E-12 34816   0.361E-10    0.757E-05
DAV:   3    -0.834972580162E+03    0.21828E-09    0.10896E-11 34688   0.247E-10    0.757E-05
DAV:   4    -0.834972580162E+03    0.44020E-09    0.11675E-11 34624   0.363E-10    0.757E-05
DAV:   5    -0.834972580163E+03   -0.92405E-09    0.17912E-11 34624   0.352E-10    0.757E-05
DAV:   6    -0.834972580162E+03    0.93496E-09    0.12882E-11 34624   0.293E-10
  19 F= -.83497258E+03 E0= -.83497258E+03  d E =0.000000E+00
       N       E                     dE             d eps       ncg     rms          rms(c)
DAV:   1    -0.834972580162E+03    0.41837E-09    0.10528E-11 34496   0.192E-10    0.757E-05
DAV:   2    -0.834972580163E+03   -0.29468E-09    0.69187E-12 34432   0.247E-10    0.757E-05
DAV:   3    -0.834972580162E+03    0.33106E-09    0.18877E-11 34368   0.199E-10    0.757E-05
DAV:   4    -0.834972580163E+03   -0.30195E-09    0.20901E-11 34112   0.293E-10    0.757E-05
DAV:   5    -0.834972580162E+03    0.34925E-09    0.87873E-12 34048   0.254E-10    0.757E-05
DAV:   6    -0.834972580162E+03    0.40018E-10    0.14692E-11 34048   0.224E-10
  20 F= -.83497258E+03 E0= -.83497258E+03  d E =0.000000E+00
       N       E                     dE             d eps       ncg     rms          rms(c)
DAV:   1    -0.834972580163E+03   -0.58571E-09    0.12538E-11 34048   0.294E-10    0.757E-05
DAV:   2    -0.834972580162E+03    0.10768E-08    0.17920E-11 34048   0.247E-10    0.757E-05
DAV:   3    -0.834972580162E+03   -0.26921E-09    0.97263E-12 34048   0.327E-10    0.757E-05
DAV:   4    -0.834972580162E+03    0.50932E-10    0.10380E-11 34048   0.360E-10    0.757E-05
DAV:   5    -0.834972580162E+03   -0.25466E-09    0.17674E-11 34048   0.226E-10    0.757E-05
DAV:   6    -0.834972580162E+03   -0.17462E-09    0.97181E-12 33984   0.277E-10
  21 F= -.83497258E+03 E0= -.83497258E+03  d E =0.000000E+00
       N       E                     dE             d eps       ncg     rms          rms(c)
DAV:   1    -0.834972580163E+03   -0.36744E-09    0.11764E-11 33856   0.250E-10    0.757E-05
DAV:   2    -0.834972580162E+03    0.80399E-09    0.80667E-12 33856   0.292E-10    0.757E-05
DAV:   3    -0.834972580163E+03   -0.10405E-08    0.10460E-11 33856   0.285E-10    0.757E-05
DAV:   4    -0.834972580162E+03    0.77489E-09    0.16648E-11 33728   0.385E-10    0.757E-05
DAV:   5    -0.834972580162E+03   -0.17099E-09    0.22744E-11 33664   0.329E-10    0.757E-05
DAV:   6    -0.834972580162E+03    0.34197E-09    0.13787E-11 33664   0.271E-10
  22 F= -.83497258E+03 E0= -.83497258E+03  d E =0.000000E+00
       N       E                     dE             d eps       ncg     rms          rms(c)
DAV:   1    -0.834972580162E+03   -0.18917E-09    0.13922E-11 33664   0.347E-10    0.757E-05
DAV:   2    -0.834972580162E+03    0.72760E-10    0.13352E-11 33664   0.300E-10    0.757E-05
DAV:   3    -0.834972580163E+03   -0.17462E-09    0.20222E-12 33664   0.238E-10    0.757E-05
DAV:   4    -0.834972580162E+03    0.12369E-09    0.73398E-12 33664   0.244E-10    0.757E-05
DAV:   5    -0.834972580162E+03    0.00000E+00    0.81434E-12 33664   0.218E-10    0.757E-05
DAV:   6    -0.834972580163E+03   -0.39290E-09    0.20100E-12 33536   0.326E-10
  23 F= -.83497258E+03 E0= -.83497258E+03  d E =0.000000E+00
       N       E                     dE             d eps       ncg     rms          rms(c)
DAV:   1    -0.834972580162E+03    0.65484E-10    0.17443E-11 33344   0.256E-10    0.757E-05
DAV:   2    -0.834972580162E+03    0.80036E-10    0.16620E-11 33280   0.219E-10    0.757E-05
DAV:   3    -0.834972580163E+03   -0.48749E-09    0.17477E-11 33280   0.313E-10    0.757E-05
DAV:   4    -0.834972580163E+03    0.72760E-10    0.11294E-11 33280   0.292E-10    0.757E-05
DAV:   5    -0.834972580162E+03    0.84401E-09    0.15270E-11 33280   0.303E-10    0.757E-05
DAV:   6    -0.834972580162E+03   -0.58208E-10    0.80104E-12 33280   0.300E-10
  24 F= -.83497258E+03 E0= -.83497258E+03  d E =0.000000E+00
       N       E                     dE             d eps       ncg     rms          rms(c)
DAV:   1    -0.834972580163E+03   -0.79308E-09    0.17488E-11 33280   0.330E-10    0.757E-05
DAV:   2    -0.834972580162E+03    0.42201E-09    0.19106E-11 33280   0.257E-10    0.757E-05
DAV:   3    -0.834972580162E+03   -0.18917E-09    0.18492E-12 33280   0.376E-10    0.757E-05
DAV:   4    -0.834972580162E+03    0.11642E-09    0.14482E-11 33280   0.463E-10    0.757E-05
DAV:   5    -0.834972580162E+03    0.39654E-09    0.11107E-11 33280   0.561E-10    0.757E-05
DAV:   6    -0.834972580162E+03   -0.36016E-09    0.10127E-11 33280   0.589E-10
  25 F= -.83497258E+03 E0= -.83497258E+03  d E =0.000000E+00
       N       E                     dE             d eps       ncg     rms          rms(c)
DAV:   1    -0.834972580162E+03   -0.80036E-10    0.10613E-11 33088   0.360E-10    0.757E-05
DAV:   2    -0.834972580162E+03   -0.35288E-09    0.24314E-11 33088   0.409E-10    0.757E-05
DAV:   3    -0.834972580162E+03    0.29831E-09    0.50056E-12 33088   0.361E-10    0.757E-05
DAV:   4    -0.834972580163E+03   -0.54206E-09    0.13007E-11 33088   0.437E-10    0.757E-05
DAV:   5    -0.834972580162E+03    0.28012E-09    0.93317E-12 33024   0.372E-10    0.757E-05
DAV:   6    -0.834972580162E+03    0.15280E-09    0.14973E-11 32896   0.391E-10
  26 F= -.83497258E+03 E0= -.83497258E+03  d E =0.000000E+00
       N       E                     dE             d eps       ncg     rms          rms(c)
DAV:   1    -0.834972580163E+03   -0.34925E-09    0.13776E-11 32896   0.433E-10    0.757E-05
DAV:   2    -0.834972580162E+03    0.62573E-09    0.19550E-11 32896   0.381E-10    0.757E-05
DAV:   3    -0.834972580162E+03    0.17462E-09    0.16872E-11 32704   0.370E-10    0.757E-05
DAV:   4    -0.834972580162E+03   -0.58208E-09    0.16765E-11 32512   0.379E-10    0.757E-05
DAV:   5    -0.834972580162E+03    0.65484E-10    0.24514E-11 32512   0.235E-10    0.757E-05
DAV:   6    -0.834972580162E+03    0.29104E-09    0.18221E-11 32512   0.384E-10
  27 F= -.83497258E+03 E0= -.83497258E+03  d E =0.000000E+00
       N       E                     dE             d eps       ncg     rms          rms(c)
DAV:   1    -0.834972580162E+03   -0.18190E-09    0.10772E-11 32512   0.348E-10    0.757E-05
DAV:   2    -0.834972580163E+03   -0.31287E-09    0.19822E-11 32512   0.369E-10    0.757E-05
DAV:   3    -0.834972580163E+03    0.20373E-09    0.17488E-11 32512   0.290E-10    0.757E-05
DAV:   4    -0.834972580162E+03    0.21464E-09    0.19621E-11 32512   0.244E-10    0.757E-05
DAV:   5    -0.834972580162E+03    0.15643E-09    0.16866E-11 32512   0.271E-10    0.757E-05
DAV:   6    -0.834972580162E+03    0.31287E-09    0.16696E-11 32384   0.195E-10
  28 F= -.83497258E+03 E0= -.83497258E+03  d E =0.000000E+00
       N       E                     dE             d eps       ncg     rms          rms(c)
DAV:   1    -0.834972580162E+03   -0.87311E-10    0.15942E-11 32320   0.293E-10    0.757E-05
DAV:   2    -0.834972580163E+03   -0.41473E-09    0.66223E-12 32320   0.206E-10    0.757E-05
DAV:   3    -0.834972580162E+03    0.45839E-09    0.10181E-11 32320   0.242E-10    0.757E-05
DAV:   4    -0.834972580162E+03    0.36380E-10    0.23362E-11 32320   0.306E-10    0.757E-05
DAV:   5    -0.834972580162E+03   -0.58208E-10    0.16874E-11 32320   0.353E-10    0.757E-05
DAV:   6    -0.834972580162E+03    0.29104E-10    0.12999E-11 32320   0.308E-10
  29 F= -.83497258E+03 E0= -.83497258E+03  d E =0.000000E+00
       N       E                     dE             d eps       ncg     rms          rms(c)
DAV:   1    -0.834972580162E+03    0.50932E-10    0.18676E-11 32320   0.342E-10    0.757E-05
DAV:   2    -0.834972580162E+03    0.36380E-10    0.71145E-12 32320   0.286E-10    0.757E-05
DAV:   3    -0.834972580162E+03    0.14552E-09    0.14053E-11 32320   0.218E-10    0.757E-05
DAV:   4    -0.834972580163E+03   -0.59663E-09    0.14058E-11 32320   0.327E-10    0.757E-05
DAV:   5    -0.834972580162E+03    0.35652E-09    0.78277E-12 32320   0.303E-10    0.757E-05
DAV:   6    -0.834972580162E+03    0.56752E-09    0.17730E-11 32320   0.272E-10
  30 F= -.83497258E+03 E0= -.83497258E+03  d E =0.000000E+00
       N       E                     dE             d eps       ncg     rms          rms(c)
DAV:   1    -0.834972580163E+03   -0.43656E-09    0.10770E-11 32320   0.295E-10    0.757E-05
DAV:   2    -0.834972580163E+03    0.20373E-09    0.21110E-11 32320   0.348E-10    0.757E-05
DAV:   3    -0.834972580162E+03    0.61846E-09    0.15368E-11 32320   0.414E-10    0.757E-05
DAV:   4    -0.834972580163E+03   -0.61846E-09    0.35084E-12 32320   0.334E-10    0.757E-05
DAV:   5    -0.834972580162E+03    0.20373E-09    0.41529E-12 32320   0.203E-10    0.757E-05
DAV:   6    -0.834972580162E+03   -0.58208E-10    0.16633E-12 32320   0.190E-10
  31 F= -.83497258E+03 E0= -.83497258E+03  d E =0.000000E+00
       N       E                     dE             d eps       ncg     rms          rms(c)
DAV:   1    -0.834972580162E+03    0.69122E-10    0.28269E-12 32320   0.253E-10    0.757E-05
DAV:   2    -0.834972580162E+03    0.40745E-09    0.14786E-11 32320   0.298E-10    0.757E-05
DAV:   3    -0.834972580162E+03   -0.38199E-09    0.21203E-11 32192   0.362E-10    0.757E-05
DAV:   4    -0.834972580162E+03    0.28376E-09    0.26581E-11 32000   0.438E-10    0.757E-05
DAV:   5    -0.834972580162E+03   -0.14552E-09    0.12680E-11 31936   0.274E-10    0.757E-05
DAV:   6    -0.834972580162E+03   -0.20736E-09    0.11673E-11 31936   0.204E-10
  32 F= -.83497258E+03 E0= -.83497258E+03  d E =0.000000E+00
       N       E                     dE             d eps       ncg     rms          rms(c)
DAV:   1    -0.834972580162E+03    0.40382E-09    0.12121E-11 31936   0.198E-10    0.757E-05
DAV:   2    -0.834972580162E+03   -0.36744E-09    0.99306E-12 31936   0.293E-10    0.757E-05
DAV:   3    -0.834972580162E+03   -0.21828E-09    0.15303E-11 31808   0.392E-10    0.757E-05
DAV:   4    -0.834972580162E+03   -0.43656E-10    0.21086E-12 31744   0.354E-10    0.757E-05
DAV:   5    -0.834972580162E+03    0.80036E-10    0.16677E-11 31744   0.387E-10    0.757E-05
DAV:   6    -0.834972580162E+03    0.36380E-10    0.10679E-11 31744   0.330E-10
  33 F= -.83497258E+03 E0= -.83497258E+03  d E =0.000000E+00
       N       E                     dE             d eps       ncg     rms          rms(c)
DAV:   1    -0.834972580162E+03   -0.17462E-09    0.74975E-12 31744   0.258E-10    0.757E-05
DAV:   2    -0.834972580163E+03   -0.27649E-09    0.93137E-12 31744   0.284E-10    0.757E-05
DAV:   3    -0.834972580162E+03    0.29831E-09    0.14539E-11 31744   0.268E-10    0.757E-05
DAV:   4    -0.834972580162E+03    0.18917E-09    0.10448E-11 31744   0.210E-10    0.757E-05
DAV:   5    -0.834972580162E+03   -0.22555E-09    0.11072E-11 31744   0.305E-10    0.757E-05
DAV:   6    -0.834972580162E+03    0.17099E-09    0.79557E-12 31744   0.259E-10
  34 F= -.83497258E+03 E0= -.83497258E+03  d E =0.000000E+00
       N       E                     dE             d eps       ncg     rms          rms(c)
DAV:   1    -0.834972580162E+03    0.36380E-09    0.19758E-11 31744   0.278E-10    0.757E-05
DAV:   2    -0.834972580162E+03   -0.26921E-09    0.11786E-11 31744   0.462E-10    0.757E-05
DAV:   3    -0.834972580163E+03   -0.43292E-09    0.26716E-11 31744   0.373E-10    0.757E-05
DAV:   4    -0.834972580163E+03    0.15280E-09    0.15388E-11 31744   0.174E-10    0.757E-05
DAV:   5    -0.834972580163E+03   -0.18190E-10    0.17940E-11 31744   0.337E-10    0.757E-05
DAV:   6    -0.834972580163E+03   -0.15643E-09    0.16286E-11 31744   0.317E-10
  35 F= -.83497258E+03 E0= -.83497258E+03  d E =0.000000E+00
       N       E                     dE             d eps       ncg     rms          rms(c)
DAV:   1    -0.834972580162E+03    0.37107E-09    0.22037E-11 31744   0.389E-10    0.757E-05
DAV:   2    -0.834972580162E+03    0.31287E-09    0.79369E-12 31744   0.236E-10    0.757E-05
DAV:   3    -0.834972580163E+03   -0.85856E-09    0.16501E-11 31744   0.382E-10    0.757E-05
DAV:   4    -0.834972580163E+03    0.65484E-10    0.14474E-11 31744   0.248E-10    0.757E-05
DAV:   5    -0.834972580163E+03   -0.18190E-09    0.23625E-11 31744   0.248E-10    0.757E-05
DAV:   6    -0.834972580163E+03    0.24374E-09    0.13077E-11 31744   0.394E-10
  36 F= -.83497258E+03 E0= -.83497258E+03  d E =0.000000E+00
       N       E                     dE             d eps       ncg     rms          rms(c)
DAV:   1    -0.834972580162E+03    0.49840E-09    0.67012E-12 31744   0.285E-10    0.757E-05
DAV:   2    -0.834972580163E+03   -0.23647E-09    0.99512E-12 31744   0.217E-10    0.757E-05
DAV:   3    -0.834972580163E+03   -0.58208E-10    0.30005E-11 31744   0.285E-10    0.757E-05
DAV:   4    -0.834972580162E+03    0.43656E-09    0.16449E-11 31744   0.209E-10    0.757E-05
DAV:   5    -0.834972580162E+03   -0.98225E-10    0.21571E-11 31744   0.345E-10    0.757E-05
DAV:   6    -0.834972580163E+03   -0.31650E-09    0.20832E-11 31744   0.222E-10
  37 F= -.83497258E+03 E0= -.83497258E+03  d E =0.000000E+00
       N       E                     dE             d eps       ncg     rms          rms(c)
DAV:   1    -0.834972580163E+03   -0.17826E-09    0.18131E-11 31616   0.250E-10    0.757E-05
DAV:   2    -0.834972580163E+03   -0.36380E-10    0.10403E-11 31360   0.335E-10    0.757E-05
DAV:   3    -0.834972580162E+03    0.27649E-09    0.58442E-12 31360   0.259E-10    0.757E-05
DAV:   4    -0.834972580163E+03   -0.40745E-09    0.22478E-11 31232   0.468E-10    0.757E-05
DAV:   5    -0.834972580162E+03    0.25466E-09    0.25556E-12 31168   0.269E-10    0.757E-05
DAV:   6    -0.834972580162E+03    0.41837E-09    0.15729E-11 31168   0.253E-10
  38 F= -.83497258E+03 E0= -.83497258E+03  d E =0.000000E+00
       N       E                     dE             d eps       ncg     rms          rms(c)
DAV:   1    -0.834972580162E+03    0.43656E-10    0.52145E-12 31168   0.250E-10    0.757E-05
DAV:   2    -0.834972580162E+03    0.38926E-09    0.83915E-12 31168   0.380E-10    0.757E-05
DAV:   3    -0.834972580162E+03   -0.25466E-10    0.18247E-11 31040   0.332E-10    0.757E-05
DAV:   4    -0.834972580163E+03   -0.49840E-09    0.19778E-11 30976   0.382E-10    0.757E-05
DAV:   5    -0.834972580162E+03    0.44020E-09    0.15172E-11 30976   0.406E-10    0.757E-05
DAV:   6    -0.834972580162E+03   -0.14552E-09    0.27051E-11 30976   0.368E-10
  39 F= -.83497258E+03 E0= -.83497258E+03  d E =0.000000E+00
       N       E                     dE             d eps       ncg     rms          rms(c)
DAV:   1    -0.834972580162E+03   -0.25466E-09    0.18687E-11 30976   0.274E-10    0.757E-05
DAV:   2    -0.834972580163E+03   -0.24738E-09    0.17020E-11 30976   0.243E-10    0.757E-05
DAV:   3    -0.834972580162E+03    0.23283E-09    0.69826E-12 30976   0.279E-10    0.757E-05
DAV:   4    -0.834972580162E+03    0.80036E-10    0.57327E-12 30976   0.255E-10    0.757E-05
DAV:   5    -0.834972580162E+03   -0.43656E-10    0.14639E-11 30912   0.258E-10    0.757E-05
DAV:   6    -0.834972580163E+03   -0.23647E-09    0.11388E-11 30656   0.299E-10
  40 F= -.83497258E+03 E0= -.83497258E+03  d E =0.000000E+00
       N       E                     dE             d eps       ncg     rms          rms(c)
DAV:   1    -0.834972580162E+03    0.10914E-09    0.72023E-12 30592   0.298E-10    0.757E-05
DAV:   2    -0.834972580162E+03    0.32742E-10    0.11429E-11 30592   0.373E-10    0.757E-05
DAV:   3    -0.834972580162E+03    0.61846E-10    0.55969E-12 30592   0.313E-10    0.757E-05
DAV:   4    -0.834972580163E+03   -0.48385E-09    0.12313E-11 30464   0.218E-10    0.757E-05
DAV:   5    -0.834972580163E+03   -0.17826E-09    0.21323E-12 30400   0.317E-10    0.757E-05
DAV:   6    -0.834972580163E+03    0.17462E-09    0.82391E-12 30400   0.284E-10
  41 F= -.83497258E+03 E0= -.83497258E+03  d E =0.000000E+00
       N       E                     dE             d eps       ncg     rms          rms(c)
DAV:   1    -0.834972580163E+03    0.13824E-09    0.15433E-11 30400   0.348E-10    0.757E-05
DAV:   2    -0.834972580162E+03    0.24738E-09    0.18169E-11 30400   0.360E-10    0.757E-05
DAV:   3    -0.834972580162E+03    0.43656E-09    0.13204E-11 30400   0.292E-10    0.757E-05
DAV:   4    -0.834972580162E+03    0.10914E-09    0.42975E-12 30400   0.390E-10    0.757E-05
DAV:   5    -0.834972580162E+03   -0.87311E-10    0.17082E-11 30400   0.227E-10    0.757E-05
DAV:   6    -0.834972580162E+03    0.26193E-09    0.12481E-11 30400   0.213E-10
  42 F= -.83497258E+03 E0= -.83497258E+03  d E =0.000000E+00
       N       E                     dE             d eps       ncg     rms          rms(c)
DAV:   1    -0.834972580162E+03   -0.21100E-09    0.17808E-11 30400   0.234E-10    0.757E-05
DAV:   2    -0.834972580162E+03    0.43656E-10    0.20354E-11 30400   0.343E-10    0.757E-05
DAV:   3    -0.834972580162E+03    0.29831E-09    0.86471E-12 30336   0.365E-10    0.757E-05
DAV:   4    -0.834972580162E+03   -0.76398E-10    0.38067E-12 30208   0.378E-10    0.757E-05
DAV:   5    -0.834972580162E+03   -0.19281E-09    0.97700E-12 30208   0.329E-10    0.757E-05
DAV:   6    -0.834972580163E+03   -0.41473E-09    0.16087E-12 30208   0.348E-10
  43 F= -.83497258E+03 E0= -.83497258E+03  d E =0.000000E+00
       N       E                     dE             d eps       ncg     rms          rms(c)
DAV:   1    -0.834972580163E+03   -0.42201E-09    0.85064E-12 30208   0.401E-10    0.757E-05
DAV:   2    -0.834972580162E+03    0.34197E-09    0.19504E-11 30208   0.204E-10    0.757E-05
DAV:   3    -0.834972580162E+03   -0.23647E-09    0.86203E-12 30208   0.284E-10    0.757E-05
DAV:   4    -0.834972580162E+03    0.22192E-09    0.72391E-12 30208   0.244E-10    0.757E-05
DAV:   5    -0.834972580162E+03    0.29104E-10    0.23553E-11 30208   0.249E-10    0.757E-05
DAV:   6    -0.834972580162E+03    0.32014E-09    0.73494E-12 30208   0.275E-10
  44 F= -.83497258E+03 E0= -.83497258E+03  d E =0.000000E+00
       N       E                     dE             d eps       ncg     rms          rms(c)
DAV:   1    -0.834972580162E+03   -0.21100E-09    0.17834E-11 30208   0.352E-10    0.757E-05
DAV:   2    -0.834972580163E+03   -0.18190E-09    0.50160E-12 30208   0.366E-10    0.757E-05
DAV:   3    -0.834972580162E+03    0.66939E-09    0.11786E-11 30208   0.295E-10    0.757E-05
DAV:   4    -0.834972580162E+03    0.72760E-11    0.22412E-11 30208   0.348E-10    0.757E-05
DAV:   5    -0.834972580162E+03   -0.39290E-09    0.18993E-11 30208   0.356E-10    0.757E-05
DAV:   6    -0.834972580162E+03    0.40745E-09    0.22215E-11 30208   0.217E-10
  45 F= -.83497258E+03 E0= -.83497258E+03  d E =0.000000E+00
       N       E                     dE             d eps       ncg     rms          rms(c)
DAV:   1    -0.834972580162E+03    0.15280E-09    0.10371E-11 30208   0.335E-10    0.757E-05
DAV:   2    -0.834972580163E+03   -0.41473E-09    0.16530E-11 30208   0.352E-10    0.757E-05
DAV:   3    -0.834972580162E+03    0.62573E-09    0.76117E-12 30208   0.404E-10    0.757E-05
DAV:   4    -0.834972580163E+03   -0.73487E-09    0.26937E-11 30208   0.354E-10    0.757E-05
DAV:   5    -0.834972580162E+03    0.21100E-09    0.15370E-11 30208   0.245E-10    0.757E-05
DAV:   6    -0.834972580162E+03    0.29831E-09    0.21061E-11 30208   0.361E-10
  46 F= -.83497258E+03 E0= -.83497258E+03  d E =0.000000E+00
       N       E                     dE             d eps       ncg     rms          rms(c)
DAV:   1    -0.834972580162E+03    0.27285E-09    0.16346E-11 30208   0.443E-10    0.757E-05
DAV:   2    -0.834972580162E+03    0.76398E-10    0.98064E-12 30208   0.315E-10    0.757E-05
DAV:   3    -0.834972580163E+03   -0.53478E-09    0.68354E-12 30208   0.296E-10    0.757E-05
DAV:   4    -0.834972580163E+03   -0.83674E-10    0.13205E-11 30208   0.352E-10    0.757E-05
DAV:   5    -0.834972580162E+03    0.38563E-09    0.25000E-11 30080   0.219E-10    0.757E-05
DAV:   6    -0.834972580163E+03   -0.30559E-09    0.91151E-12 30016   0.277E-10
  47 F= -.83497258E+03 E0= -.83497258E+03  d E =0.000000E+00
       N       E                     dE             d eps       ncg     rms          rms(c)
DAV:   1    -0.834972580162E+03   -0.47294E-10    0.15629E-11 30016   0.328E-10    0.757E-05
DAV:   2    -0.834972580163E+03   -0.36744E-09    0.80109E-12 30016   0.426E-10    0.757E-05
DAV:   3    -0.834972580162E+03    0.35652E-09    0.10559E-11 30016   0.303E-10    0.757E-05
DAV:   4    -0.834972580163E+03   -0.45111E-09    0.20198E-11 29888   0.373E-10    0.757E-05
DAV:   5    -0.834972580163E+03    0.58208E-10    0.21273E-11 29824   0.330E-10    0.757E-05
DAV:   6    -0.834972580163E+03    0.26193E-09    0.18550E-11 29824   0.356E-10
  48 F= -.83497258E+03 E0= -.83497258E+03  d E =0.000000E+00
       N       E                     dE             d eps       ncg     rms          rms(c)
DAV:   1    -0.834972580162E+03    0.59299E-09    0.22833E-11 29824   0.287E-10    0.757E-05
DAV:   2    -0.834972580163E+03   -0.39654E-09    0.10537E-11 29824   0.269E-10    0.757E-05
DAV:   3    -0.834972580162E+03    0.12733E-09    0.11908E-11 29824   0.299E-10    0.757E-05
DAV:   4    -0.834972580163E+03   -0.27649E-09    0.16854E-11 29824   0.353E-10    0.757E-05
DAV:   5    -0.834972580162E+03    0.48385E-09    0.12977E-11 29824   0.431E-10    0.757E-05
DAV:   6    -0.834972580162E+03   -0.72760E-10    0.15286E-11 29824   0.300E-10
  49 F= -.83497258E+03 E0= -.83497258E+03  d E =0.000000E+00
       N       E                     dE             d eps       ncg     rms          rms(c)
DAV:   1    -0.834972580162E+03   -0.10550E-09    0.11295E-11 29824   0.325E-10    0.757E-05
DAV:   2    -0.834972580162E+03    0.83674E-10    0.11605E-11 29824   0.262E-10    0.757E-05
DAV:   3    -0.834972580162E+03    0.35652E-09    0.15786E-11 29824   0.325E-10    0.757E-05
DAV:   4    -0.834972580162E+03   -0.37107E-09    0.98546E-12 29824   0.329E-10    0.757E-05
DAV:   5    -0.834972580162E+03    0.10914E-09    0.14440E-11 29824   0.218E-10    0.757E-05
DAV:   6    -0.834972580162E+03    0.18917E-09    0.58718E-12 29824   0.281E-10
  50 F= -.83497258E+03 E0= -.83497258E+03  d E =0.000000E+00
       N       E                     dE             d eps       ncg     rms          rms(c)
DAV:   1    -0.834972580162E+03   -0.16007E-09    0.12393E-11 29824   0.434E-10    0.757E-05
DAV:   2    -0.834972580162E+03    0.80036E-10    0.20884E-11 29824   0.352E-10    0.757E-05
DAV:   3    -0.834972580162E+03   -0.21828E-10    0.52580E-12 29824   0.256E-10    0.757E-05
DAV:   4    -0.834972580163E+03   -0.45111E-09    0.12100E-11 29824   0.248E-10    0.757E-05
DAV:   5    -0.834972580162E+03    0.56752E-09    0.19458E-11 29824   0.292E-10    0.757E-05
DAV:   6    -0.834972580162E+03   -0.12369E-09    0.11875E-11 29824   0.325E-10
  51 F= -.83497258E+03 E0= -.83497258E+03  d E =0.000000E+00
       N       E                     dE             d eps       ncg     rms          rms(c)
DAV:   1    -0.834972580162E+03    0.35288E-09    0.11886E-11 29824   0.186E-10    0.757E-05
DAV:   2    -0.834972580163E+03   -0.78944E-09    0.12538E-11 29696   0.249E-10    0.757E-05
DAV:   3    -0.834972580162E+03    0.54570E-09    0.14723E-11 29632   0.331E-10    0.757E-05
DAV:   4    -0.834972580163E+03   -0.74942E-09    0.62672E-12 29632   0.346E-10    0.757E-05
DAV:   5    -0.834972580162E+03    0.69485E-09    0.22998E-11 29632   0.311E-10    0.757E-05
DAV:   6    -0.834972580162E+03    0.76398E-10    0.62458E-12 29504   0.265E-10
  52 F= -.83497258E+03 E0= -.83497258E+03  d E =0.000000E+00
       N       E                     dE             d eps       ncg     rms          rms(c)
DAV:   1    -0.834972580163E+03   -0.39654E-09    0.12268E-11 29440   0.275E-10    0.757E-05
DAV:   2    -0.834972580162E+03    0.49840E-09    0.21702E-11 29440   0.297E-10    0.757E-05
DAV:   3    -0.834972580163E+03   -0.86948E-09    0.29247E-12 29440   0.435E-10    0.757E-05
DAV:   4    -0.834972580163E+03    0.24738E-09    0.82192E-12 29440   0.334E-10    0.757E-05
DAV:   5    -0.834972580162E+03    0.18190E-09    0.57595E-12 29440   0.251E-10    0.757E-05
DAV:   6    -0.834972580162E+03    0.72760E-11    0.12932E-11 29440   0.242E-10
  53 F= -.83497258E+03 E0= -.83497258E+03  d E =0.000000E+00
       N       E                     dE             d eps       ncg     rms          rms(c)
DAV:   1    -0.834972580162E+03    0.25102E-09    0.23123E-11 29440   0.294E-10    0.757E-05
DAV:   2    -0.834972580162E+03   -0.72760E-10    0.11265E-11 29440   0.368E-10    0.757E-05
DAV:   3    -0.834972580162E+03    0.38199E-09    0.97411E-13 29440   0.302E-10    0.757E-05
DAV:   4    -0.834972580163E+03   -0.75306E-09    0.23128E-11 29440   0.255E-10    0.757E-05
DAV:   5    -0.834972580163E+03    0.10550E-09    0.16826E-11 29440   0.285E-10    0.757E-05
DAV:   6    -0.834972580163E+03   -0.11642E-09    0.10695E-11 29440   0.315E-10
  54 F= -.83497258E+03 E0= -.83497258E+03  d E =0.000000E+00
       N       E                     dE             d eps       ncg     rms          rms(c)
DAV:   1    -0.834972580163E+03   -0.14552E-10    0.59322E-12 29440   0.351E-10    0.757E-05
DAV:   2    -0.834972580162E+03    0.25102E-09    0.15599E-11 29440   0.369E-10    0.757E-05
DAV:   3    -0.834972580162E+03   -0.40018E-10    0.42224E-12 29440   0.279E-10    0.757E-05
DAV:   4    -0.834972580162E+03    0.72760E-10    0.14100E-11 29440   0.254E-10    0.757E-05
DAV:   5    -0.834972580162E+03    0.16007E-09    0.56092E-12 29440   0.219E-10    0.757E-05
DAV:   6    -0.834972580162E+03   -0.14552E-10    0.77523E-12 29440   0.285E-10
  55 F= -.83497258E+03 E0= -.83497258E+03  d E =0.000000E+00
       N       E                     dE             d eps       ncg     rms          rms(c)
DAV:   1    -0.834972580162E+03   -0.65484E-10    0.11314E-11 29440   0.382E-10    0.757E-05
DAV:   2    -0.834972580162E+03    0.36380E-09    0.14756E-11 29440   0.318E-10    0.757E-05
DAV:   3    -0.834972580162E+03   -0.46566E-09    0.16695E-11 29440   0.305E-10    0.757E-05
DAV:   4    -0.834972580163E+03   -0.46566E-09    0.17030E-11 29440   0.386E-10    0.757E-05
DAV:   5    -0.834972580162E+03    0.70577E-09    0.29438E-12 29440   0.342E-10    0.757E-05
DAV:   6    -0.834972580162E+03   -0.21100E-09    0.20597E-11 29440   0.268E-10
  56 F= -.83497258E+03 E0= -.83497258E+03  d E =0.000000E+00
       N       E                     dE             d eps       ncg     rms          rms(c)
DAV:   1    -0.834972580162E+03   -0.50932E-10    0.15874E-11 29440   0.293E-10    0.757E-05
DAV:   2    -0.834972580163E+03   -0.42928E-09    0.16134E-11 29440   0.349E-10    0.757E-05
DAV:   3    -0.834972580162E+03    0.46566E-09    0.61695E-12 29440   0.269E-10    0.757E-05
DAV:   4    -0.834972580162E+03   -0.11642E-09    0.23858E-11 29440   0.253E-10    0.757E-05
DAV:   5    -0.834972580163E+03   -0.34197E-09    0.19039E-11 29440   0.313E-10    0.757E-05
DAV:   6    -0.834972580162E+03    0.37471E-09    0.12817E-11 29440   0.258E-10
  57 F= -.83497258E+03 E0= -.83497258E+03  d E =0.000000E+00
       N       E                     dE             d eps       ncg     rms          rms(c)
DAV:   1    -0.834972580162E+03    0.52387E-09    0.44050E-12 29440   0.302E-10    0.757E-05
DAV:   2    -0.834972580162E+03   -0.18190E-09    0.16963E-11 29440   0.433E-10    0.757E-05
DAV:   3    -0.834972580162E+03   -0.14552E-10    0.11311E-11 29440   0.382E-10    0.757E-05
DAV:   4    -0.834972580162E+03   -0.28376E-09    0.29384E-11 29440   0.342E-10    0.757E-05
DAV:   5    -0.834972580162E+03    0.36380E-11    0.46743E-12 29440   0.301E-10    0.757E-05
DAV:   6    -0.834972580162E+03    0.69485E-09    0.17053E-11 29440   0.350E-10
  58 F= -.83497258E+03 E0= -.83497258E+03  d E =0.000000E+00
       N       E                     dE             d eps       ncg     rms          rms(c)
DAV:   1    -0.834972580162E+03    0.24011E-09    0.11302E-11 29440   0.437E-10    0.757E-05
DAV:   2    -0.834972580163E+03   -0.62937E-09    0.13346E-11 29440   0.254E-10    0.757E-05
DAV:   3    -0.834972580162E+03    0.72032E-09    0.20248E-11 29440   0.328E-10    0.757E-05
DAV:   4    -0.834972580162E+03    0.20009E-09    0.97605E-12 29440   0.313E-10    0.757E-05
DAV:   5    -0.834972580162E+03   -0.14188E-09    0.49523E-12 29440   0.305E-10    0.757E-05
DAV:   6    -0.834972580162E+03    0.11642E-09    0.11731E-11 29376   0.159E-10
  59 F= -.83497258E+03 E0= -.83497258E+03  d E =0.000000E+00
       N       E                     dE             d eps       ncg     rms          rms(c)
DAV:   1    -0.834972580162E+03   -0.10914E-09    0.16536E-11 29248   0.290E-10    0.757E-05
DAV:   2    -0.834972580162E+03    0.14552E-10    0.14280E-11 29248   0.345E-10    0.757E-05
DAV:   3    -0.834972580162E+03    0.18190E-09    0.21803E-11 29248   0.280E-10    0.757E-05
DAV:   4    -0.834972580162E+03   -0.54570E-10    0.56301E-12 29248   0.324E-10    0.757E-05
DAV:   5    -0.834972580162E+03   -0.25466E-10    0.19659E-11 29248   0.334E-10    0.757E-05
DAV:   6    -0.834972580162E+03    0.40018E-10    0.27153E-11 29248   0.392E-10
  60 F= -.83497258E+03 E0= -.83497258E+03  d E =0.000000E+00
       N       E                     dE             d eps       ncg     rms          rms(c)
DAV:   1    -0.834972580162E+03   -0.20736E-09    0.15497E-11 29248   0.322E-10    0.757E-05
DAV:   2    -0.834972580163E+03   -0.39654E-09    0.14214E-11 29248   0.284E-10    0.757E-05
DAV:   3    -0.834972580162E+03    0.27649E-09    0.18338E-11 29248   0.334E-10    0.757E-05
DAV:   4    -0.834972580163E+03   -0.13097E-09    0.16304E-11 29248   0.304E-10    0.757E-05
DAV:   5    -0.834972580162E+03    0.10914E-09    0.13916E-11 29248   0.314E-10    0.757E-05
DAV:   6    -0.834972580162E+03    0.16007E-09    0.22259E-11 29248   0.281E-10
  61 F= -.83497258E+03 E0= -.83497258E+03  d E =0.000000E+00
       N       E                     dE             d eps       ncg     rms          rms(c)
DAV:   1    -0.834972580162E+03    0.21100E-09    0.23894E-11 29248   0.313E-10    0.757E-05
DAV:   2    -0.834972580163E+03   -0.30559E-09    0.17096E-11 29248   0.192E-10    0.757E-05
DAV:   3    -0.834972580163E+03   -0.29104E-09    0.12046E-11 29248   0.255E-10    0.757E-05
DAV:   4    -0.834972580163E+03    0.12005E-09    0.18661E-11 29248   0.238E-10    0.757E-05
DAV:   5    -0.834972580162E+03    0.21464E-09    0.12441E-11 29248   0.263E-10    0.757E-05
DAV:   6    -0.834972580162E+03    0.12005E-09    0.15317E-11 29248   0.305E-10
  62 F= -.83497258E+03 E0= -.83497258E+03  d E =0.000000E+00
       N       E                     dE             d eps       ncg     rms          rms(c)
DAV:   1    -0.834972580162E+03    0.14552E-09    0.17122E-11 29248   0.275E-10    0.757E-05
DAV:   2    -0.834972580162E+03    0.43656E-09    0.15707E-11 29248   0.247E-10    0.757E-05
DAV:   3    -0.834972580162E+03   -0.29831E-09    0.13833E-11 29248   0.308E-10    0.757E-05
DAV:   4    -0.834972580162E+03   -0.87311E-10    0.18960E-11 29248   0.297E-10    0.757E-05
DAV:   5    -0.834972580162E+03   -0.72760E-10    0.11604E-11 29248   0.317E-10    0.757E-05
DAV:   6    -0.834972580162E+03   -0.50932E-10    0.13835E-11 29248   0.281E-10
  63 F= -.83497258E+03 E0= -.83497258E+03  d E =0.000000E+00
       N       E                     dE             d eps       ncg     rms          rms(c)
DAV:   1    -0.834972580162E+03    0.45839E-09    0.54039E-12 29248   0.339E-10    0.757E-05
DAV:   2    -0.834972580162E+03   -0.14552E-09    0.27981E-12 29248   0.269E-10    0.757E-05
DAV:   3    -0.834972580162E+03   -0.38563E-09    0.90927E-12 29248   0.370E-10    0.757E-05
DAV:   4    -0.834972580162E+03    0.35652E-09    0.12718E-11 29248   0.251E-10    0.757E-05
DAV:   5    -0.834972580163E+03   -0.60754E-09    0.15730E-11 29248   0.299E-10    0.757E-05
DAV:   6    -0.834972580162E+03    0.57844E-09    0.81119E-12 29248   0.377E-10
  64 F= -.83497258E+03 E0= -.83497258E+03  d E =0.000000E+00
       N       E                     dE             d eps       ncg     rms          rms(c)
DAV:   1    -0.834972580162E+03    0.83310E-09    0.14974E-11 29248   0.284E-10    0.757E-05
DAV:   2    -0.834972580162E+03   -0.46566E-09    0.16277E-11 29248   0.305E-10    0.757E-05
DAV:   3    -0.834972580162E+03    0.43656E-10    0.11101E-11 29248   0.409E-10    0.757E-05
DAV:   4    -0.834972580163E+03   -0.48749E-09    0.31109E-12 29248   0.371E-10    0.757E-05
DAV:   5    -0.834972580163E+03    0.65484E-10    0.16310E-11 29248   0.217E-10    0.757E-05
DAV:   6    -0.834972580162E+03    0.75670E-09    0.14534E-11 29248   0.225E-10
  65 F= -.83497258E+03 E0= -.83497258E+03  d E =0.000000E+00
       N       E                     dE             d eps       ncg     rms          rms(c)
DAV:   1    -0.834972580163E+03   -0.21828E-10    0.14593E-11 29248   0.293E-10    0.757E-05
DAV:   2    -0.834972580162E+03    0.29104E-09    0.87024E-12 29248   0.241E-10    0.757E-05
DAV:   3    -0.834972580163E+03   -0.24738E-09    0.10135E-11 29248   0.247E-10    0.757E-05
DAV:   4    -0.834972580163E+03    0.29104E-10    0.22273E-11 29248   0.287E-10    0.757E-05
DAV:   5    -0.834972580162E+03    0.40745E-09    0.11420E-11 29248   0.353E-10    0.757E-05
DAV:   6    -0.834972580162E+03    0.34197E-09    0.17896E-11 29248   0.322E-10
  66 F= -.83497258E+03 E0= -.83497258E+03  d E =0.000000E+00
       N       E                     dE             d eps       ncg     rms          rms(c)
DAV:   1    -0.834972580162E+03   -0.16007E-09    0.18429E-11 29248   0.281E-10    0.757E-05
DAV:   2    -0.834972580162E+03    0.45111E-09    0.18359E-11 29248   0.307E-10    0.757E-05
DAV:   3    -0.834972580162E+03   -0.26921E-09    0.11038E-11 29248   0.524E-10    0.757E-05
DAV:   4    -0.834972580162E+03   -0.10550E-09    0.18071E-11 29248   0.362E-10    0.757E-05
DAV:   5    -0.834972580162E+03    0.14188E-09    0.22826E-11 29248   0.299E-10    0.757E-05
DAV:   6    -0.834972580163E+03   -0.43656E-09    0.14769E-11 29248   0.402E-10
  67 F= -.83497258E+03 E0= -.83497258E+03  d E =0.000000E+00
       N       E                     dE             d eps       ncg     rms          rms(c)
DAV:   1    -0.834972580162E+03    0.11642E-09    0.15087E-11 29248   0.330E-10    0.757E-05
DAV:   2    -0.834972580162E+03    0.94587E-10    0.10503E-11 29248   0.284E-10    0.757E-05
DAV:   3    -0.834972580162E+03   -0.35652E-09    0.16310E-11 29248   0.284E-10    0.757E-05
DAV:   4    -0.834972580163E+03   -0.37835E-09    0.13468E-11 29248   0.313E-10    0.757E-05
DAV:   5    -0.834972580162E+03    0.29831E-09    0.10967E-11 29248   0.311E-10    0.757E-05
DAV:   6    -0.834972580162E+03    0.53842E-09    0.17874E-11 29248   0.245E-10
  68 F= -.83497258E+03 E0= -.83497258E+03  d E =0.000000E+00
       N       E                     dE             d eps       ncg     rms          rms(c)
DAV:   1    -0.834972580162E+03   -0.65484E-10    0.14069E-11 29248   0.301E-10    0.757E-05
DAV:   2    -0.834972580163E+03   -0.28376E-09    0.14506E-11 29248   0.306E-10    0.757E-05
DAV:   3    -0.834972580162E+03    0.45839E-09    0.94718E-12 29248   0.376E-10    0.757E-05
DAV:   4    -0.834972580162E+03    0.43656E-10    0.20852E-13 29248   0.273E-10    0.757E-05
DAV:   5    -0.834972580163E+03   -0.28376E-09    0.87489E-12 29248   0.281E-10    0.757E-05
DAV:   6    -0.834972580162E+03    0.26193E-09    0.16515E-11 29248   0.263E-10
  69 F= -.83497258E+03 E0= -.83497258E+03  d E =0.000000E+00
       N       E                     dE             d eps       ncg     rms          rms(c)
DAV:   1    -0.834972580162E+03    0.29831E-09    0.11354E-11 29248   0.252E-10    0.757E-05
DAV:   2    -0.834972580162E+03    0.29468E-09    0.68569E-12 29248   0.274E-10    0.757E-05
DAV:   3    -0.834972580162E+03   -0.34561E-09    0.12665E-11 29248   0.325E-10    0.757E-05
DAV:   4    -0.834972580162E+03    0.41473E-09    0.12009E-11 29248   0.372E-10    0.757E-05
DAV:   5    -0.834972580163E+03   -0.90222E-09    0.20737E-11 29120   0.342E-10    0.757E-05
DAV:   6    -0.834972580162E+03    0.37107E-09    0.77063E-12 29056   0.286E-10
  70 F= -.83497258E+03 E0= -.83497258E+03  d E =0.000000E+00
       N       E                     dE             d eps       ncg     rms          rms(c)
DAV:   1    -0.834972580163E+03    0.87311E-10    0.16314E-11 29056   0.299E-10    0.757E-05
DAV:   2    -0.834972580162E+03    0.49113E-09    0.12442E-11 29056   0.409E-10    0.757E-05
DAV:   3    -0.834972580163E+03   -0.56389E-09    0.10961E-11 29056   0.358E-10    0.757E-05
DAV:   4    -0.834972580163E+03    0.13824E-09    0.22319E-11 29056   0.269E-10    0.757E-05
DAV:   5    -0.834972580163E+03    0.14552E-10    0.20804E-11 29056   0.256E-10    0.757E-05
DAV:   6    -0.834972580162E+03    0.44383E-09    0.15788E-11 29056   0.319E-10
  71 F= -.83497258E+03 E0= -.83497258E+03  d E =0.000000E+00
       N       E                     dE             d eps       ncg     rms          rms(c)
DAV:   1    -0.834972580162E+03    0.34561E-09    0.14962E-11 29056   0.170E-10    0.757E-05
DAV:   2    -0.834972580162E+03   -0.90949E-10    0.90950E-12 29056   0.272E-10    0.757E-05
DAV:   3    -0.834972580162E+03    0.44383E-09    0.65524E-12 29056   0.311E-10    0.757E-05
DAV:   4    -0.834972580162E+03   -0.53842E-09    0.11571E-11 29056   0.287E-10    0.757E-05
DAV:   5    -0.834972580162E+03    0.17099E-09    0.23608E-11 29056   0.477E-10    0.757E-05
DAV:   6    -0.834972580162E+03   -0.40018E-10    0.16269E-11 29056   0.383E-10
  72 F= -.83497258E+03 E0= -.83497258E+03  d E =0.000000E+00
       N       E                     dE             d eps       ncg     rms          rms(c)
DAV:   1    -0.834972580162E+03    0.54570E-10    0.82268E-12 29056   0.255E-10    0.757E-05
DAV:   2    -0.834972580163E+03   -0.51659E-09    0.79932E-12 29056   0.343E-10    0.757E-05
DAV:   3    -0.834972580162E+03    0.79672E-09    0.10991E-11 29056   0.241E-10    0.757E-05
DAV:   4    -0.834972580162E+03    0.12005E-09    0.16749E-11 29056   0.345E-10    0.757E-05
DAV:   5    -0.834972580163E+03   -0.90222E-09    0.14312E-11 29056   0.362E-10    0.757E-05
DAV:   6    -0.834972580162E+03    0.46566E-09    0.49951E-12 29056   0.203E-10
  73 F= -.83497258E+03 E0= -.83497258E+03  d E =0.000000E+00
       N       E                     dE             d eps       ncg     rms          rms(c)
DAV:   1    -0.834972580163E+03    0.65484E-10    0.11958E-11 29056   0.209E-10    0.757E-05
DAV:   2    -0.834972580162E+03    0.45839E-09    0.18033E-11 29056   0.294E-10    0.757E-05
DAV:   3    -0.834972580162E+03   -0.16371E-09    0.90609E-12 29056   0.276E-10    0.757E-05
DAV:   4    -0.834972580162E+03    0.20373E-09    0.11033E-11 29056   0.263E-10    0.757E-05
DAV:   5    -0.834972580162E+03   -0.24374E-09    0.18309E-11 29056   0.391E-10    0.757E-05
DAV:   6    -0.834972580162E+03    0.52387E-09    0.18386E-11 29056   0.364E-10
  74 F= -.83497258E+03 E0= -.83497258E+03  d E =0.000000E+00
       N       E                     dE             d eps       ncg     rms          rms(c)
DAV:   1    -0.834972580162E+03    0.65484E-10    0.12643E-11 29056   0.294E-10    0.757E-05
DAV:   2    -0.834972580162E+03    0.17462E-09    0.65716E-12 29056   0.269E-10    0.757E-05
DAV:   3    -0.834972580162E+03   -0.18190E-09    0.10351E-11 29056   0.359E-10    0.757E-05
DAV:   4    -0.834972580162E+03    0.50932E-09    0.88386E-12 29056   0.338E-10    0.757E-05
DAV:   5    -0.834972580163E+03   -0.89494E-09    0.14976E-11 29056   0.245E-10    0.757E-05
DAV:   6    -0.834972580162E+03    0.62573E-09    0.13488E-11 29056   0.284E-10
  75 F= -.83497258E+03 E0= -.83497258E+03  d E =0.000000E+00
       N       E                     dE             d eps       ncg     rms          rms(c)
DAV:   1    -0.834972580162E+03    0.44383E-09    0.98753E-12 29056   0.364E-10    0.757E-05
DAV:   2    -0.834972580162E+03   -0.29104E-10    0.15506E-11 29056   0.349E-10    0.757E-05
DAV:   3    -0.834972580162E+03    0.94587E-10    0.81699E-12 29056   0.263E-10    0.757E-05
DAV:   4    -0.834972580162E+03    0.69122E-10    0.15610E-11 29056   0.305E-10    0.757E-05
DAV:   5    -0.834972580162E+03   -0.20736E-09    0.73766E-12 29056   0.254E-10    0.757E-05
DAV:   6    -0.834972580162E+03    0.20373E-09    0.10996E-11 29056   0.231E-10
  76 F= -.83497258E+03 E0= -.83497258E+03  d E =0.000000E+00
       N       E                     dE             d eps       ncg     rms          rms(c)
DAV:   1    -0.834972580162E+03   -0.10914E-09    0.11122E-11 29056   0.321E-10    0.757E-05
DAV:   2    -0.834972580163E+03   -0.23283E-09    0.25963E-11 29056   0.307E-10    0.757E-05
DAV:   3    -0.834972580163E+03    0.13461E-09    0.73986E-12 29056   0.287E-10    0.757E-05
DAV:   4    -0.834972580162E+03    0.27649E-09    0.11075E-11 29056   0.430E-10    0.757E-05
DAV:   5    -0.834972580162E+03   -0.90949E-10    0.21483E-11 29056   0.256E-10    0.757E-05
DAV:   6    -0.834972580162E+03    0.39290E-09    0.15975E-11 29056   0.321E-10
  77 F= -.83497258E+03 E0= -.83497258E+03  d E =0.000000E+00
       N       E                     dE             d eps       ncg     rms          rms(c)
DAV:   1    -0.834972580162E+03    0.54206E-09    0.13803E-11 29056   0.387E-10    0.757E-05
DAV:   2    -0.834972580162E+03   -0.33469E-09    0.22130E-11 29056   0.389E-10    0.757E-05
DAV:   3    -0.834972580162E+03    0.10914E-10    0.85761E-12 29056   0.385E-10    0.757E-05
DAV:   4    -0.834972580162E+03   -0.15280E-09    0.15182E-11 29056   0.291E-10    0.757E-05
DAV:   5    -0.834972580163E+03   -0.30195E-09    0.41215E-12 29056   0.236E-10    0.757E-05
DAV:   6    -0.834972580163E+03   -0.25466E-09    0.63041E-12 29056   0.237E-10
  78 F= -.83497258E+03 E0= -.83497258E+03  d E =0.000000E+00
       N       E                     dE             d eps       ncg     rms          rms(c)
DAV:   1    -0.834972580163E+03   -0.13461E-09    0.14937E-11 29056   0.229E-10    0.757E-05
DAV:   2    -0.834972580163E+03    0.21100E-09    0.72226E-12 29056   0.241E-10    0.757E-05
DAV:   3    -0.834972580162E+03    0.74215E-09    0.10210E-11 29056   0.234E-10    0.757E-05
DAV:   4    -0.834972580163E+03   -0.85129E-09    0.16676E-11 29056   0.344E-10    0.757E-05
DAV:   5    -0.834972580163E+03   -0.13824E-09    0.89360E-12 29056   0.374E-10    0.757E-05
DAV:   6    -0.834972580162E+03    0.88039E-09    0.20793E-11 29056   0.337E-10
  79 F= -.83497258E+03 E0= -.83497258E+03  d E =0.000000E+00
       N       E                     dE             d eps       ncg     rms          rms(c)
DAV:   1    -0.834972580162E+03    0.49477E-09    0.24868E-12 29056   0.428E-10    0.757E-05
DAV:   2    -0.834972580162E+03    0.10914E-09    0.14160E-11 29056   0.491E-10    0.757E-05
DAV:   3    -0.834972580162E+03    0.24374E-09    0.15366E-11 29056   0.466E-10    0.757E-05
DAV:   4    -0.834972580162E+03   -0.90949E-10    0.76402E-12 29056   0.455E-10    0.757E-05
DAV:   5    -0.834972580162E+03    0.25466E-09    0.23441E-11 29056   0.337E-10    0.757E-05
DAV:   6    -0.834972580162E+03   -0.53114E-09    0.90303E-12 29056   0.210E-10
  80 F= -.83497258E+03 E0= -.83497258E+03  d E =0.000000E+00
       N       E                     dE             d eps       ncg     rms          rms(c)
DAV:   1    -0.834972580163E+03   -0.11059E-08    0.20663E-11 29056   0.387E-10    0.757E-05
DAV:   2    -0.834972580162E+03    0.64028E-09    0.77580E-12 29056   0.340E-10    0.757E-05
DAV:   3    -0.834972580162E+03    0.20373E-09    0.20054E-11 29056   0.266E-10    0.757E-05
DAV:   4    -0.834972580162E+03   -0.17462E-09    0.19449E-11 29056   0.269E-10    0.757E-05
DAV:   5    -0.834972580162E+03    0.16007E-09    0.19092E-11 29056   0.361E-10    0.757E-05
DAV:   6    -0.834972580163E+03   -0.83310E-09    0.16098E-11 29056   0.242E-10
  81 F= -.83497258E+03 E0= -.83497258E+03  d E =0.000000E+00
       N       E                     dE             d eps       ncg     rms          rms(c)
DAV:   1    -0.834972580162E+03   -0.17099E-09    0.19890E-11 29056   0.354E-10    0.757E-05
DAV:   2    -0.834972580162E+03   -0.36380E-11    0.13825E-11 29056   0.272E-10    0.757E-05
DAV:   3    -0.834972580162E+03   -0.21828E-10    0.49438E-12 29056   0.459E-10    0.757E-05
DAV:   4    -0.834972580163E+03   -0.32378E-09    0.12629E-11 29056   0.332E-10    0.757E-05
DAV:   5    -0.834972580163E+03   -0.25466E-10    0.13190E-11 29056   0.242E-10    0.757E-05
DAV:   6    -0.834972580163E+03    0.80036E-10    0.20714E-11 29056   0.292E-10
  82 F= -.83497258E+03 E0= -.83497258E+03  d E =0.000000E+00
       N       E                     dE             d eps       ncg     rms          rms(c)
DAV:   1    -0.834972580163E+03   -0.22555E-09    0.13074E-11 29056   0.268E-10    0.757E-05
DAV:   2    -0.834972580162E+03    0.34197E-09    0.17523E-11 29056   0.267E-10    0.757E-05
DAV:   3    -0.834972580162E+03    0.69122E-09    0.86145E-12 29056   0.351E-10    0.757E-05
DAV:   4    -0.834972580162E+03   -0.56025E-09    0.12441E-11 28992   0.369E-10    0.757E-05
DAV:   5    -0.834972580162E+03    0.36380E-10    0.21944E-11 28864   0.281E-10    0.757E-05
DAV:   6    -0.834972580162E+03   -0.83674E-10    0.59229E-12 28864   0.296E-10
  83 F= -.83497258E+03 E0= -.83497258E+03  d E =0.000000E+00
       N       E                     dE             d eps       ncg     rms          rms(c)
DAV:   1    -0.834972580162E+03    0.36380E-09    0.10268E-11 28864   0.292E-10    0.757E-05
DAV:   2    -0.834972580162E+03   -0.32742E-09    0.73029E-12 28864   0.324E-10    0.757E-05
DAV:   3    -0.834972580162E+03    0.51659E-09    0.26514E-11 28864   0.272E-10    0.757E-05
DAV:   4    -0.834972580162E+03   -0.74215E-09    0.12912E-11 28864   0.237E-10    0.757E-05
DAV:   5    -0.834972580162E+03    0.11642E-09    0.18574E-11 28864   0.169E-10    0.757E-05
DAV:   6    -0.834972580162E+03    0.50932E-09    0.13141E-11 28864   0.321E-10
  84 F= -.83497258E+03 E0= -.83497258E+03  d E =0.000000E+00
       N       E                     dE             d eps       ncg     rms          rms(c)
DAV:   1    -0.834972580162E+03    0.32014E-09    0.18567E-11 28864   0.341E-10    0.757E-05
DAV:   2    -0.834972580162E+03   -0.15280E-09    0.15400E-11 28864   0.361E-10    0.757E-05
DAV:   3    -0.834972580162E+03    0.24738E-09    0.16737E-11 28864   0.322E-10    0.757E-05
DAV:   4    -0.834972580162E+03   -0.98225E-10    0.12806E-11 28864   0.273E-10    0.757E-05
DAV:   5    -0.834972580162E+03   -0.10550E-09    0.22130E-11 28864   0.260E-10    0.757E-05
DAV:   6    -0.834972580162E+03    0.30559E-09    0.16757E-11 28864   0.431E-10
  85 F= -.83497258E+03 E0= -.83497258E+03  d E =0.000000E+00
       N       E                     dE             d eps       ncg     rms          rms(c)
DAV:   1    -0.834972580162E+03   -0.14552E-09    0.78244E-12 28864   0.488E-10    0.757E-05
DAV:   2    -0.834972580162E+03    0.14552E-09    0.15118E-11 28864   0.382E-10    0.757E-05
DAV:   3    -0.834972580162E+03    0.33469E-09    0.16901E-11 28864   0.390E-10    0.757E-05
DAV:   4    -0.834972580162E+03   -0.80036E-10    0.22778E-11 28864   0.326E-10    0.757E-05
DAV:   5    -0.834972580162E+03   -0.25466E-09    0.12264E-11 28864   0.365E-10    0.757E-05
DAV:   6    -0.834972580162E+03   -0.16735E-09    0.11601E-11 28864   0.300E-10
  86 F= -.83497258E+03 E0= -.83497258E+03  d E =0.000000E+00
       N       E                     dE             d eps       ncg     rms          rms(c)
DAV:   1    -0.834972580163E+03   -0.55661E-09    0.16366E-11 28864   0.254E-10    0.757E-05
DAV:   2    -0.834972580162E+03    0.62937E-09    0.19747E-11 28864   0.387E-10    0.757E-05
DAV:   3    -0.834972580162E+03    0.18917E-09    0.10272E-11 28864   0.338E-10    0.757E-05
DAV:   4    -0.834972580162E+03   -0.32742E-09    0.22301E-11 28864   0.201E-10    0.757E-05
DAV:   5    -0.834972580163E+03   -0.27649E-09    0.27389E-11 28864   0.192E-10    0.757E-05
DAV:   6    -0.834972580162E+03    0.17462E-09    0.19469E-11 28864   0.261E-10
  87 F= -.83497258E+03 E0= -.83497258E+03  d E =0.000000E+00
       N       E                     dE             d eps       ncg     rms          rms(c)
DAV:   1    -0.834972580163E+03   -0.36380E-10    0.16645E-11 28864   0.279E-10    0.757E-05
DAV:   2    -0.834972580162E+03    0.64756E-09    0.86329E-12 28864   0.237E-10    0.757E-05
DAV:   3    -0.834972580163E+03   -0.74579E-09    0.41920E-12 28864   0.360E-10    0.757E-05
DAV:   4    -0.834972580162E+03    0.55661E-09    0.16536E-11 28864   0.277E-10    0.757E-05
DAV:   5    -0.834972580162E+03   -0.10914E-10    0.23909E-11 28864   0.249E-10    0.757E-05
DAV:   6    -0.834972580163E+03   -0.46202E-09    0.85033E-12 28864   0.241E-10
  88 F= -.83497258E+03 E0= -.83497258E+03  d E =0.000000E+00
       N       E                     dE             d eps       ncg     rms          rms(c)
DAV:   1    -0.834972580162E+03    0.61846E-10    0.11505E-11 28864   0.269E-10    0.757E-05
DAV:   2    -0.834972580162E+03   -0.24011E-09    0.13323E-11 28864   0.215E-10    0.757E-05
DAV:   3    -0.834972580163E+03   -0.48749E-09    0.14683E-11 28864   0.289E-10    0.757E-05
DAV:   4    -0.834972580162E+03    0.37835E-09    0.12165E-11 28864   0.253E-10    0.757E-05
DAV:   5    -0.834972580163E+03   -0.33469E-09    0.33105E-12 28864   0.337E-10    0.757E-05
DAV:   6    -0.834972580162E+03    0.68394E-09    0.21836E-11 28864   0.344E-10
  89 F= -.83497258E+03 E0= -.83497258E+03  d E =0.000000E+00
       N       E                     dE             d eps       ncg     rms          rms(c)
DAV:   1    -0.834972580163E+03   -0.16371E-09    0.12672E-11 28864   0.347E-10    0.757E-05
DAV:   2    -0.834972580162E+03    0.74579E-09    0.21530E-11 28864   0.406E-10    0.757E-05
DAV:   3    -0.834972580162E+03    0.94587E-10    0.18797E-11 28864   0.357E-10    0.757E-05
DAV:   4    -0.834972580162E+03   -0.20736E-09    0.71441E-12 28864   0.367E-10    0.757E-05
DAV:   5    -0.834972580162E+03    0.32742E-10    0.12078E-11 28864   0.396E-10    0.757E-05
DAV:   6    -0.834972580162E+03    0.10186E-09    0.70093E-12 28864   0.399E-10
  90 F= -.83497258E+03 E0= -.83497258E+03  d E =0.000000E+00
       N       E                     dE             d eps       ncg     rms          rms(c)
DAV:   1    -0.834972580162E+03   -0.12369E-09    0.20115E-11 28864   0.275E-10    0.757E-05
DAV:   2    -0.834972580162E+03    0.16735E-09    0.10436E-11 28864   0.283E-10    0.757E-05
DAV:   3    -0.834972580163E+03   -0.50204E-09    0.18402E-11 28864   0.281E-10    0.757E-05
DAV:   4    -0.834972580162E+03    0.50568E-09    0.11596E-11 28864   0.355E-10    0.757E-05
DAV:   5    -0.834972580162E+03    0.16735E-09    0.20655E-12 28864   0.263E-10    0.757E-05
DAV:   6    -0.834972580162E+03   -0.25830E-09    0.42451E-12 28864   0.252E-10
  91 F= -.83497258E+03 E0= -.83497258E+03  d E =0.000000E+00
       N       E                     dE             d eps       ncg     rms          rms(c)
DAV:   1    -0.834972580162E+03   -0.22192E-09    0.11227E-11 28864   0.313E-10    0.757E-05
DAV:   2    -0.834972580162E+03   -0.14188E-09    0.16377E-11 28864   0.264E-10    0.757E-05
DAV:   3    -0.834972580162E+03   -0.47294E-10    0.17472E-11 28864   0.326E-10    0.757E-05
DAV:   4    -0.834972580162E+03    0.65484E-10    0.90415E-12 28864   0.321E-10    0.757E-05
DAV:   5    -0.834972580162E+03   -0.12369E-09    0.93654E-12 28864   0.304E-10    0.757E-05
DAV:   6    -0.834972580162E+03    0.72760E-11    0.10298E-11 28864   0.333E-10
  92 F= -.83497258E+03 E0= -.83497258E+03  d E =0.000000E+00
       N       E                     dE             d eps       ncg     rms          rms(c)
DAV:   1    -0.834972580162E+03    0.63301E-09    0.11112E-11 28864   0.342E-10    0.757E-05
DAV:   2    -0.834972580162E+03   -0.48021E-09    0.18562E-11 28864   0.342E-10    0.757E-05
DAV:   3    -0.834972580162E+03    0.17099E-09    0.11512E-11 28864   0.269E-10    0.757E-05
DAV:   4    -0.834972580162E+03   -0.25466E-10    0.46322E-12 28864   0.216E-10    0.757E-05
DAV:   5    -0.834972580162E+03   -0.16735E-09    0.15092E-11 28864   0.241E-10    0.757E-05
DAV:   6    -0.834972580162E+03   -0.21828E-10    0.49588E-12 28864   0.323E-10
  93 F= -.83497258E+03 E0= -.83497258E+03  d E =0.000000E+00
       N       E                     dE             d eps       ncg     rms          rms(c)
DAV:   1    -0.834972580162E+03    0.14552E-10    0.10615E-11 28864   0.273E-10    0.757E-05
DAV:   2    -0.834972580162E+03    0.18917E-09    0.20417E-11 28864   0.434E-10    0.757E-05
DAV:   3    -0.834972580162E+03    0.26921E-09    0.86699E-12 28864   0.409E-10    0.757E-05
DAV:   4    -0.834972580162E+03   -0.28376E-09    0.22822E-11 28864   0.282E-10    0.757E-05
DAV:   5    -0.834972580162E+03   -0.21100E-09    0.11280E-11 28864   0.318E-10    0.757E-05
DAV:   6    -0.834972580162E+03    0.14552E-10    0.17455E-11 28864   0.357E-10
  94 F= -.83497258E+03 E0= -.83497258E+03  d E =0.000000E+00
       N       E                     dE             d eps       ncg     rms          rms(c)
DAV:   1    -0.834972580163E+03   -0.55297E-09    0.17752E-11 28864   0.273E-10    0.757E-05
DAV:   2    -0.834972580162E+03    0.69122E-09    0.67473E-12 28864   0.438E-10    0.757E-05
DAV:   3    -0.834972580163E+03   -0.41473E-09    0.17585E-11 28864   0.367E-10    0.757E-05
DAV:   4    -0.834972580163E+03    0.13461E-09    0.24703E-11 28864   0.268E-10    0.757E-05
DAV:   5    -0.834972580162E+03    0.45475E-09    0.11776E-11 28864   0.165E-10    0.757E-05
DAV:   6    -0.834972580162E+03   -0.42928E-09    0.30984E-12 28864   0.210E-10
  95 F= -.83497258E+03 E0= -.83497258E+03  d E =0.000000E+00
       N       E                     dE             d eps       ncg     rms          rms(c)
DAV:   1    -0.834972580162E+03   -0.43656E-09    0.13237E-11 28864   0.353E-10    0.757E-05
DAV:   2    -0.834972580162E+03    0.21828E-09    0.26595E-11 28864   0.344E-10    0.757E-05
DAV:   3    -0.834972580162E+03    0.27649E-09    0.21874E-11 28864   0.205E-10    0.757E-05
DAV:   4    -0.834972580162E+03    0.25466E-10    0.15590E-11 28864   0.215E-10    0.757E-05
DAV:   5    -0.834972580162E+03   -0.26557E-09    0.14454E-11 28864   0.252E-10    0.757E-05
DAV:   6    -0.834972580163E+03   -0.48385E-09    0.20925E-11 28864   0.366E-10
  96 F= -.83497258E+03 E0= -.83497258E+03  d E =0.000000E+00
       N       E                     dE             d eps       ncg     rms          rms(c)
DAV:   1    -0.834972580162E+03   -0.10186E-09    0.26731E-12 28864   0.248E-10    0.757E-05
DAV:   2    -0.834972580162E+03    0.65484E-10    0.10385E-11 28864   0.321E-10    0.757E-05
DAV:   3    -0.834972580162E+03    0.26921E-09    0.17662E-11 28864   0.329E-10    0.757E-05
DAV:   4    -0.834972580162E+03    0.10186E-09    0.14166E-11 28864   0.273E-10    0.757E-05
DAV:   5    -0.834972580162E+03   -0.17462E-09    0.17047E-11 28864   0.315E-10    0.757E-05
DAV:   6    -0.834972580162E+03   -0.13824E-09    0.12105E-11 28864   0.283E-10
  97 F= -.83497258E+03 E0= -.83497258E+03  d E =0.000000E+00
       N       E                     dE             d eps       ncg     rms          rms(c)
DAV:   1    -0.834972580163E+03   -0.45839E-09    0.17548E-11 28864   0.374E-10    0.757E-05
DAV:   2    -0.834972580162E+03    0.14188E-09    0.12309E-11 28864   0.276E-10    0.757E-05
DAV:   3    -0.834972580163E+03   -0.32378E-09    0.10672E-11 28864   0.217E-10    0.757E-05
DAV:   4    -0.834972580162E+03    0.32014E-09    0.23560E-11 28864   0.235E-10    0.757E-05
DAV:   5    -0.834972580162E+03    0.18917E-09    0.19287E-11 28864   0.217E-10    0.757E-05
DAV:   6    -0.834972580163E+03   -0.38926E-09    0.24751E-11 28864   0.284E-10
  98 F= -.83497258E+03 E0= -.83497258E+03  d E =0.000000E+00
       N       E                     dE             d eps       ncg     rms          rms(c)
DAV:   1    -0.834972580162E+03   -0.21100E-09    0.18167E-11 28864   0.256E-10    0.757E-05
DAV:   2    -0.834972580162E+03    0.25830E-09    0.24814E-11 28864   0.218E-10    0.757E-05
DAV:   3    -0.834972580163E+03   -0.64028E-09    0.35239E-12 28864   0.240E-10    0.757E-05
DAV:   4    -0.834972580162E+03    0.38199E-09    0.20433E-11 28864   0.305E-10    0.757E-05
DAV:   5    -0.834972580163E+03   -0.16007E-09    0.17899E-11 28864   0.302E-10    0.757E-05
DAV:   6    -0.834972580162E+03    0.32014E-09    0.16148E-11 28864   0.306E-10
  99 F= -.83497258E+03 E0= -.83497258E+03  d E =0.000000E+00
       N       E                     dE             d eps       ncg     rms          rms(c)
DAV:   1    -0.834972580162E+03    0.35652E-09    0.90664E-12 28864   0.298E-10    0.757E-05
DAV:   2    -0.834972580163E+03   -0.45111E-09   -0.55634E-13 28864   0.290E-10    0.757E-05
DAV:   3    -0.834972580162E+03    0.22555E-09    0.14300E-11 28864   0.324E-10    0.757E-05
DAV:   4    -0.834972580162E+03    0.56025E-09    0.12917E-11 28864   0.256E-10    0.757E-05
DAV:   5    -0.834972580162E+03   -0.61118E-09    0.92445E-12 28864   0.298E-10    0.757E-05
DAV:   6    -0.834972580162E+03    0.30559E-09    0.18483E-11 28864   0.420E-10
 100 F= -.83497258E+03 E0= -.83497258E+03  d E =0.000000E+00
