 B  C                                   
   1.00000000000000     
     5.1843433363667080    0.0000000000000000    0.0000000000000000
     1.9498699389385337    4.7137871220774983    0.0000000000000000
     2.4459064054740400    1.6646920817023665    4.6680652849290851
   B    C 
    11     4
Direct
  0.3114120613032370  0.8033931096919957  0.8038994021722985
  0.8038994021690584  0.8033931096993427  0.3114120613001035
  0.8094539446156688  0.3140131975184488  0.8094539446207989
  0.6858303273558732  0.1971319358382999  0.1972188257729357
  0.1972188257733336  0.1971319358320613  0.6858303273611313
  0.1897957057546975  0.6874264645856485  0.1897957057510595
  0.6705365130527028  0.9914900200232779  0.9946677733881373
  0.9946677733858209  0.9914900200295094  0.6705365130497754
  0.9920465281841970  0.6604902181812307  0.9920465281754574
  0.3260886151712512  0.0123207754467742  0.0038719003887024
  0.0038719003871108  0.0123207754414096  0.3260886151773477
  0.0059887424616463  0.3208409774997918  0.0059887424514926
  0.6202331294644452  0.6074169667143678  0.6202331294783363
  0.3847001959463157  0.4008328203465084  0.3847001959373628
  0.5042564139746375  0.5003077521513219  0.5042564139750496
 
  0.00000000E+00  0.00000000E+00  0.00000000E+00
  0.00000000E+00  0.00000000E+00  0.00000000E+00
  0.00000000E+00  0.00000000E+00  0.00000000E+00
  0.00000000E+00  0.00000000E+00  0.00000000E+00
  0.00000000E+00  0.00000000E+00  0.00000000E+00
  0.00000000E+00  0.00000000E+00  0.00000000E+00
  0.00000000E+00  0.00000000E+00  0.00000000E+00
  0.00000000E+00  0.00000000E+00  0.00000000E+00
  0.00000000E+00  0.00000000E+00  0.00000000E+00
  0.00000000E+00  0.00000000E+00  0.00000000E+00
  0.00000000E+00  0.00000000E+00  0.00000000E+00
  0.00000000E+00  0.00000000E+00  0.00000000E+00
  0.00000000E+00  0.00000000E+00  0.00000000E+00
  0.00000000E+00  0.00000000E+00  0.00000000E+00
  0.00000000E+00  0.00000000E+00  0.00000000E+00
