  15  15   0   0
  0.7605178E+01  0.5184343E-09  0.5101155E-09  0.5526707E-09  0.5000000E-15
  1.000000000000000E-004
  CAR 
 unknown system                          
     14.25895812    -13.52857104  301      6.74476165      1.00000000
    -13.529  0.0000E+00  0.0000E+00
    -13.436  0.0000E+00  0.0000E+00
    -13.343  0.0000E+00  0.0000E+00
    -13.251  0.0000E+00  0.0000E+00
    -13.158  0.0000E+00  0.0000E+00
    -13.065  0.0000E+00  0.0000E+00
    -12.973  0.0000E+00  0.0000E+00
    -12.880  0.0000E+00  0.0000E+00
    -12.788  0.0000E+00  0.0000E+00
    -12.695  0.0000E+00  0.0000E+00
    -12.602  0.0000E+00  0.0000E+00
    -12.510  0.0000E+00  0.0000E+00
    -12.417  0.0000E+00  0.0000E+00
    -12.324  0.0000E+00  0.0000E+00
    -12.232  0.0000E+00  0.0000E+00
    -12.139  0.0000E+00  0.0000E+00
    -12.047  0.0000E+00  0.0000E+00
    -11.954  0.0000E+00  0.0000E+00
    -11.861  0.0000E+00  0.0000E+00
    -11.769  0.0000E+00  0.0000E+00
    -11.676  0.0000E+00  0.0000E+00
    -11.583  0.0000E+00  0.0000E+00
    -11.491  0.3620E-02  0.5933E-04
    -11.398  0.7135E-02  0.5606E-03
    -11.306  0.1014E-01  0.1361E-02
    -11.213  0.1278E-01  0.2418E-02
    -11.120  0.1576E-01  0.3738E-02
    -11.028  0.1939E-01  0.5357E-02
    -10.935  0.2512E-01  0.7389E-02
    -10.842  0.3514E-01  0.1024E-01
    -10.750  0.4353E-01  0.1385E-01
    -10.657  0.3027E-01  0.1769E-01
    -10.565  0.1516E-01  0.1959E-01
    -10.472  0.0000E+00  0.2000E-01
    -10.379  0.6553E-02  0.2020E-01
    -10.287  0.1752E-01  0.2151E-01
    -10.194  0.3663E-01  0.2411E-01
    -10.101  0.5604E-01  0.2812E-01
    -10.009  0.3331E-01  0.3195E-01
     -9.916  0.2599E-01  0.3470E-01
     -9.824  0.1716E-01  0.3668E-01
     -9.731  0.1211E-01  0.3802E-01
     -9.638  0.8583E-02  0.3897E-01
     -9.546  0.5607E-02  0.3963E-01
     -9.453  0.1587E-02  0.3998E-01
     -9.360  0.0000E+00  0.4000E-01
     -9.268  0.0000E+00  0.4000E-01
     -9.175  0.0000E+00  0.4000E-01
     -9.083  0.0000E+00  0.4000E-01
     -8.990  0.0000E+00  0.4000E-01
     -8.897  0.0000E+00  0.4000E-01
     -8.805  0.0000E+00  0.4000E-01
     -8.712  0.9190E-02  0.4027E-01
     -8.619  0.3510E-01  0.4270E-01
     -8.527  0.3282E-01  0.4577E-01
     -8.434  0.3259E-01  0.4881E-01
     -8.342  0.3357E-01  0.5186E-01
     -8.249  0.3450E-01  0.5503E-01
     -8.156  0.2574E-01  0.5786E-01
     -8.064  0.1239E-01  0.5959E-01
     -7.971  0.0000E+00  0.6000E-01
     -7.878  0.0000E+00  0.6000E-01
     -7.786  0.0000E+00  0.6000E-01
     -7.693  0.0000E+00  0.6000E-01
     -7.601  0.0000E+00  0.6000E-01
     -7.508  0.6643E-02  0.6027E-01
     -7.415  0.1223E-01  0.6119E-01
     -7.323  0.1427E-01  0.6243E-01
     -7.230  0.1955E-01  0.6392E-01
     -7.137  0.2254E-01  0.6607E-01
     -7.045  0.1977E-01  0.6799E-01
     -6.952  0.1646E-01  0.6964E-01
     -6.860  0.1535E-01  0.7110E-01
     -6.767  0.1575E-01  0.7252E-01
     -6.674  0.1749E-01  0.7406E-01
     -6.582  0.1698E-01  0.7565E-01
     -6.489  0.1841E-01  0.7734E-01
     -6.396  0.1428E-01  0.7885E-01
     -6.304  0.5966E-02  0.7985E-01
     -6.211  0.0000E+00  0.8000E-01
     -6.119  0.4842E-02  0.8007E-01
     -6.026  0.2161E-01  0.8153E-01
     -5.933  0.2591E-01  0.8370E-01
     -5.841  0.3638E-01  0.8647E-01
     -5.748  0.5983E-01  0.9117E-01
     -5.655  0.3701E-01  0.9572E-01
     -5.563  0.3947E-01  0.9905E-01
     -5.470  0.3543E-01  0.1029E+00
     -5.378  0.2165E-01  0.1052E+00
     -5.285  0.2869E-01  0.1077E+00
     -5.192  0.3371E-01  0.1105E+00
     -5.100  0.2998E-01  0.1138E+00
     -5.007  0.1884E-01  0.1160E+00
     -4.914  0.1212E-01  0.1174E+00
     -4.822  0.8758E-02  0.1184E+00
     -4.729  0.6095E-02  0.1191E+00
     -4.637  0.3466E-02  0.1195E+00
     -4.544  0.2445E-02  0.1198E+00
     -4.451  0.1340E-02  0.1200E+00
     -4.359  0.0000E+00  0.1200E+00
     -4.266  0.0000E+00  0.1200E+00
     -4.173  0.0000E+00  0.1200E+00
     -4.081  0.1238E-02  0.1200E+00
     -3.988  0.5051E-02  0.1203E+00
     -3.896  0.8259E-02  0.1209E+00
     -3.803  0.1783E-01  0.1220E+00
     -3.710  0.2314E-01  0.1240E+00
     -3.618  0.2587E-01  0.1263E+00
     -3.525  0.3093E-01  0.1288E+00
     -3.432  0.3685E-01  0.1322E+00
     -3.340  0.3800E-01  0.1358E+00
     -3.247  0.2475E-01  0.1385E+00
     -3.155  0.2980E-01  0.1411E+00
     -3.062  0.2973E-01  0.1440E+00
     -2.969  0.2905E-01  0.1467E+00
     -2.877  0.3059E-01  0.1494E+00
     -2.784  0.3317E-01  0.1524E+00
     -2.691  0.3829E-01  0.1557E+00
     -2.599  0.4379E-01  0.1595E+00
     -2.506  0.4691E-01  0.1638E+00
     -2.414  0.4220E-01  0.1679E+00
     -2.321  0.3885E-01  0.1716E+00
     -2.228  0.3563E-01  0.1749E+00
     -2.136  0.3727E-01  0.1784E+00
     -2.043  0.3648E-01  0.1818E+00
     -1.950  0.4050E-01  0.1853E+00
     -1.858  0.4466E-01  0.1893E+00
     -1.765  0.4324E-01  0.1933E+00
     -1.673  0.4076E-01  0.1972E+00
     -1.580  0.4151E-01  0.2010E+00
     -1.487  0.4336E-01  0.2049E+00
     -1.395  0.5151E-01  0.2093E+00
     -1.302  0.4557E-01  0.2138E+00
     -1.209  0.4273E-01  0.2178E+00
     -1.117  0.5065E-01  0.2223E+00
     -1.024  0.4597E-01  0.2270E+00
     -0.932  0.4078E-01  0.2309E+00
     -0.839  0.3779E-01  0.2345E+00
     -0.746  0.4008E-01  0.2382E+00
     -0.654  0.4358E-01  0.2420E+00
     -0.561  0.3506E-01  0.2456E+00
     -0.468  0.3670E-01  0.2489E+00
     -0.376  0.4499E-01  0.2527E+00
     -0.283  0.4440E-01  0.2569E+00
     -0.191  0.4268E-01  0.2610E+00
     -0.098  0.4111E-01  0.2649E+00
     -0.005  0.4255E-01  0.2687E+00
      0.087  0.4197E-01  0.2727E+00
      0.180  0.4596E-01  0.2768E+00
      0.273  0.4101E-01  0.2809E+00
      0.365  0.3741E-01  0.2845E+00
      0.458  0.3792E-01  0.2879E+00
      0.550  0.4480E-01  0.2919E+00
      0.643  0.3437E-01  0.2956E+00
      0.736  0.3137E-01  0.2985E+00
      0.828  0.3089E-01  0.3015E+00
      0.921  0.3244E-01  0.3044E+00
      1.014  0.4839E-01  0.3081E+00
      1.106  0.4519E-01  0.3125E+00
      1.199  0.4217E-01  0.3165E+00
      1.291  0.5087E-01  0.3207E+00
      1.384  0.4748E-01  0.3253E+00
      1.477  0.4795E-01  0.3298E+00
      1.569  0.4699E-01  0.3342E+00
      1.662  0.5225E-01  0.3388E+00
      1.755  0.5975E-01  0.3440E+00
      1.847  0.6251E-01  0.3496E+00
      1.940  0.6252E-01  0.3556E+00
      2.032  0.6022E-01  0.3611E+00
      2.125  0.6070E-01  0.3667E+00
      2.218  0.6474E-01  0.3725E+00
      2.310  0.6202E-01  0.3783E+00
      2.403  0.5364E-01  0.3838E+00
      2.496  0.4824E-01  0.3884E+00
      2.588  0.5250E-01  0.3929E+00
      2.681  0.6377E-01  0.3983E+00
      2.773  0.6215E-01  0.4042E+00
      2.866  0.4789E-01  0.4093E+00
      2.959  0.5373E-01  0.4138E+00
      3.051  0.6905E-01  0.4195E+00
      3.144  0.6748E-01  0.4257E+00
      3.237  0.5279E-01  0.4314E+00
      3.329  0.6281E-01  0.4366E+00
      3.422  0.5881E-01  0.4423E+00
      3.514  0.5279E-01  0.4475E+00
      3.607  0.4944E-01  0.4523E+00
      3.700  0.5015E-01  0.4567E+00
      3.792  0.4713E-01  0.4611E+00
      3.885  0.4958E-01  0.4656E+00
      3.978  0.4430E-01  0.4700E+00
      4.070  0.3213E-01  0.4736E+00
      4.163  0.1697E-01  0.4756E+00
      4.255  0.2171E-01  0.4775E+00
      4.348  0.1412E-01  0.4792E+00
      4.441  0.1548E-02  0.4800E+00
      4.533  0.0000E+00  0.4800E+00
      4.626  0.0000E+00  0.4800E+00
      4.719  0.0000E+00  0.4800E+00
      4.811  0.0000E+00  0.4800E+00
      4.904  0.0000E+00  0.4800E+00
      4.996  0.0000E+00  0.4800E+00
      5.089  0.0000E+00  0.4800E+00
      5.182  0.0000E+00  0.4800E+00
      5.274  0.0000E+00  0.4800E+00
      5.367  0.0000E+00  0.4800E+00
      5.460  0.0000E+00  0.4800E+00
      5.552  0.0000E+00  0.4800E+00
      5.645  0.0000E+00  0.4800E+00
      5.737  0.0000E+00  0.4800E+00
      5.830  0.0000E+00  0.4800E+00
      5.923  0.0000E+00  0.4800E+00
      6.015  0.0000E+00  0.4800E+00
      6.108  0.0000E+00  0.4800E+00
      6.201  0.0000E+00  0.4800E+00
      6.293  0.4572E-02  0.4803E+00
      6.386  0.1349E-01  0.4811E+00
      6.478  0.1662E-01  0.4825E+00
      6.571  0.2169E-01  0.4842E+00
      6.664  0.3422E-01  0.4867E+00
      6.756  0.4056E-01  0.4905E+00
      6.849  0.3437E-01  0.4939E+00
      6.942  0.2607E-01  0.4967E+00
      7.034  0.1866E-01  0.4988E+00
      7.127  0.1393E-01  0.5002E+00
      7.219  0.1958E-01  0.5017E+00
      7.312  0.2982E-01  0.5041E+00
      7.405  0.2799E-01  0.5069E+00
      7.497  0.3282E-01  0.5097E+00
      7.590  0.3126E-01  0.5127E+00
      7.683  0.2860E-01  0.5155E+00
      7.775  0.2093E-01  0.5178E+00
      7.868  0.1501E-01  0.5196E+00
      7.960  0.0000E+00  0.5200E+00
      8.053  0.0000E+00  0.5200E+00
      8.146  0.2704E-03  0.5200E+00
      8.238  0.5554E-02  0.5203E+00
      8.331  0.8677E-02  0.5210E+00
      8.424  0.1398E-01  0.5220E+00
      8.516  0.2185E-01  0.5237E+00
      8.609  0.2994E-01  0.5263E+00
      8.701  0.3264E-01  0.5292E+00
      8.794  0.3091E-01  0.5322E+00
      8.887  0.3638E-01  0.5354E+00
      8.979  0.3074E-01  0.5384E+00
      9.072  0.2908E-01  0.5412E+00
      9.165  0.2830E-01  0.5439E+00
      9.257  0.3126E-01  0.5466E+00
      9.350  0.3033E-01  0.5495E+00
      9.442  0.2846E-01  0.5522E+00
      9.535  0.2785E-01  0.5548E+00
      9.628  0.3046E-01  0.5575E+00
      9.720  0.3345E-01  0.5605E+00
      9.813  0.3473E-01  0.5637E+00
      9.906  0.3541E-01  0.5669E+00
      9.998  0.3760E-01  0.5702E+00
     10.091  0.3791E-01  0.5737E+00
     10.183  0.3920E-01  0.5773E+00
     10.276  0.3474E-01  0.5808E+00
     10.369  0.4203E-01  0.5842E+00
     10.461  0.4208E-01  0.5884E+00
     10.554  0.4467E-01  0.5924E+00
     10.647  0.5336E-01  0.5969E+00
     10.739  0.4522E-01  0.6016E+00
     10.832  0.3779E-01  0.6055E+00
     10.924  0.3245E-01  0.6087E+00
     11.017  0.2926E-01  0.6114E+00
     11.110  0.3230E-01  0.6143E+00
     11.202  0.3009E-01  0.6172E+00
     11.295  0.3012E-01  0.6201E+00
     11.388  0.3298E-01  0.6229E+00
     11.480  0.3405E-01  0.6262E+00
     11.573  0.3879E-01  0.6296E+00
     11.665  0.2889E-01  0.6327E+00
     11.758  0.2626E-01  0.6353E+00
     11.851  0.2367E-01  0.6376E+00
     11.943  0.9702E-02  0.6391E+00
     12.036  0.3867E-02  0.6397E+00
     12.129  0.1607E-02  0.6399E+00
     12.221  0.1567E-03  0.6400E+00
     12.314  0.0000E+00  0.6400E+00
     12.406  0.0000E+00  0.6400E+00
     12.499  0.0000E+00  0.6400E+00
     12.592  0.0000E+00  0.6400E+00
     12.684  0.0000E+00  0.6400E+00
     12.777  0.0000E+00  0.6400E+00
     12.870  0.0000E+00  0.6400E+00
     12.962  0.0000E+00  0.6400E+00
     13.055  0.0000E+00  0.6400E+00
     13.147  0.0000E+00  0.6400E+00
     13.240  0.0000E+00  0.6400E+00
     13.333  0.0000E+00  0.6400E+00
     13.425  0.0000E+00  0.6400E+00
     13.518  0.0000E+00  0.6400E+00
     13.611  0.0000E+00  0.6400E+00
     13.703  0.0000E+00  0.6400E+00
     13.796  0.0000E+00  0.6400E+00
     13.888  0.0000E+00  0.6400E+00
     13.981  0.0000E+00  0.6400E+00
     14.074  0.0000E+00  0.6400E+00
     14.166  0.0000E+00  0.6400E+00
     14.259  0.0000E+00  0.6400E+00
