 B  C 
 1.0000000000000000
     5.1843433363667080    0.0000000000000000    0.0000000000000000
     1.9498699389385337    4.7137871220774983    0.0000000000000000
     2.4459064054740400    1.6646920817023665    4.6680652849290851
 B   C  
  11   4
Cartesian
  5.1472418157504256  5.1252690637134322  3.7526548918557605
  6.4958873379732305  4.3054292870594697  1.4536918326632251
  6.7886206462194343  2.8276829387378437  3.7785838586332745
  4.4223403124395766  1.2575465981316236  0.9206303541251323
  3.0843085316486776  2.0709342958247743  3.2015007425060320
  2.7885808333547422  3.5563334246440141  0.8859787452451467
  7.8424323662849202  6.3294884543378229  4.6431741029908595
  8.7300453800372573  5.7899097118497460  3.1301082188450584
  8.8574327869446492  4.7648622848548472  4.6309379592102733
  1.7240495547582662  0.0645230345532235  0.0180742837911939
  0.8416794032430316  0.6009146482287451  1.5222029443199854
  0.6712937778035696  1.5223454801116307  0.0279558407381839
  5.9169177598087010  3.8957314548816115  2.8952887402807397
  3.7169304377171670  2.5298479566616443  1.7958056297606275
  4.8231374186903055  3.1977758986583464  2.3539018607797511
