unknown system                          
           1
     5.184343    0.000000    0.000000
     1.949870    4.713787    0.000000
     2.445906    1.664692    4.668065
   B    C 
  11   4
Direct configuration=     1
   0.31141206  0.80339311  0.80389940
   0.80389940  0.80339311  0.31141206
   0.80945394  0.31401320  0.80945394
   0.68583033  0.19713194  0.19721883
   0.19721883  0.19713194  0.68583033
   0.18979571  0.68742646  0.18979571
   0.67053651  0.99149002  0.99466777
   0.99466777  0.99149002  0.67053651
   0.99204653  0.66049022  0.99204653
   0.32608862  0.01232078  0.00387190
   0.00387190  0.01232078  0.32608862
   0.00598874  0.32084098  0.00598874
   0.62023313  0.60741697  0.62023313
   0.38470020  0.40083282  0.38470020
   0.50425641  0.50030775  0.50425641
unknown system                          
           1
     5.184343    0.000000    0.000000
     1.949870    4.713787    0.000000
     2.445906    1.664692    4.668065
   B    C 
  11   4
Direct configuration=     2
   0.31141206  0.80339311  0.80389940
   0.80389940  0.80339311  0.31141206
   0.80945394  0.31401320  0.80945394
   0.68583033  0.19713194  0.19721883
   0.19721883  0.19713194  0.68583033
   0.18979571  0.68742646  0.18979571
   0.67053651  0.99149002  0.99466777
   0.99466777  0.99149002  0.67053651
   0.99204653  0.66049022  0.99204653
   0.32608862  0.01232078  0.00387190
   0.00387190  0.01232078  0.32608862
   0.00598874  0.32084098  0.00598874
   0.62023313  0.60741697  0.62023313
   0.38470020  0.40083282  0.38470020
   0.50425641  0.50030775  0.50425641
unknown system                          
           1
     5.184343    0.000000    0.000000
     1.949870    4.713787    0.000000
     2.445906    1.664692    4.668065
   B    C 
  11   4
Direct configuration=     3
   0.31141206  0.80339311  0.80389940
   0.80389940  0.80339311  0.31141206
   0.80945394  0.31401320  0.80945394
   0.68583033  0.19713194  0.19721883
   0.19721883  0.19713194  0.68583033
   0.18979571  0.68742646  0.18979571
   0.67053651  0.99149002  0.99466777
   0.99466777  0.99149002  0.67053651
   0.99204653  0.66049022  0.99204653
   0.32608862  0.01232078  0.00387190
   0.00387190  0.01232078  0.32608862
   0.00598874  0.32084098  0.00598874
   0.62023313  0.60741697  0.62023313
   0.38470020  0.40083282  0.38470020
   0.50425641  0.50030775  0.50425641
unknown system                          
           1
     5.184343    0.000000    0.000000
     1.949870    4.713787    0.000000
     2.445906    1.664692    4.668065
   B    C 
  11   4
Direct configuration=     4
   0.31141206  0.80339311  0.80389940
   0.80389940  0.80339311  0.31141206
   0.80945394  0.31401320  0.80945394
   0.68583033  0.19713194  0.19721883
   0.19721883  0.19713194  0.68583033
   0.18979571  0.68742646  0.18979571
   0.67053651  0.99149002  0.99466777
   0.99466777  0.99149002  0.67053651
   0.99204653  0.66049022  0.99204653
   0.32608862  0.01232078  0.00387190
   0.00387190  0.01232078  0.32608862
   0.00598874  0.32084098  0.00598874
   0.62023313  0.60741697  0.62023313
   0.38470020  0.40083282  0.38470020
   0.50425641  0.50030775  0.50425641
unknown system                          
           1
     5.184343    0.000000    0.000000
     1.949870    4.713787    0.000000
     2.445906    1.664692    4.668065
   B    C 
  11   4
Direct configuration=     5
   0.31141206  0.80339311  0.80389940
   0.80389940  0.80339311  0.31141206
   0.80945394  0.31401320  0.80945394
   0.68583033  0.19713194  0.19721883
   0.19721883  0.19713194  0.68583033
   0.18979571  0.68742646  0.18979571
   0.67053651  0.99149002  0.99466777
   0.99466777  0.99149002  0.67053651
   0.99204653  0.66049022  0.99204653
   0.32608862  0.01232078  0.00387190
   0.00387190  0.01232078  0.32608862
   0.00598874  0.32084098  0.00598874
   0.62023313  0.60741697  0.62023313
   0.38470020  0.40083282  0.38470020
   0.50425641  0.50030775  0.50425641
unknown system                          
           1
     5.184343    0.000000    0.000000
     1.949870    4.713787    0.000000
     2.445906    1.664692    4.668065
   B    C 
  11   4
Direct configuration=     6
   0.31141206  0.80339311  0.80389940
   0.80389940  0.80339311  0.31141206
   0.80945394  0.31401320  0.80945394
   0.68583033  0.19713194  0.19721883
   0.19721883  0.19713194  0.68583033
   0.18979571  0.68742646  0.18979571
   0.67053651  0.99149002  0.99466777
   0.99466777  0.99149002  0.67053651
   0.99204653  0.66049022  0.99204653
   0.32608862  0.01232078  0.00387190
   0.00387190  0.01232078  0.32608862
   0.00598874  0.32084098  0.00598874
   0.62023313  0.60741697  0.62023313
   0.38470020  0.40083282  0.38470020
   0.50425641  0.50030775  0.50425641
unknown system                          
           1
     5.184343    0.000000    0.000000
     1.949870    4.713787    0.000000
     2.445906    1.664692    4.668065
   B    C 
  11   4
Direct configuration=     7
   0.31141206  0.80339311  0.80389940
   0.80389940  0.80339311  0.31141206
   0.80945394  0.31401320  0.80945394
   0.68583033  0.19713194  0.19721883
   0.19721883  0.19713194  0.68583033
   0.18979571  0.68742646  0.18979571
   0.67053651  0.99149002  0.99466777
   0.99466777  0.99149002  0.67053651
   0.99204653  0.66049022  0.99204653
   0.32608862  0.01232078  0.00387190
   0.00387190  0.01232078  0.32608862
   0.00598874  0.32084098  0.00598874
   0.62023313  0.60741697  0.62023313
   0.38470020  0.40083282  0.38470020
   0.50425641  0.50030775  0.50425641
unknown system                          
           1
     5.184343    0.000000    0.000000
     1.949870    4.713787    0.000000
     2.445906    1.664692    4.668065
   B    C 
  11   4
Direct configuration=     8
   0.31141206  0.80339311  0.80389940
   0.80389940  0.80339311  0.31141206
   0.80945394  0.31401320  0.80945394
   0.68583033  0.19713194  0.19721883
   0.19721883  0.19713194  0.68583033
   0.18979571  0.68742646  0.18979571
   0.67053651  0.99149002  0.99466777
   0.99466777  0.99149002  0.67053651
   0.99204653  0.66049022  0.99204653
   0.32608862  0.01232078  0.00387190
   0.00387190  0.01232078  0.32608862
   0.00598874  0.32084098  0.00598874
   0.62023313  0.60741697  0.62023313
   0.38470020  0.40083282  0.38470020
   0.50425641  0.50030775  0.50425641
unknown system                          
           1
     5.184343    0.000000    0.000000
     1.949870    4.713787    0.000000
     2.445906    1.664692    4.668065
   B    C 
  11   4
Direct configuration=     9
   0.31141206  0.80339311  0.80389940
   0.80389940  0.80339311  0.31141206
   0.80945394  0.31401320  0.80945394
   0.68583033  0.19713194  0.19721883
   0.19721883  0.19713194  0.68583033
   0.18979571  0.68742646  0.18979571
   0.67053651  0.99149002  0.99466777
   0.99466777  0.99149002  0.67053651
   0.99204653  0.66049022  0.99204653
   0.32608862  0.01232078  0.00387190
   0.00387190  0.01232078  0.32608862
   0.00598874  0.32084098  0.00598874
   0.62023313  0.60741697  0.62023313
   0.38470020  0.40083282  0.38470020
   0.50425641  0.50030775  0.50425641
unknown system                          
           1
     5.184343    0.000000    0.000000
     1.949870    4.713787    0.000000
     2.445906    1.664692    4.668065
   B    C 
  11   4
Direct configuration=    10
   0.31141206  0.80339311  0.80389940
   0.80389940  0.80339311  0.31141206
   0.80945394  0.31401320  0.80945394
   0.68583033  0.19713194  0.19721883
   0.19721883  0.19713194  0.68583033
   0.18979571  0.68742646  0.18979571
   0.67053651  0.99149002  0.99466777
   0.99466777  0.99149002  0.67053651
   0.99204653  0.66049022  0.99204653
   0.32608862  0.01232078  0.00387190
   0.00387190  0.01232078  0.32608862
   0.00598874  0.32084098  0.00598874
   0.62023313  0.60741697  0.62023313
   0.38470020  0.40083282  0.38470020
   0.50425641  0.50030775  0.50425641
unknown system                          
           1
     5.184343    0.000000    0.000000
     1.949870    4.713787    0.000000
     2.445906    1.664692    4.668065
   B    C 
  11   4
Direct configuration=    11
   0.31141206  0.80339311  0.80389940
   0.80389940  0.80339311  0.31141206
   0.80945394  0.31401320  0.80945394
   0.68583033  0.19713194  0.19721883
   0.19721883  0.19713194  0.68583033
   0.18979571  0.68742646  0.18979571
   0.67053651  0.99149002  0.99466777
   0.99466777  0.99149002  0.67053651
   0.99204653  0.66049022  0.99204653
   0.32608862  0.01232078  0.00387190
   0.00387190  0.01232078  0.32608862
   0.00598874  0.32084098  0.00598874
   0.62023313  0.60741697  0.62023313
   0.38470020  0.40083282  0.38470020
   0.50425641  0.50030775  0.50425641
unknown system                          
           1
     5.184343    0.000000    0.000000
     1.949870    4.713787    0.000000
     2.445906    1.664692    4.668065
   B    C 
  11   4
Direct configuration=    12
   0.31141206  0.80339311  0.80389940
   0.80389940  0.80339311  0.31141206
   0.80945394  0.31401320  0.80945394
   0.68583033  0.19713194  0.19721883
   0.19721883  0.19713194  0.68583033
   0.18979571  0.68742646  0.18979571
   0.67053651  0.99149002  0.99466777
   0.99466777  0.99149002  0.67053651
   0.99204653  0.66049022  0.99204653
   0.32608862  0.01232078  0.00387190
   0.00387190  0.01232078  0.32608862
   0.00598874  0.32084098  0.00598874
   0.62023313  0.60741697  0.62023313
   0.38470020  0.40083282  0.38470020
   0.50425641  0.50030775  0.50425641
unknown system                          
           1
     5.184343    0.000000    0.000000
     1.949870    4.713787    0.000000
     2.445906    1.664692    4.668065
   B    C 
  11   4
Direct configuration=    13
   0.31141206  0.80339311  0.80389940
   0.80389940  0.80339311  0.31141206
   0.80945394  0.31401320  0.80945394
   0.68583033  0.19713194  0.19721883
   0.19721883  0.19713194  0.68583033
   0.18979571  0.68742646  0.18979571
   0.67053651  0.99149002  0.99466777
   0.99466777  0.99149002  0.67053651
   0.99204653  0.66049022  0.99204653
   0.32608862  0.01232078  0.00387190
   0.00387190  0.01232078  0.32608862
   0.00598874  0.32084098  0.00598874
   0.62023313  0.60741697  0.62023313
   0.38470020  0.40083282  0.38470020
   0.50425641  0.50030775  0.50425641
unknown system                          
           1
     5.184343    0.000000    0.000000
     1.949870    4.713787    0.000000
     2.445906    1.664692    4.668065
   B    C 
  11   4
Direct configuration=    14
   0.31141206  0.80339311  0.80389940
   0.80389940  0.80339311  0.31141206
   0.80945394  0.31401320  0.80945394
   0.68583033  0.19713194  0.19721883
   0.19721883  0.19713194  0.68583033
   0.18979571  0.68742646  0.18979571
   0.67053651  0.99149002  0.99466777
   0.99466777  0.99149002  0.67053651
   0.99204653  0.66049022  0.99204653
   0.32608862  0.01232078  0.00387190
   0.00387190  0.01232078  0.32608862
   0.00598874  0.32084098  0.00598874
   0.62023313  0.60741697  0.62023313
   0.38470020  0.40083282  0.38470020
   0.50425641  0.50030775  0.50425641
unknown system                          
           1
     5.184343    0.000000    0.000000
     1.949870    4.713787    0.000000
     2.445906    1.664692    4.668065
   B    C 
  11   4
Direct configuration=    15
   0.31141206  0.80339311  0.80389940
   0.80389940  0.80339311  0.31141206
   0.80945394  0.31401320  0.80945394
   0.68583033  0.19713194  0.19721883
   0.19721883  0.19713194  0.68583033
   0.18979571  0.68742646  0.18979571
   0.67053651  0.99149002  0.99466777
   0.99466777  0.99149002  0.67053651
   0.99204653  0.66049022  0.99204653
   0.32608862  0.01232078  0.00387190
   0.00387190  0.01232078  0.32608862
   0.00598874  0.32084098  0.00598874
   0.62023313  0.60741697  0.62023313
   0.38470020  0.40083282  0.38470020
   0.50425641  0.50030775  0.50425641
unknown system                          
           1
     5.184343    0.000000    0.000000
     1.949870    4.713787    0.000000
     2.445906    1.664692    4.668065
   B    C 
  11   4
Direct configuration=    16
   0.31141206  0.80339311  0.80389940
   0.80389940  0.80339311  0.31141206
   0.80945394  0.31401320  0.80945394
   0.68583033  0.19713194  0.19721883
   0.19721883  0.19713194  0.68583033
   0.18979571  0.68742646  0.18979571
   0.67053651  0.99149002  0.99466777
   0.99466777  0.99149002  0.67053651
   0.99204653  0.66049022  0.99204653
   0.32608862  0.01232078  0.00387190
   0.00387190  0.01232078  0.32608862
   0.00598874  0.32084098  0.00598874
   0.62023313  0.60741697  0.62023313
   0.38470020  0.40083282  0.38470020
   0.50425641  0.50030775  0.50425641
unknown system                          
           1
     5.184343    0.000000    0.000000
     1.949870    4.713787    0.000000
     2.445906    1.664692    4.668065
   B    C 
  11   4
Direct configuration=    17
   0.31141206  0.80339311  0.80389940
   0.80389940  0.80339311  0.31141206
   0.80945394  0.31401320  0.80945394
   0.68583033  0.19713194  0.19721883
   0.19721883  0.19713194  0.68583033
   0.18979571  0.68742646  0.18979571
   0.67053651  0.99149002  0.99466777
   0.99466777  0.99149002  0.67053651
   0.99204653  0.66049022  0.99204653
   0.32608862  0.01232078  0.00387190
   0.00387190  0.01232078  0.32608862
   0.00598874  0.32084098  0.00598874
   0.62023313  0.60741697  0.62023313
   0.38470020  0.40083282  0.38470020
   0.50425641  0.50030775  0.50425641
unknown system                          
           1
     5.184343    0.000000    0.000000
     1.949870    4.713787    0.000000
     2.445906    1.664692    4.668065
   B    C 
  11   4
Direct configuration=    18
   0.31141206  0.80339311  0.80389940
   0.80389940  0.80339311  0.31141206
   0.80945394  0.31401320  0.80945394
   0.68583033  0.19713194  0.19721883
   0.19721883  0.19713194  0.68583033
   0.18979571  0.68742646  0.18979571
   0.67053651  0.99149002  0.99466777
   0.99466777  0.99149002  0.67053651
   0.99204653  0.66049022  0.99204653
   0.32608862  0.01232078  0.00387190
   0.00387190  0.01232078  0.32608862
   0.00598874  0.32084098  0.00598874
   0.62023313  0.60741697  0.62023313
   0.38470020  0.40083282  0.38470020
   0.50425641  0.50030775  0.50425641
unknown system                          
           1
     5.184343    0.000000    0.000000
     1.949870    4.713787    0.000000
     2.445906    1.664692    4.668065
   B    C 
  11   4
Direct configuration=    19
   0.31141206  0.80339311  0.80389940
   0.80389940  0.80339311  0.31141206
   0.80945394  0.31401320  0.80945394
   0.68583033  0.19713194  0.19721883
   0.19721883  0.19713194  0.68583033
   0.18979571  0.68742646  0.18979571
   0.67053651  0.99149002  0.99466777
   0.99466777  0.99149002  0.67053651
   0.99204653  0.66049022  0.99204653
   0.32608862  0.01232078  0.00387190
   0.00387190  0.01232078  0.32608862
   0.00598874  0.32084098  0.00598874
   0.62023313  0.60741697  0.62023313
   0.38470020  0.40083282  0.38470020
   0.50425641  0.50030775  0.50425641
unknown system                          
           1
     5.184343    0.000000    0.000000
     1.949870    4.713787    0.000000
     2.445906    1.664692    4.668065
   B    C 
  11   4
Direct configuration=    20
   0.31141206  0.80339311  0.80389940
   0.80389940  0.80339311  0.31141206
   0.80945394  0.31401320  0.80945394
   0.68583033  0.19713194  0.19721883
   0.19721883  0.19713194  0.68583033
   0.18979571  0.68742646  0.18979571
   0.67053651  0.99149002  0.99466777
   0.99466777  0.99149002  0.67053651
   0.99204653  0.66049022  0.99204653
   0.32608862  0.01232078  0.00387190
   0.00387190  0.01232078  0.32608862
   0.00598874  0.32084098  0.00598874
   0.62023313  0.60741697  0.62023313
   0.38470020  0.40083282  0.38470020
   0.50425641  0.50030775  0.50425641
unknown system                          
           1
     5.184343    0.000000    0.000000
     1.949870    4.713787    0.000000
     2.445906    1.664692    4.668065
   B    C 
  11   4
Direct configuration=    21
   0.31141206  0.80339311  0.80389940
   0.80389940  0.80339311  0.31141206
   0.80945394  0.31401320  0.80945394
   0.68583033  0.19713194  0.19721883
   0.19721883  0.19713194  0.68583033
   0.18979571  0.68742646  0.18979571
   0.67053651  0.99149002  0.99466777
   0.99466777  0.99149002  0.67053651
   0.99204653  0.66049022  0.99204653
   0.32608862  0.01232078  0.00387190
   0.00387190  0.01232078  0.32608862
   0.00598874  0.32084098  0.00598874
   0.62023313  0.60741697  0.62023313
   0.38470020  0.40083282  0.38470020
   0.50425641  0.50030775  0.50425641
unknown system                          
           1
     5.184343    0.000000    0.000000
     1.949870    4.713787    0.000000
     2.445906    1.664692    4.668065
   B    C 
  11   4
Direct configuration=    22
   0.31141206  0.80339311  0.80389940
   0.80389940  0.80339311  0.31141206
   0.80945394  0.31401320  0.80945394
   0.68583033  0.19713194  0.19721883
   0.19721883  0.19713194  0.68583033
   0.18979571  0.68742646  0.18979571
   0.67053651  0.99149002  0.99466777
   0.99466777  0.99149002  0.67053651
   0.99204653  0.66049022  0.99204653
   0.32608862  0.01232078  0.00387190
   0.00387190  0.01232078  0.32608862
   0.00598874  0.32084098  0.00598874
   0.62023313  0.60741697  0.62023313
   0.38470020  0.40083282  0.38470020
   0.50425641  0.50030775  0.50425641
unknown system                          
           1
     5.184343    0.000000    0.000000
     1.949870    4.713787    0.000000
     2.445906    1.664692    4.668065
   B    C 
  11   4
Direct configuration=    23
   0.31141206  0.80339311  0.80389940
   0.80389940  0.80339311  0.31141206
   0.80945394  0.31401320  0.80945394
   0.68583033  0.19713194  0.19721883
   0.19721883  0.19713194  0.68583033
   0.18979571  0.68742646  0.18979571
   0.67053651  0.99149002  0.99466777
   0.99466777  0.99149002  0.67053651
   0.99204653  0.66049022  0.99204653
   0.32608862  0.01232078  0.00387190
   0.00387190  0.01232078  0.32608862
   0.00598874  0.32084098  0.00598874
   0.62023313  0.60741697  0.62023313
   0.38470020  0.40083282  0.38470020
   0.50425641  0.50030775  0.50425641
unknown system                          
           1
     5.184343    0.000000    0.000000
     1.949870    4.713787    0.000000
     2.445906    1.664692    4.668065
   B    C 
  11   4
Direct configuration=    24
   0.31141206  0.80339311  0.80389940
   0.80389940  0.80339311  0.31141206
   0.80945394  0.31401320  0.80945394
   0.68583033  0.19713194  0.19721883
   0.19721883  0.19713194  0.68583033
   0.18979571  0.68742646  0.18979571
   0.67053651  0.99149002  0.99466777
   0.99466777  0.99149002  0.67053651
   0.99204653  0.66049022  0.99204653
   0.32608862  0.01232078  0.00387190
   0.00387190  0.01232078  0.32608862
   0.00598874  0.32084098  0.00598874
   0.62023313  0.60741697  0.62023313
   0.38470020  0.40083282  0.38470020
   0.50425641  0.50030775  0.50425641
unknown system                          
           1
     5.184343    0.000000    0.000000
     1.949870    4.713787    0.000000
     2.445906    1.664692    4.668065
   B    C 
  11   4
Direct configuration=    25
   0.31141206  0.80339311  0.80389940
   0.80389940  0.80339311  0.31141206
   0.80945394  0.31401320  0.80945394
   0.68583033  0.19713194  0.19721883
   0.19721883  0.19713194  0.68583033
   0.18979571  0.68742646  0.18979571
   0.67053651  0.99149002  0.99466777
   0.99466777  0.99149002  0.67053651
   0.99204653  0.66049022  0.99204653
   0.32608862  0.01232078  0.00387190
   0.00387190  0.01232078  0.32608862
   0.00598874  0.32084098  0.00598874
   0.62023313  0.60741697  0.62023313
   0.38470020  0.40083282  0.38470020
   0.50425641  0.50030775  0.50425641
unknown system                          
           1
     5.184343    0.000000    0.000000
     1.949870    4.713787    0.000000
     2.445906    1.664692    4.668065
   B    C 
  11   4
Direct configuration=    26
   0.31141206  0.80339311  0.80389940
   0.80389940  0.80339311  0.31141206
   0.80945394  0.31401320  0.80945394
   0.68583033  0.19713194  0.19721883
   0.19721883  0.19713194  0.68583033
   0.18979571  0.68742646  0.18979571
   0.67053651  0.99149002  0.99466777
   0.99466777  0.99149002  0.67053651
   0.99204653  0.66049022  0.99204653
   0.32608862  0.01232078  0.00387190
   0.00387190  0.01232078  0.32608862
   0.00598874  0.32084098  0.00598874
   0.62023313  0.60741697  0.62023313
   0.38470020  0.40083282  0.38470020
   0.50425641  0.50030775  0.50425641
unknown system                          
           1
     5.184343    0.000000    0.000000
     1.949870    4.713787    0.000000
     2.445906    1.664692    4.668065
   B    C 
  11   4
Direct configuration=    27
   0.31141206  0.80339311  0.80389940
   0.80389940  0.80339311  0.31141206
   0.80945394  0.31401320  0.80945394
   0.68583033  0.19713194  0.19721883
   0.19721883  0.19713194  0.68583033
   0.18979571  0.68742646  0.18979571
   0.67053651  0.99149002  0.99466777
   0.99466777  0.99149002  0.67053651
   0.99204653  0.66049022  0.99204653
   0.32608862  0.01232078  0.00387190
   0.00387190  0.01232078  0.32608862
   0.00598874  0.32084098  0.00598874
   0.62023313  0.60741697  0.62023313
   0.38470020  0.40083282  0.38470020
   0.50425641  0.50030775  0.50425641
unknown system                          
           1
     5.184343    0.000000    0.000000
     1.949870    4.713787    0.000000
     2.445906    1.664692    4.668065
   B    C 
  11   4
Direct configuration=    28
   0.31141206  0.80339311  0.80389940
   0.80389940  0.80339311  0.31141206
   0.80945394  0.31401320  0.80945394
   0.68583033  0.19713194  0.19721883
   0.19721883  0.19713194  0.68583033
   0.18979571  0.68742646  0.18979571
   0.67053651  0.99149002  0.99466777
   0.99466777  0.99149002  0.67053651
   0.99204653  0.66049022  0.99204653
   0.32608862  0.01232078  0.00387190
   0.00387190  0.01232078  0.32608862
   0.00598874  0.32084098  0.00598874
   0.62023313  0.60741697  0.62023313
   0.38470020  0.40083282  0.38470020
   0.50425641  0.50030775  0.50425641
unknown system                          
           1
     5.184343    0.000000    0.000000
     1.949870    4.713787    0.000000
     2.445906    1.664692    4.668065
   B    C 
  11   4
Direct configuration=    29
   0.31141206  0.80339311  0.80389940
   0.80389940  0.80339311  0.31141206
   0.80945394  0.31401320  0.80945394
   0.68583033  0.19713194  0.19721883
   0.19721883  0.19713194  0.68583033
   0.18979571  0.68742646  0.18979571
   0.67053651  0.99149002  0.99466777
   0.99466777  0.99149002  0.67053651
   0.99204653  0.66049022  0.99204653
   0.32608862  0.01232078  0.00387190
   0.00387190  0.01232078  0.32608862
   0.00598874  0.32084098  0.00598874
   0.62023313  0.60741697  0.62023313
   0.38470020  0.40083282  0.38470020
   0.50425641  0.50030775  0.50425641
unknown system                          
           1
     5.184343    0.000000    0.000000
     1.949870    4.713787    0.000000
     2.445906    1.664692    4.668065
   B    C 
  11   4
Direct configuration=    30
   0.31141206  0.80339311  0.80389940
   0.80389940  0.80339311  0.31141206
   0.80945394  0.31401320  0.80945394
   0.68583033  0.19713194  0.19721883
   0.19721883  0.19713194  0.68583033
   0.18979571  0.68742646  0.18979571
   0.67053651  0.99149002  0.99466777
   0.99466777  0.99149002  0.67053651
   0.99204653  0.66049022  0.99204653
   0.32608862  0.01232078  0.00387190
   0.00387190  0.01232078  0.32608862
   0.00598874  0.32084098  0.00598874
   0.62023313  0.60741697  0.62023313
   0.38470020  0.40083282  0.38470020
   0.50425641  0.50030775  0.50425641
unknown system                          
           1
     5.184343    0.000000    0.000000
     1.949870    4.713787    0.000000
     2.445906    1.664692    4.668065
   B    C 
  11   4
Direct configuration=    31
   0.31141206  0.80339311  0.80389940
   0.80389940  0.80339311  0.31141206
   0.80945394  0.31401320  0.80945394
   0.68583033  0.19713194  0.19721883
   0.19721883  0.19713194  0.68583033
   0.18979571  0.68742646  0.18979571
   0.67053651  0.99149002  0.99466777
   0.99466777  0.99149002  0.67053651
   0.99204653  0.66049022  0.99204653
   0.32608862  0.01232078  0.00387190
   0.00387190  0.01232078  0.32608862
   0.00598874  0.32084098  0.00598874
   0.62023313  0.60741697  0.62023313
   0.38470020  0.40083282  0.38470020
   0.50425641  0.50030775  0.50425641
unknown system                          
           1
     5.184343    0.000000    0.000000
     1.949870    4.713787    0.000000
     2.445906    1.664692    4.668065
   B    C 
  11   4
Direct configuration=    32
   0.31141206  0.80339311  0.80389940
   0.80389940  0.80339311  0.31141206
   0.80945394  0.31401320  0.80945394
   0.68583033  0.19713194  0.19721883
   0.19721883  0.19713194  0.68583033
   0.18979571  0.68742646  0.18979571
   0.67053651  0.99149002  0.99466777
   0.99466777  0.99149002  0.67053651
   0.99204653  0.66049022  0.99204653
   0.32608862  0.01232078  0.00387190
   0.00387190  0.01232078  0.32608862
   0.00598874  0.32084098  0.00598874
   0.62023313  0.60741697  0.62023313
   0.38470020  0.40083282  0.38470020
   0.50425641  0.50030775  0.50425641
unknown system                          
           1
     5.184343    0.000000    0.000000
     1.949870    4.713787    0.000000
     2.445906    1.664692    4.668065
   B    C 
  11   4
Direct configuration=    33
   0.31141206  0.80339311  0.80389940
   0.80389940  0.80339311  0.31141206
   0.80945394  0.31401320  0.80945394
   0.68583033  0.19713194  0.19721883
   0.19721883  0.19713194  0.68583033
   0.18979571  0.68742646  0.18979571
   0.67053651  0.99149002  0.99466777
   0.99466777  0.99149002  0.67053651
   0.99204653  0.66049022  0.99204653
   0.32608862  0.01232078  0.00387190
   0.00387190  0.01232078  0.32608862
   0.00598874  0.32084098  0.00598874
   0.62023313  0.60741697  0.62023313
   0.38470020  0.40083282  0.38470020
   0.50425641  0.50030775  0.50425641
unknown system                          
           1
     5.184343    0.000000    0.000000
     1.949870    4.713787    0.000000
     2.445906    1.664692    4.668065
   B    C 
  11   4
Direct configuration=    34
   0.31141206  0.80339311  0.80389940
   0.80389940  0.80339311  0.31141206
   0.80945394  0.31401320  0.80945394
   0.68583033  0.19713194  0.19721883
   0.19721883  0.19713194  0.68583033
   0.18979571  0.68742646  0.18979571
   0.67053651  0.99149002  0.99466777
   0.99466777  0.99149002  0.67053651
   0.99204653  0.66049022  0.99204653
   0.32608862  0.01232078  0.00387190
   0.00387190  0.01232078  0.32608862
   0.00598874  0.32084098  0.00598874
   0.62023313  0.60741697  0.62023313
   0.38470020  0.40083282  0.38470020
   0.50425641  0.50030775  0.50425641
unknown system                          
           1
     5.184343    0.000000    0.000000
     1.949870    4.713787    0.000000
     2.445906    1.664692    4.668065
   B    C 
  11   4
Direct configuration=    35
   0.31141206  0.80339311  0.80389940
   0.80389940  0.80339311  0.31141206
   0.80945394  0.31401320  0.80945394
   0.68583033  0.19713194  0.19721883
   0.19721883  0.19713194  0.68583033
   0.18979571  0.68742646  0.18979571
   0.67053651  0.99149002  0.99466777
   0.99466777  0.99149002  0.67053651
   0.99204653  0.66049022  0.99204653
   0.32608862  0.01232078  0.00387190
   0.00387190  0.01232078  0.32608862
   0.00598874  0.32084098  0.00598874
   0.62023313  0.60741697  0.62023313
   0.38470020  0.40083282  0.38470020
   0.50425641  0.50030775  0.50425641
unknown system                          
           1
     5.184343    0.000000    0.000000
     1.949870    4.713787    0.000000
     2.445906    1.664692    4.668065
   B    C 
  11   4
Direct configuration=    36
   0.31141206  0.80339311  0.80389940
   0.80389940  0.80339311  0.31141206
   0.80945394  0.31401320  0.80945394
   0.68583033  0.19713194  0.19721883
   0.19721883  0.19713194  0.68583033
   0.18979571  0.68742646  0.18979571
   0.67053651  0.99149002  0.99466777
   0.99466777  0.99149002  0.67053651
   0.99204653  0.66049022  0.99204653
   0.32608862  0.01232078  0.00387190
   0.00387190  0.01232078  0.32608862
   0.00598874  0.32084098  0.00598874
   0.62023313  0.60741697  0.62023313
   0.38470020  0.40083282  0.38470020
   0.50425641  0.50030775  0.50425641
unknown system                          
           1
     5.184343    0.000000    0.000000
     1.949870    4.713787    0.000000
     2.445906    1.664692    4.668065
   B    C 
  11   4
Direct configuration=    37
   0.31141206  0.80339311  0.80389940
   0.80389940  0.80339311  0.31141206
   0.80945394  0.31401320  0.80945394
   0.68583033  0.19713194  0.19721883
   0.19721883  0.19713194  0.68583033
   0.18979571  0.68742646  0.18979571
   0.67053651  0.99149002  0.99466777
   0.99466777  0.99149002  0.67053651
   0.99204653  0.66049022  0.99204653
   0.32608862  0.01232078  0.00387190
   0.00387190  0.01232078  0.32608862
   0.00598874  0.32084098  0.00598874
   0.62023313  0.60741697  0.62023313
   0.38470020  0.40083282  0.38470020
   0.50425641  0.50030775  0.50425641
unknown system                          
           1
     5.184343    0.000000    0.000000
     1.949870    4.713787    0.000000
     2.445906    1.664692    4.668065
   B    C 
  11   4
Direct configuration=    38
   0.31141206  0.80339311  0.80389940
   0.80389940  0.80339311  0.31141206
   0.80945394  0.31401320  0.80945394
   0.68583033  0.19713194  0.19721883
   0.19721883  0.19713194  0.68583033
   0.18979571  0.68742646  0.18979571
   0.67053651  0.99149002  0.99466777
   0.99466777  0.99149002  0.67053651
   0.99204653  0.66049022  0.99204653
   0.32608862  0.01232078  0.00387190
   0.00387190  0.01232078  0.32608862
   0.00598874  0.32084098  0.00598874
   0.62023313  0.60741697  0.62023313
   0.38470020  0.40083282  0.38470020
   0.50425641  0.50030775  0.50425641
unknown system                          
           1
     5.184343    0.000000    0.000000
     1.949870    4.713787    0.000000
     2.445906    1.664692    4.668065
   B    C 
  11   4
Direct configuration=    39
   0.31141206  0.80339311  0.80389940
   0.80389940  0.80339311  0.31141206
   0.80945394  0.31401320  0.80945394
   0.68583033  0.19713194  0.19721883
   0.19721883  0.19713194  0.68583033
   0.18979571  0.68742646  0.18979571
   0.67053651  0.99149002  0.99466777
   0.99466777  0.99149002  0.67053651
   0.99204653  0.66049022  0.99204653
   0.32608862  0.01232078  0.00387190
   0.00387190  0.01232078  0.32608862
   0.00598874  0.32084098  0.00598874
   0.62023313  0.60741697  0.62023313
   0.38470020  0.40083282  0.38470020
   0.50425641  0.50030775  0.50425641
unknown system                          
           1
     5.184343    0.000000    0.000000
     1.949870    4.713787    0.000000
     2.445906    1.664692    4.668065
   B    C 
  11   4
Direct configuration=    40
   0.31141206  0.80339311  0.80389940
   0.80389940  0.80339311  0.31141206
   0.80945394  0.31401320  0.80945394
   0.68583033  0.19713194  0.19721883
   0.19721883  0.19713194  0.68583033
   0.18979571  0.68742646  0.18979571
   0.67053651  0.99149002  0.99466777
   0.99466777  0.99149002  0.67053651
   0.99204653  0.66049022  0.99204653
   0.32608862  0.01232078  0.00387190
   0.00387190  0.01232078  0.32608862
   0.00598874  0.32084098  0.00598874
   0.62023313  0.60741697  0.62023313
   0.38470020  0.40083282  0.38470020
   0.50425641  0.50030775  0.50425641
unknown system                          
           1
     5.184343    0.000000    0.000000
     1.949870    4.713787    0.000000
     2.445906    1.664692    4.668065
   B    C 
  11   4
Direct configuration=    41
   0.31141206  0.80339311  0.80389940
   0.80389940  0.80339311  0.31141206
   0.80945394  0.31401320  0.80945394
   0.68583033  0.19713194  0.19721883
   0.19721883  0.19713194  0.68583033
   0.18979571  0.68742646  0.18979571
   0.67053651  0.99149002  0.99466777
   0.99466777  0.99149002  0.67053651
   0.99204653  0.66049022  0.99204653
   0.32608862  0.01232078  0.00387190
   0.00387190  0.01232078  0.32608862
   0.00598874  0.32084098  0.00598874
   0.62023313  0.60741697  0.62023313
   0.38470020  0.40083282  0.38470020
   0.50425641  0.50030775  0.50425641
unknown system                          
           1
     5.184343    0.000000    0.000000
     1.949870    4.713787    0.000000
     2.445906    1.664692    4.668065
   B    C 
  11   4
Direct configuration=    42
   0.31141206  0.80339311  0.80389940
   0.80389940  0.80339311  0.31141206
   0.80945394  0.31401320  0.80945394
   0.68583033  0.19713194  0.19721883
   0.19721883  0.19713194  0.68583033
   0.18979571  0.68742646  0.18979571
   0.67053651  0.99149002  0.99466777
   0.99466777  0.99149002  0.67053651
   0.99204653  0.66049022  0.99204653
   0.32608862  0.01232078  0.00387190
   0.00387190  0.01232078  0.32608862
   0.00598874  0.32084098  0.00598874
   0.62023313  0.60741697  0.62023313
   0.38470020  0.40083282  0.38470020
   0.50425641  0.50030775  0.50425641
unknown system                          
           1
     5.184343    0.000000    0.000000
     1.949870    4.713787    0.000000
     2.445906    1.664692    4.668065
   B    C 
  11   4
Direct configuration=    43
   0.31141206  0.80339311  0.80389940
   0.80389940  0.80339311  0.31141206
   0.80945394  0.31401320  0.80945394
   0.68583033  0.19713194  0.19721883
   0.19721883  0.19713194  0.68583033
   0.18979571  0.68742646  0.18979571
   0.67053651  0.99149002  0.99466777
   0.99466777  0.99149002  0.67053651
   0.99204653  0.66049022  0.99204653
   0.32608862  0.01232078  0.00387190
   0.00387190  0.01232078  0.32608862
   0.00598874  0.32084098  0.00598874
   0.62023313  0.60741697  0.62023313
   0.38470020  0.40083282  0.38470020
   0.50425641  0.50030775  0.50425641
unknown system                          
           1
     5.184343    0.000000    0.000000
     1.949870    4.713787    0.000000
     2.445906    1.664692    4.668065
   B    C 
  11   4
Direct configuration=    44
   0.31141206  0.80339311  0.80389940
   0.80389940  0.80339311  0.31141206
   0.80945394  0.31401320  0.80945394
   0.68583033  0.19713194  0.19721883
   0.19721883  0.19713194  0.68583033
   0.18979571  0.68742646  0.18979571
   0.67053651  0.99149002  0.99466777
   0.99466777  0.99149002  0.67053651
   0.99204653  0.66049022  0.99204653
   0.32608862  0.01232078  0.00387190
   0.00387190  0.01232078  0.32608862
   0.00598874  0.32084098  0.00598874
   0.62023313  0.60741697  0.62023313
   0.38470020  0.40083282  0.38470020
   0.50425641  0.50030775  0.50425641
unknown system                          
           1
     5.184343    0.000000    0.000000
     1.949870    4.713787    0.000000
     2.445906    1.664692    4.668065
   B    C 
  11   4
Direct configuration=    45
   0.31141206  0.80339311  0.80389940
   0.80389940  0.80339311  0.31141206
   0.80945394  0.31401320  0.80945394
   0.68583033  0.19713194  0.19721883
   0.19721883  0.19713194  0.68583033
   0.18979571  0.68742646  0.18979571
   0.67053651  0.99149002  0.99466777
   0.99466777  0.99149002  0.67053651
   0.99204653  0.66049022  0.99204653
   0.32608862  0.01232078  0.00387190
   0.00387190  0.01232078  0.32608862
   0.00598874  0.32084098  0.00598874
   0.62023313  0.60741697  0.62023313
   0.38470020  0.40083282  0.38470020
   0.50425641  0.50030775  0.50425641
unknown system                          
           1
     5.184343    0.000000    0.000000
     1.949870    4.713787    0.000000
     2.445906    1.664692    4.668065
   B    C 
  11   4
Direct configuration=    46
   0.31141206  0.80339311  0.80389940
   0.80389940  0.80339311  0.31141206
   0.80945394  0.31401320  0.80945394
   0.68583033  0.19713194  0.19721883
   0.19721883  0.19713194  0.68583033
   0.18979571  0.68742646  0.18979571
   0.67053651  0.99149002  0.99466777
   0.99466777  0.99149002  0.67053651
   0.99204653  0.66049022  0.99204653
   0.32608862  0.01232078  0.00387190
   0.00387190  0.01232078  0.32608862
   0.00598874  0.32084098  0.00598874
   0.62023313  0.60741697  0.62023313
   0.38470020  0.40083282  0.38470020
   0.50425641  0.50030775  0.50425641
unknown system                          
           1
     5.184343    0.000000    0.000000
     1.949870    4.713787    0.000000
     2.445906    1.664692    4.668065
   B    C 
  11   4
Direct configuration=    47
   0.31141206  0.80339311  0.80389940
   0.80389940  0.80339311  0.31141206
   0.80945394  0.31401320  0.80945394
   0.68583033  0.19713194  0.19721883
   0.19721883  0.19713194  0.68583033
   0.18979571  0.68742646  0.18979571
   0.67053651  0.99149002  0.99466777
   0.99466777  0.99149002  0.67053651
   0.99204653  0.66049022  0.99204653
   0.32608862  0.01232078  0.00387190
   0.00387190  0.01232078  0.32608862
   0.00598874  0.32084098  0.00598874
   0.62023313  0.60741697  0.62023313
   0.38470020  0.40083282  0.38470020
   0.50425641  0.50030775  0.50425641
unknown system                          
           1
     5.184343    0.000000    0.000000
     1.949870    4.713787    0.000000
     2.445906    1.664692    4.668065
   B    C 
  11   4
Direct configuration=    48
   0.31141206  0.80339311  0.80389940
   0.80389940  0.80339311  0.31141206
   0.80945394  0.31401320  0.80945394
   0.68583033  0.19713194  0.19721883
   0.19721883  0.19713194  0.68583033
   0.18979571  0.68742646  0.18979571
   0.67053651  0.99149002  0.99466777
   0.99466777  0.99149002  0.67053651
   0.99204653  0.66049022  0.99204653
   0.32608862  0.01232078  0.00387190
   0.00387190  0.01232078  0.32608862
   0.00598874  0.32084098  0.00598874
   0.62023313  0.60741697  0.62023313
   0.38470020  0.40083282  0.38470020
   0.50425641  0.50030775  0.50425641
unknown system                          
           1
     5.184343    0.000000    0.000000
     1.949870    4.713787    0.000000
     2.445906    1.664692    4.668065
   B    C 
  11   4
Direct configuration=    49
   0.31141206  0.80339311  0.80389940
   0.80389940  0.80339311  0.31141206
   0.80945394  0.31401320  0.80945394
   0.68583033  0.19713194  0.19721883
   0.19721883  0.19713194  0.68583033
   0.18979571  0.68742646  0.18979571
   0.67053651  0.99149002  0.99466777
   0.99466777  0.99149002  0.67053651
   0.99204653  0.66049022  0.99204653
   0.32608862  0.01232078  0.00387190
   0.00387190  0.01232078  0.32608862
   0.00598874  0.32084098  0.00598874
   0.62023313  0.60741697  0.62023313
   0.38470020  0.40083282  0.38470020
   0.50425641  0.50030775  0.50425641
unknown system                          
           1
     5.184343    0.000000    0.000000
     1.949870    4.713787    0.000000
     2.445906    1.664692    4.668065
   B    C 
  11   4
Direct configuration=    50
   0.31141206  0.80339311  0.80389940
   0.80389940  0.80339311  0.31141206
   0.80945394  0.31401320  0.80945394
   0.68583033  0.19713194  0.19721883
   0.19721883  0.19713194  0.68583033
   0.18979571  0.68742646  0.18979571
   0.67053651  0.99149002  0.99466777
   0.99466777  0.99149002  0.67053651
   0.99204653  0.66049022  0.99204653
   0.32608862  0.01232078  0.00387190
   0.00387190  0.01232078  0.32608862
   0.00598874  0.32084098  0.00598874
   0.62023313  0.60741697  0.62023313
   0.38470020  0.40083282  0.38470020
   0.50425641  0.50030775  0.50425641
unknown system                          
           1
     5.184343    0.000000    0.000000
     1.949870    4.713787    0.000000
     2.445906    1.664692    4.668065
   B    C 
  11   4
Direct configuration=    51
   0.31141206  0.80339311  0.80389940
   0.80389940  0.80339311  0.31141206
   0.80945394  0.31401320  0.80945394
   0.68583033  0.19713194  0.19721883
   0.19721883  0.19713194  0.68583033
   0.18979571  0.68742646  0.18979571
   0.67053651  0.99149002  0.99466777
   0.99466777  0.99149002  0.67053651
   0.99204653  0.66049022  0.99204653
   0.32608862  0.01232078  0.00387190
   0.00387190  0.01232078  0.32608862
   0.00598874  0.32084098  0.00598874
   0.62023313  0.60741697  0.62023313
   0.38470020  0.40083282  0.38470020
   0.50425641  0.50030775  0.50425641
unknown system                          
           1
     5.184343    0.000000    0.000000
     1.949870    4.713787    0.000000
     2.445906    1.664692    4.668065
   B    C 
  11   4
Direct configuration=    52
   0.31141206  0.80339311  0.80389940
   0.80389940  0.80339311  0.31141206
   0.80945394  0.31401320  0.80945394
   0.68583033  0.19713194  0.19721883
   0.19721883  0.19713194  0.68583033
   0.18979571  0.68742646  0.18979571
   0.67053651  0.99149002  0.99466777
   0.99466777  0.99149002  0.67053651
   0.99204653  0.66049022  0.99204653
   0.32608862  0.01232078  0.00387190
   0.00387190  0.01232078  0.32608862
   0.00598874  0.32084098  0.00598874
   0.62023313  0.60741697  0.62023313
   0.38470020  0.40083282  0.38470020
   0.50425641  0.50030775  0.50425641
unknown system                          
           1
     5.184343    0.000000    0.000000
     1.949870    4.713787    0.000000
     2.445906    1.664692    4.668065
   B    C 
  11   4
Direct configuration=    53
   0.31141206  0.80339311  0.80389940
   0.80389940  0.80339311  0.31141206
   0.80945394  0.31401320  0.80945394
   0.68583033  0.19713194  0.19721883
   0.19721883  0.19713194  0.68583033
   0.18979571  0.68742646  0.18979571
   0.67053651  0.99149002  0.99466777
   0.99466777  0.99149002  0.67053651
   0.99204653  0.66049022  0.99204653
   0.32608862  0.01232078  0.00387190
   0.00387190  0.01232078  0.32608862
   0.00598874  0.32084098  0.00598874
   0.62023313  0.60741697  0.62023313
   0.38470020  0.40083282  0.38470020
   0.50425641  0.50030775  0.50425641
unknown system                          
           1
     5.184343    0.000000    0.000000
     1.949870    4.713787    0.000000
     2.445906    1.664692    4.668065
   B    C 
  11   4
Direct configuration=    54
   0.31141206  0.80339311  0.80389940
   0.80389940  0.80339311  0.31141206
   0.80945394  0.31401320  0.80945394
   0.68583033  0.19713194  0.19721883
   0.19721883  0.19713194  0.68583033
   0.18979571  0.68742646  0.18979571
   0.67053651  0.99149002  0.99466777
   0.99466777  0.99149002  0.67053651
   0.99204653  0.66049022  0.99204653
   0.32608862  0.01232078  0.00387190
   0.00387190  0.01232078  0.32608862
   0.00598874  0.32084098  0.00598874
   0.62023313  0.60741697  0.62023313
   0.38470020  0.40083282  0.38470020
   0.50425641  0.50030775  0.50425641
unknown system                          
           1
     5.184343    0.000000    0.000000
     1.949870    4.713787    0.000000
     2.445906    1.664692    4.668065
   B    C 
  11   4
Direct configuration=    55
   0.31141206  0.80339311  0.80389940
   0.80389940  0.80339311  0.31141206
   0.80945394  0.31401320  0.80945394
   0.68583033  0.19713194  0.19721883
   0.19721883  0.19713194  0.68583033
   0.18979571  0.68742646  0.18979571
   0.67053651  0.99149002  0.99466777
   0.99466777  0.99149002  0.67053651
   0.99204653  0.66049022  0.99204653
   0.32608862  0.01232078  0.00387190
   0.00387190  0.01232078  0.32608862
   0.00598874  0.32084098  0.00598874
   0.62023313  0.60741697  0.62023313
   0.38470020  0.40083282  0.38470020
   0.50425641  0.50030775  0.50425641
unknown system                          
           1
     5.184343    0.000000    0.000000
     1.949870    4.713787    0.000000
     2.445906    1.664692    4.668065
   B    C 
  11   4
Direct configuration=    56
   0.31141206  0.80339311  0.80389940
   0.80389940  0.80339311  0.31141206
   0.80945394  0.31401320  0.80945394
   0.68583033  0.19713194  0.19721883
   0.19721883  0.19713194  0.68583033
   0.18979571  0.68742646  0.18979571
   0.67053651  0.99149002  0.99466777
   0.99466777  0.99149002  0.67053651
   0.99204653  0.66049022  0.99204653
   0.32608862  0.01232078  0.00387190
   0.00387190  0.01232078  0.32608862
   0.00598874  0.32084098  0.00598874
   0.62023313  0.60741697  0.62023313
   0.38470020  0.40083282  0.38470020
   0.50425641  0.50030775  0.50425641
unknown system                          
           1
     5.184343    0.000000    0.000000
     1.949870    4.713787    0.000000
     2.445906    1.664692    4.668065
   B    C 
  11   4
Direct configuration=    57
   0.31141206  0.80339311  0.80389940
   0.80389940  0.80339311  0.31141206
   0.80945394  0.31401320  0.80945394
   0.68583033  0.19713194  0.19721883
   0.19721883  0.19713194  0.68583033
   0.18979571  0.68742646  0.18979571
   0.67053651  0.99149002  0.99466777
   0.99466777  0.99149002  0.67053651
   0.99204653  0.66049022  0.99204653
   0.32608862  0.01232078  0.00387190
   0.00387190  0.01232078  0.32608862
   0.00598874  0.32084098  0.00598874
   0.62023313  0.60741697  0.62023313
   0.38470020  0.40083282  0.38470020
   0.50425641  0.50030775  0.50425641
unknown system                          
           1
     5.184343    0.000000    0.000000
     1.949870    4.713787    0.000000
     2.445906    1.664692    4.668065
   B    C 
  11   4
Direct configuration=    58
   0.31141206  0.80339311  0.80389940
   0.80389940  0.80339311  0.31141206
   0.80945394  0.31401320  0.80945394
   0.68583033  0.19713194  0.19721883
   0.19721883  0.19713194  0.68583033
   0.18979571  0.68742646  0.18979571
   0.67053651  0.99149002  0.99466777
   0.99466777  0.99149002  0.67053651
   0.99204653  0.66049022  0.99204653
   0.32608862  0.01232078  0.00387190
   0.00387190  0.01232078  0.32608862
   0.00598874  0.32084098  0.00598874
   0.62023313  0.60741697  0.62023313
   0.38470020  0.40083282  0.38470020
   0.50425641  0.50030775  0.50425641
unknown system                          
           1
     5.184343    0.000000    0.000000
     1.949870    4.713787    0.000000
     2.445906    1.664692    4.668065
   B    C 
  11   4
Direct configuration=    59
   0.31141206  0.80339311  0.80389940
   0.80389940  0.80339311  0.31141206
   0.80945394  0.31401320  0.80945394
   0.68583033  0.19713194  0.19721883
   0.19721883  0.19713194  0.68583033
   0.18979571  0.68742646  0.18979571
   0.67053651  0.99149002  0.99466777
   0.99466777  0.99149002  0.67053651
   0.99204653  0.66049022  0.99204653
   0.32608862  0.01232078  0.00387190
   0.00387190  0.01232078  0.32608862
   0.00598874  0.32084098  0.00598874
   0.62023313  0.60741697  0.62023313
   0.38470020  0.40083282  0.38470020
   0.50425641  0.50030775  0.50425641
unknown system                          
           1
     5.184343    0.000000    0.000000
     1.949870    4.713787    0.000000
     2.445906    1.664692    4.668065
   B    C 
  11   4
Direct configuration=    60
   0.31141206  0.80339311  0.80389940
   0.80389940  0.80339311  0.31141206
   0.80945394  0.31401320  0.80945394
   0.68583033  0.19713194  0.19721883
   0.19721883  0.19713194  0.68583033
   0.18979571  0.68742646  0.18979571
   0.67053651  0.99149002  0.99466777
   0.99466777  0.99149002  0.67053651
   0.99204653  0.66049022  0.99204653
   0.32608862  0.01232078  0.00387190
   0.00387190  0.01232078  0.32608862
   0.00598874  0.32084098  0.00598874
   0.62023313  0.60741697  0.62023313
   0.38470020  0.40083282  0.38470020
   0.50425641  0.50030775  0.50425641
unknown system                          
           1
     5.184343    0.000000    0.000000
     1.949870    4.713787    0.000000
     2.445906    1.664692    4.668065
   B    C 
  11   4
Direct configuration=    61
   0.31141206  0.80339311  0.80389940
   0.80389940  0.80339311  0.31141206
   0.80945394  0.31401320  0.80945394
   0.68583033  0.19713194  0.19721883
   0.19721883  0.19713194  0.68583033
   0.18979571  0.68742646  0.18979571
   0.67053651  0.99149002  0.99466777
   0.99466777  0.99149002  0.67053651
   0.99204653  0.66049022  0.99204653
   0.32608862  0.01232078  0.00387190
   0.00387190  0.01232078  0.32608862
   0.00598874  0.32084098  0.00598874
   0.62023313  0.60741697  0.62023313
   0.38470020  0.40083282  0.38470020
   0.50425641  0.50030775  0.50425641
unknown system                          
           1
     5.184343    0.000000    0.000000
     1.949870    4.713787    0.000000
     2.445906    1.664692    4.668065
   B    C 
  11   4
Direct configuration=    62
   0.31141206  0.80339311  0.80389940
   0.80389940  0.80339311  0.31141206
   0.80945394  0.31401320  0.80945394
   0.68583033  0.19713194  0.19721883
   0.19721883  0.19713194  0.68583033
   0.18979571  0.68742646  0.18979571
   0.67053651  0.99149002  0.99466777
   0.99466777  0.99149002  0.67053651
   0.99204653  0.66049022  0.99204653
   0.32608862  0.01232078  0.00387190
   0.00387190  0.01232078  0.32608862
   0.00598874  0.32084098  0.00598874
   0.62023313  0.60741697  0.62023313
   0.38470020  0.40083282  0.38470020
   0.50425641  0.50030775  0.50425641
unknown system                          
           1
     5.184343    0.000000    0.000000
     1.949870    4.713787    0.000000
     2.445906    1.664692    4.668065
   B    C 
  11   4
Direct configuration=    63
   0.31141206  0.80339311  0.80389940
   0.80389940  0.80339311  0.31141206
   0.80945394  0.31401320  0.80945394
   0.68583033  0.19713194  0.19721883
   0.19721883  0.19713194  0.68583033
   0.18979571  0.68742646  0.18979571
   0.67053651  0.99149002  0.99466777
   0.99466777  0.99149002  0.67053651
   0.99204653  0.66049022  0.99204653
   0.32608862  0.01232078  0.00387190
   0.00387190  0.01232078  0.32608862
   0.00598874  0.32084098  0.00598874
   0.62023313  0.60741697  0.62023313
   0.38470020  0.40083282  0.38470020
   0.50425641  0.50030775  0.50425641
unknown system                          
           1
     5.184343    0.000000    0.000000
     1.949870    4.713787    0.000000
     2.445906    1.664692    4.668065
   B    C 
  11   4
Direct configuration=    64
   0.31141206  0.80339311  0.80389940
   0.80389940  0.80339311  0.31141206
   0.80945394  0.31401320  0.80945394
   0.68583033  0.19713194  0.19721883
   0.19721883  0.19713194  0.68583033
   0.18979571  0.68742646  0.18979571
   0.67053651  0.99149002  0.99466777
   0.99466777  0.99149002  0.67053651
   0.99204653  0.66049022  0.99204653
   0.32608862  0.01232078  0.00387190
   0.00387190  0.01232078  0.32608862
   0.00598874  0.32084098  0.00598874
   0.62023313  0.60741697  0.62023313
   0.38470020  0.40083282  0.38470020
   0.50425641  0.50030775  0.50425641
unknown system                          
           1
     5.184343    0.000000    0.000000
     1.949870    4.713787    0.000000
     2.445906    1.664692    4.668065
   B    C 
  11   4
Direct configuration=    65
   0.31141206  0.80339311  0.80389940
   0.80389940  0.80339311  0.31141206
   0.80945394  0.31401320  0.80945394
   0.68583033  0.19713194  0.19721883
   0.19721883  0.19713194  0.68583033
   0.18979571  0.68742646  0.18979571
   0.67053651  0.99149002  0.99466777
   0.99466777  0.99149002  0.67053651
   0.99204653  0.66049022  0.99204653
   0.32608862  0.01232078  0.00387190
   0.00387190  0.01232078  0.32608862
   0.00598874  0.32084098  0.00598874
   0.62023313  0.60741697  0.62023313
   0.38470020  0.40083282  0.38470020
   0.50425641  0.50030775  0.50425641
unknown system                          
           1
     5.184343    0.000000    0.000000
     1.949870    4.713787    0.000000
     2.445906    1.664692    4.668065
   B    C 
  11   4
Direct configuration=    66
   0.31141206  0.80339311  0.80389940
   0.80389940  0.80339311  0.31141206
   0.80945394  0.31401320  0.80945394
   0.68583033  0.19713194  0.19721883
   0.19721883  0.19713194  0.68583033
   0.18979571  0.68742646  0.18979571
   0.67053651  0.99149002  0.99466777
   0.99466777  0.99149002  0.67053651
   0.99204653  0.66049022  0.99204653
   0.32608862  0.01232078  0.00387190
   0.00387190  0.01232078  0.32608862
   0.00598874  0.32084098  0.00598874
   0.62023313  0.60741697  0.62023313
   0.38470020  0.40083282  0.38470020
   0.50425641  0.50030775  0.50425641
unknown system                          
           1
     5.184343    0.000000    0.000000
     1.949870    4.713787    0.000000
     2.445906    1.664692    4.668065
   B    C 
  11   4
Direct configuration=    67
   0.31141206  0.80339311  0.80389940
   0.80389940  0.80339311  0.31141206
   0.80945394  0.31401320  0.80945394
   0.68583033  0.19713194  0.19721883
   0.19721883  0.19713194  0.68583033
   0.18979571  0.68742646  0.18979571
   0.67053651  0.99149002  0.99466777
   0.99466777  0.99149002  0.67053651
   0.99204653  0.66049022  0.99204653
   0.32608862  0.01232078  0.00387190
   0.00387190  0.01232078  0.32608862
   0.00598874  0.32084098  0.00598874
   0.62023313  0.60741697  0.62023313
   0.38470020  0.40083282  0.38470020
   0.50425641  0.50030775  0.50425641
unknown system                          
           1
     5.184343    0.000000    0.000000
     1.949870    4.713787    0.000000
     2.445906    1.664692    4.668065
   B    C 
  11   4
Direct configuration=    68
   0.31141206  0.80339311  0.80389940
   0.80389940  0.80339311  0.31141206
   0.80945394  0.31401320  0.80945394
   0.68583033  0.19713194  0.19721883
   0.19721883  0.19713194  0.68583033
   0.18979571  0.68742646  0.18979571
   0.67053651  0.99149002  0.99466777
   0.99466777  0.99149002  0.67053651
   0.99204653  0.66049022  0.99204653
   0.32608862  0.01232078  0.00387190
   0.00387190  0.01232078  0.32608862
   0.00598874  0.32084098  0.00598874
   0.62023313  0.60741697  0.62023313
   0.38470020  0.40083282  0.38470020
   0.50425641  0.50030775  0.50425641
unknown system                          
           1
     5.184343    0.000000    0.000000
     1.949870    4.713787    0.000000
     2.445906    1.664692    4.668065
   B    C 
  11   4
Direct configuration=    69
   0.31141206  0.80339311  0.80389940
   0.80389940  0.80339311  0.31141206
   0.80945394  0.31401320  0.80945394
   0.68583033  0.19713194  0.19721883
   0.19721883  0.19713194  0.68583033
   0.18979571  0.68742646  0.18979571
   0.67053651  0.99149002  0.99466777
   0.99466777  0.99149002  0.67053651
   0.99204653  0.66049022  0.99204653
   0.32608862  0.01232078  0.00387190
   0.00387190  0.01232078  0.32608862
   0.00598874  0.32084098  0.00598874
   0.62023313  0.60741697  0.62023313
   0.38470020  0.40083282  0.38470020
   0.50425641  0.50030775  0.50425641
unknown system                          
           1
     5.184343    0.000000    0.000000
     1.949870    4.713787    0.000000
     2.445906    1.664692    4.668065
   B    C 
  11   4
Direct configuration=    70
   0.31141206  0.80339311  0.80389940
   0.80389940  0.80339311  0.31141206
   0.80945394  0.31401320  0.80945394
   0.68583033  0.19713194  0.19721883
   0.19721883  0.19713194  0.68583033
   0.18979571  0.68742646  0.18979571
   0.67053651  0.99149002  0.99466777
   0.99466777  0.99149002  0.67053651
   0.99204653  0.66049022  0.99204653
   0.32608862  0.01232078  0.00387190
   0.00387190  0.01232078  0.32608862
   0.00598874  0.32084098  0.00598874
   0.62023313  0.60741697  0.62023313
   0.38470020  0.40083282  0.38470020
   0.50425641  0.50030775  0.50425641
unknown system                          
           1
     5.184343    0.000000    0.000000
     1.949870    4.713787    0.000000
     2.445906    1.664692    4.668065
   B    C 
  11   4
Direct configuration=    71
   0.31141206  0.80339311  0.80389940
   0.80389940  0.80339311  0.31141206
   0.80945394  0.31401320  0.80945394
   0.68583033  0.19713194  0.19721883
   0.19721883  0.19713194  0.68583033
   0.18979571  0.68742646  0.18979571
   0.67053651  0.99149002  0.99466777
   0.99466777  0.99149002  0.67053651
   0.99204653  0.66049022  0.99204653
   0.32608862  0.01232078  0.00387190
   0.00387190  0.01232078  0.32608862
   0.00598874  0.32084098  0.00598874
   0.62023313  0.60741697  0.62023313
   0.38470020  0.40083282  0.38470020
   0.50425641  0.50030775  0.50425641
unknown system                          
           1
     5.184343    0.000000    0.000000
     1.949870    4.713787    0.000000
     2.445906    1.664692    4.668065
   B    C 
  11   4
Direct configuration=    72
   0.31141206  0.80339311  0.80389940
   0.80389940  0.80339311  0.31141206
   0.80945394  0.31401320  0.80945394
   0.68583033  0.19713194  0.19721883
   0.19721883  0.19713194  0.68583033
   0.18979571  0.68742646  0.18979571
   0.67053651  0.99149002  0.99466777
   0.99466777  0.99149002  0.67053651
   0.99204653  0.66049022  0.99204653
   0.32608862  0.01232078  0.00387190
   0.00387190  0.01232078  0.32608862
   0.00598874  0.32084098  0.00598874
   0.62023313  0.60741697  0.62023313
   0.38470020  0.40083282  0.38470020
   0.50425641  0.50030775  0.50425641
unknown system                          
           1
     5.184343    0.000000    0.000000
     1.949870    4.713787    0.000000
     2.445906    1.664692    4.668065
   B    C 
  11   4
Direct configuration=    73
   0.31141206  0.80339311  0.80389940
   0.80389940  0.80339311  0.31141206
   0.80945394  0.31401320  0.80945394
   0.68583033  0.19713194  0.19721883
   0.19721883  0.19713194  0.68583033
   0.18979571  0.68742646  0.18979571
   0.67053651  0.99149002  0.99466777
   0.99466777  0.99149002  0.67053651
   0.99204653  0.66049022  0.99204653
   0.32608862  0.01232078  0.00387190
   0.00387190  0.01232078  0.32608862
   0.00598874  0.32084098  0.00598874
   0.62023313  0.60741697  0.62023313
   0.38470020  0.40083282  0.38470020
   0.50425641  0.50030775  0.50425641
unknown system                          
           1
     5.184343    0.000000    0.000000
     1.949870    4.713787    0.000000
     2.445906    1.664692    4.668065
   B    C 
  11   4
Direct configuration=    74
   0.31141206  0.80339311  0.80389940
   0.80389940  0.80339311  0.31141206
   0.80945394  0.31401320  0.80945394
   0.68583033  0.19713194  0.19721883
   0.19721883  0.19713194  0.68583033
   0.18979571  0.68742646  0.18979571
   0.67053651  0.99149002  0.99466777
   0.99466777  0.99149002  0.67053651
   0.99204653  0.66049022  0.99204653
   0.32608862  0.01232078  0.00387190
   0.00387190  0.01232078  0.32608862
   0.00598874  0.32084098  0.00598874
   0.62023313  0.60741697  0.62023313
   0.38470020  0.40083282  0.38470020
   0.50425641  0.50030775  0.50425641
unknown system                          
           1
     5.184343    0.000000    0.000000
     1.949870    4.713787    0.000000
     2.445906    1.664692    4.668065
   B    C 
  11   4
Direct configuration=    75
   0.31141206  0.80339311  0.80389940
   0.80389940  0.80339311  0.31141206
   0.80945394  0.31401320  0.80945394
   0.68583033  0.19713194  0.19721883
   0.19721883  0.19713194  0.68583033
   0.18979571  0.68742646  0.18979571
   0.67053651  0.99149002  0.99466777
   0.99466777  0.99149002  0.67053651
   0.99204653  0.66049022  0.99204653
   0.32608862  0.01232078  0.00387190
   0.00387190  0.01232078  0.32608862
   0.00598874  0.32084098  0.00598874
   0.62023313  0.60741697  0.62023313
   0.38470020  0.40083282  0.38470020
   0.50425641  0.50030775  0.50425641
unknown system                          
           1
     5.184343    0.000000    0.000000
     1.949870    4.713787    0.000000
     2.445906    1.664692    4.668065
   B    C 
  11   4
Direct configuration=    76
   0.31141206  0.80339311  0.80389940
   0.80389940  0.80339311  0.31141206
   0.80945394  0.31401320  0.80945394
   0.68583033  0.19713194  0.19721883
   0.19721883  0.19713194  0.68583033
   0.18979571  0.68742646  0.18979571
   0.67053651  0.99149002  0.99466777
   0.99466777  0.99149002  0.67053651
   0.99204653  0.66049022  0.99204653
   0.32608862  0.01232078  0.00387190
   0.00387190  0.01232078  0.32608862
   0.00598874  0.32084098  0.00598874
   0.62023313  0.60741697  0.62023313
   0.38470020  0.40083282  0.38470020
   0.50425641  0.50030775  0.50425641
unknown system                          
           1
     5.184343    0.000000    0.000000
     1.949870    4.713787    0.000000
     2.445906    1.664692    4.668065
   B    C 
  11   4
Direct configuration=    77
   0.31141206  0.80339311  0.80389940
   0.80389940  0.80339311  0.31141206
   0.80945394  0.31401320  0.80945394
   0.68583033  0.19713194  0.19721883
   0.19721883  0.19713194  0.68583033
   0.18979571  0.68742646  0.18979571
   0.67053651  0.99149002  0.99466777
   0.99466777  0.99149002  0.67053651
   0.99204653  0.66049022  0.99204653
   0.32608862  0.01232078  0.00387190
   0.00387190  0.01232078  0.32608862
   0.00598874  0.32084098  0.00598874
   0.62023313  0.60741697  0.62023313
   0.38470020  0.40083282  0.38470020
   0.50425641  0.50030775  0.50425641
unknown system                          
           1
     5.184343    0.000000    0.000000
     1.949870    4.713787    0.000000
     2.445906    1.664692    4.668065
   B    C 
  11   4
Direct configuration=    78
   0.31141206  0.80339311  0.80389940
   0.80389940  0.80339311  0.31141206
   0.80945394  0.31401320  0.80945394
   0.68583033  0.19713194  0.19721883
   0.19721883  0.19713194  0.68583033
   0.18979571  0.68742646  0.18979571
   0.67053651  0.99149002  0.99466777
   0.99466777  0.99149002  0.67053651
   0.99204653  0.66049022  0.99204653
   0.32608862  0.01232078  0.00387190
   0.00387190  0.01232078  0.32608862
   0.00598874  0.32084098  0.00598874
   0.62023313  0.60741697  0.62023313
   0.38470020  0.40083282  0.38470020
   0.50425641  0.50030775  0.50425641
unknown system                          
           1
     5.184343    0.000000    0.000000
     1.949870    4.713787    0.000000
     2.445906    1.664692    4.668065
   B    C 
  11   4
Direct configuration=    79
   0.31141206  0.80339311  0.80389940
   0.80389940  0.80339311  0.31141206
   0.80945394  0.31401320  0.80945394
   0.68583033  0.19713194  0.19721883
   0.19721883  0.19713194  0.68583033
   0.18979571  0.68742646  0.18979571
   0.67053651  0.99149002  0.99466777
   0.99466777  0.99149002  0.67053651
   0.99204653  0.66049022  0.99204653
   0.32608862  0.01232078  0.00387190
   0.00387190  0.01232078  0.32608862
   0.00598874  0.32084098  0.00598874
   0.62023313  0.60741697  0.62023313
   0.38470020  0.40083282  0.38470020
   0.50425641  0.50030775  0.50425641
unknown system                          
           1
     5.184343    0.000000    0.000000
     1.949870    4.713787    0.000000
     2.445906    1.664692    4.668065
   B    C 
  11   4
Direct configuration=    80
   0.31141206  0.80339311  0.80389940
   0.80389940  0.80339311  0.31141206
   0.80945394  0.31401320  0.80945394
   0.68583033  0.19713194  0.19721883
   0.19721883  0.19713194  0.68583033
   0.18979571  0.68742646  0.18979571
   0.67053651  0.99149002  0.99466777
   0.99466777  0.99149002  0.67053651
   0.99204653  0.66049022  0.99204653
   0.32608862  0.01232078  0.00387190
   0.00387190  0.01232078  0.32608862
   0.00598874  0.32084098  0.00598874
   0.62023313  0.60741697  0.62023313
   0.38470020  0.40083282  0.38470020
   0.50425641  0.50030775  0.50425641
unknown system                          
           1
     5.184343    0.000000    0.000000
     1.949870    4.713787    0.000000
     2.445906    1.664692    4.668065
   B    C 
  11   4
Direct configuration=    81
   0.31141206  0.80339311  0.80389940
   0.80389940  0.80339311  0.31141206
   0.80945394  0.31401320  0.80945394
   0.68583033  0.19713194  0.19721883
   0.19721883  0.19713194  0.68583033
   0.18979571  0.68742646  0.18979571
   0.67053651  0.99149002  0.99466777
   0.99466777  0.99149002  0.67053651
   0.99204653  0.66049022  0.99204653
   0.32608862  0.01232078  0.00387190
   0.00387190  0.01232078  0.32608862
   0.00598874  0.32084098  0.00598874
   0.62023313  0.60741697  0.62023313
   0.38470020  0.40083282  0.38470020
   0.50425641  0.50030775  0.50425641
unknown system                          
           1
     5.184343    0.000000    0.000000
     1.949870    4.713787    0.000000
     2.445906    1.664692    4.668065
   B    C 
  11   4
Direct configuration=    82
   0.31141206  0.80339311  0.80389940
   0.80389940  0.80339311  0.31141206
   0.80945394  0.31401320  0.80945394
   0.68583033  0.19713194  0.19721883
   0.19721883  0.19713194  0.68583033
   0.18979571  0.68742646  0.18979571
   0.67053651  0.99149002  0.99466777
   0.99466777  0.99149002  0.67053651
   0.99204653  0.66049022  0.99204653
   0.32608862  0.01232078  0.00387190
   0.00387190  0.01232078  0.32608862
   0.00598874  0.32084098  0.00598874
   0.62023313  0.60741697  0.62023313
   0.38470020  0.40083282  0.38470020
   0.50425641  0.50030775  0.50425641
unknown system                          
           1
     5.184343    0.000000    0.000000
     1.949870    4.713787    0.000000
     2.445906    1.664692    4.668065
   B    C 
  11   4
Direct configuration=    83
   0.31141206  0.80339311  0.80389940
   0.80389940  0.80339311  0.31141206
   0.80945394  0.31401320  0.80945394
   0.68583033  0.19713194  0.19721883
   0.19721883  0.19713194  0.68583033
   0.18979571  0.68742646  0.18979571
   0.67053651  0.99149002  0.99466777
   0.99466777  0.99149002  0.67053651
   0.99204653  0.66049022  0.99204653
   0.32608862  0.01232078  0.00387190
   0.00387190  0.01232078  0.32608862
   0.00598874  0.32084098  0.00598874
   0.62023313  0.60741697  0.62023313
   0.38470020  0.40083282  0.38470020
   0.50425641  0.50030775  0.50425641
unknown system                          
           1
     5.184343    0.000000    0.000000
     1.949870    4.713787    0.000000
     2.445906    1.664692    4.668065
   B    C 
  11   4
Direct configuration=    84
   0.31141206  0.80339311  0.80389940
   0.80389940  0.80339311  0.31141206
   0.80945394  0.31401320  0.80945394
   0.68583033  0.19713194  0.19721883
   0.19721883  0.19713194  0.68583033
   0.18979571  0.68742646  0.18979571
   0.67053651  0.99149002  0.99466777
   0.99466777  0.99149002  0.67053651
   0.99204653  0.66049022  0.99204653
   0.32608862  0.01232078  0.00387190
   0.00387190  0.01232078  0.32608862
   0.00598874  0.32084098  0.00598874
   0.62023313  0.60741697  0.62023313
   0.38470020  0.40083282  0.38470020
   0.50425641  0.50030775  0.50425641
unknown system                          
           1
     5.184343    0.000000    0.000000
     1.949870    4.713787    0.000000
     2.445906    1.664692    4.668065
   B    C 
  11   4
Direct configuration=    85
   0.31141206  0.80339311  0.80389940
   0.80389940  0.80339311  0.31141206
   0.80945394  0.31401320  0.80945394
   0.68583033  0.19713194  0.19721883
   0.19721883  0.19713194  0.68583033
   0.18979571  0.68742646  0.18979571
   0.67053651  0.99149002  0.99466777
   0.99466777  0.99149002  0.67053651
   0.99204653  0.66049022  0.99204653
   0.32608862  0.01232078  0.00387190
   0.00387190  0.01232078  0.32608862
   0.00598874  0.32084098  0.00598874
   0.62023313  0.60741697  0.62023313
   0.38470020  0.40083282  0.38470020
   0.50425641  0.50030775  0.50425641
unknown system                          
           1
     5.184343    0.000000    0.000000
     1.949870    4.713787    0.000000
     2.445906    1.664692    4.668065
   B    C 
  11   4
Direct configuration=    86
   0.31141206  0.80339311  0.80389940
   0.80389940  0.80339311  0.31141206
   0.80945394  0.31401320  0.80945394
   0.68583033  0.19713194  0.19721883
   0.19721883  0.19713194  0.68583033
   0.18979571  0.68742646  0.18979571
   0.67053651  0.99149002  0.99466777
   0.99466777  0.99149002  0.67053651
   0.99204653  0.66049022  0.99204653
   0.32608862  0.01232078  0.00387190
   0.00387190  0.01232078  0.32608862
   0.00598874  0.32084098  0.00598874
   0.62023313  0.60741697  0.62023313
   0.38470020  0.40083282  0.38470020
   0.50425641  0.50030775  0.50425641
unknown system                          
           1
     5.184343    0.000000    0.000000
     1.949870    4.713787    0.000000
     2.445906    1.664692    4.668065
   B    C 
  11   4
Direct configuration=    87
   0.31141206  0.80339311  0.80389940
   0.80389940  0.80339311  0.31141206
   0.80945394  0.31401320  0.80945394
   0.68583033  0.19713194  0.19721883
   0.19721883  0.19713194  0.68583033
   0.18979571  0.68742646  0.18979571
   0.67053651  0.99149002  0.99466777
   0.99466777  0.99149002  0.67053651
   0.99204653  0.66049022  0.99204653
   0.32608862  0.01232078  0.00387190
   0.00387190  0.01232078  0.32608862
   0.00598874  0.32084098  0.00598874
   0.62023313  0.60741697  0.62023313
   0.38470020  0.40083282  0.38470020
   0.50425641  0.50030775  0.50425641
unknown system                          
           1
     5.184343    0.000000    0.000000
     1.949870    4.713787    0.000000
     2.445906    1.664692    4.668065
   B    C 
  11   4
Direct configuration=    88
   0.31141206  0.80339311  0.80389940
   0.80389940  0.80339311  0.31141206
   0.80945394  0.31401320  0.80945394
   0.68583033  0.19713194  0.19721883
   0.19721883  0.19713194  0.68583033
   0.18979571  0.68742646  0.18979571
   0.67053651  0.99149002  0.99466777
   0.99466777  0.99149002  0.67053651
   0.99204653  0.66049022  0.99204653
   0.32608862  0.01232078  0.00387190
   0.00387190  0.01232078  0.32608862
   0.00598874  0.32084098  0.00598874
   0.62023313  0.60741697  0.62023313
   0.38470020  0.40083282  0.38470020
   0.50425641  0.50030775  0.50425641
unknown system                          
           1
     5.184343    0.000000    0.000000
     1.949870    4.713787    0.000000
     2.445906    1.664692    4.668065
   B    C 
  11   4
Direct configuration=    89
   0.31141206  0.80339311  0.80389940
   0.80389940  0.80339311  0.31141206
   0.80945394  0.31401320  0.80945394
   0.68583033  0.19713194  0.19721883
   0.19721883  0.19713194  0.68583033
   0.18979571  0.68742646  0.18979571
   0.67053651  0.99149002  0.99466777
   0.99466777  0.99149002  0.67053651
   0.99204653  0.66049022  0.99204653
   0.32608862  0.01232078  0.00387190
   0.00387190  0.01232078  0.32608862
   0.00598874  0.32084098  0.00598874
   0.62023313  0.60741697  0.62023313
   0.38470020  0.40083282  0.38470020
   0.50425641  0.50030775  0.50425641
unknown system                          
           1
     5.184343    0.000000    0.000000
     1.949870    4.713787    0.000000
     2.445906    1.664692    4.668065
   B    C 
  11   4
Direct configuration=    90
   0.31141206  0.80339311  0.80389940
   0.80389940  0.80339311  0.31141206
   0.80945394  0.31401320  0.80945394
   0.68583033  0.19713194  0.19721883
   0.19721883  0.19713194  0.68583033
   0.18979571  0.68742646  0.18979571
   0.67053651  0.99149002  0.99466777
   0.99466777  0.99149002  0.67053651
   0.99204653  0.66049022  0.99204653
   0.32608862  0.01232078  0.00387190
   0.00387190  0.01232078  0.32608862
   0.00598874  0.32084098  0.00598874
   0.62023313  0.60741697  0.62023313
   0.38470020  0.40083282  0.38470020
   0.50425641  0.50030775  0.50425641
unknown system                          
           1
     5.184343    0.000000    0.000000
     1.949870    4.713787    0.000000
     2.445906    1.664692    4.668065
   B    C 
  11   4
Direct configuration=    91
   0.31141206  0.80339311  0.80389940
   0.80389940  0.80339311  0.31141206
   0.80945394  0.31401320  0.80945394
   0.68583033  0.19713194  0.19721883
   0.19721883  0.19713194  0.68583033
   0.18979571  0.68742646  0.18979571
   0.67053651  0.99149002  0.99466777
   0.99466777  0.99149002  0.67053651
   0.99204653  0.66049022  0.99204653
   0.32608862  0.01232078  0.00387190
   0.00387190  0.01232078  0.32608862
   0.00598874  0.32084098  0.00598874
   0.62023313  0.60741697  0.62023313
   0.38470020  0.40083282  0.38470020
   0.50425641  0.50030775  0.50425641
unknown system                          
           1
     5.184343    0.000000    0.000000
     1.949870    4.713787    0.000000
     2.445906    1.664692    4.668065
   B    C 
  11   4
Direct configuration=    92
   0.31141206  0.80339311  0.80389940
   0.80389940  0.80339311  0.31141206
   0.80945394  0.31401320  0.80945394
   0.68583033  0.19713194  0.19721883
   0.19721883  0.19713194  0.68583033
   0.18979571  0.68742646  0.18979571
   0.67053651  0.99149002  0.99466777
   0.99466777  0.99149002  0.67053651
   0.99204653  0.66049022  0.99204653
   0.32608862  0.01232078  0.00387190
   0.00387190  0.01232078  0.32608862
   0.00598874  0.32084098  0.00598874
   0.62023313  0.60741697  0.62023313
   0.38470020  0.40083282  0.38470020
   0.50425641  0.50030775  0.50425641
unknown system                          
           1
     5.184343    0.000000    0.000000
     1.949870    4.713787    0.000000
     2.445906    1.664692    4.668065
   B    C 
  11   4
Direct configuration=    93
   0.31141206  0.80339311  0.80389940
   0.80389940  0.80339311  0.31141206
   0.80945394  0.31401320  0.80945394
   0.68583033  0.19713194  0.19721883
   0.19721883  0.19713194  0.68583033
   0.18979571  0.68742646  0.18979571
   0.67053651  0.99149002  0.99466777
   0.99466777  0.99149002  0.67053651
   0.99204653  0.66049022  0.99204653
   0.32608862  0.01232078  0.00387190
   0.00387190  0.01232078  0.32608862
   0.00598874  0.32084098  0.00598874
   0.62023313  0.60741697  0.62023313
   0.38470020  0.40083282  0.38470020
   0.50425641  0.50030775  0.50425641
unknown system                          
           1
     5.184343    0.000000    0.000000
     1.949870    4.713787    0.000000
     2.445906    1.664692    4.668065
   B    C 
  11   4
Direct configuration=    94
   0.31141206  0.80339311  0.80389940
   0.80389940  0.80339311  0.31141206
   0.80945394  0.31401320  0.80945394
   0.68583033  0.19713194  0.19721883
   0.19721883  0.19713194  0.68583033
   0.18979571  0.68742646  0.18979571
   0.67053651  0.99149002  0.99466777
   0.99466777  0.99149002  0.67053651
   0.99204653  0.66049022  0.99204653
   0.32608862  0.01232078  0.00387190
   0.00387190  0.01232078  0.32608862
   0.00598874  0.32084098  0.00598874
   0.62023313  0.60741697  0.62023313
   0.38470020  0.40083282  0.38470020
   0.50425641  0.50030775  0.50425641
unknown system                          
           1
     5.184343    0.000000    0.000000
     1.949870    4.713787    0.000000
     2.445906    1.664692    4.668065
   B    C 
  11   4
Direct configuration=    95
   0.31141206  0.80339311  0.80389940
   0.80389940  0.80339311  0.31141206
   0.80945394  0.31401320  0.80945394
   0.68583033  0.19713194  0.19721883
   0.19721883  0.19713194  0.68583033
   0.18979571  0.68742646  0.18979571
   0.67053651  0.99149002  0.99466777
   0.99466777  0.99149002  0.67053651
   0.99204653  0.66049022  0.99204653
   0.32608862  0.01232078  0.00387190
   0.00387190  0.01232078  0.32608862
   0.00598874  0.32084098  0.00598874
   0.62023313  0.60741697  0.62023313
   0.38470020  0.40083282  0.38470020
   0.50425641  0.50030775  0.50425641
unknown system                          
           1
     5.184343    0.000000    0.000000
     1.949870    4.713787    0.000000
     2.445906    1.664692    4.668065
   B    C 
  11   4
Direct configuration=    96
   0.31141206  0.80339311  0.80389940
   0.80389940  0.80339311  0.31141206
   0.80945394  0.31401320  0.80945394
   0.68583033  0.19713194  0.19721883
   0.19721883  0.19713194  0.68583033
   0.18979571  0.68742646  0.18979571
   0.67053651  0.99149002  0.99466777
   0.99466777  0.99149002  0.67053651
   0.99204653  0.66049022  0.99204653
   0.32608862  0.01232078  0.00387190
   0.00387190  0.01232078  0.32608862
   0.00598874  0.32084098  0.00598874
   0.62023313  0.60741697  0.62023313
   0.38470020  0.40083282  0.38470020
   0.50425641  0.50030775  0.50425641
unknown system                          
           1
     5.184343    0.000000    0.000000
     1.949870    4.713787    0.000000
     2.445906    1.664692    4.668065
   B    C 
  11   4
Direct configuration=    97
   0.31141206  0.80339311  0.80389940
   0.80389940  0.80339311  0.31141206
   0.80945394  0.31401320  0.80945394
   0.68583033  0.19713194  0.19721883
   0.19721883  0.19713194  0.68583033
   0.18979571  0.68742646  0.18979571
   0.67053651  0.99149002  0.99466777
   0.99466777  0.99149002  0.67053651
   0.99204653  0.66049022  0.99204653
   0.32608862  0.01232078  0.00387190
   0.00387190  0.01232078  0.32608862
   0.00598874  0.32084098  0.00598874
   0.62023313  0.60741697  0.62023313
   0.38470020  0.40083282  0.38470020
   0.50425641  0.50030775  0.50425641
unknown system                          
           1
     5.184343    0.000000    0.000000
     1.949870    4.713787    0.000000
     2.445906    1.664692    4.668065
   B    C 
  11   4
Direct configuration=    98
   0.31141206  0.80339311  0.80389940
   0.80389940  0.80339311  0.31141206
   0.80945394  0.31401320  0.80945394
   0.68583033  0.19713194  0.19721883
   0.19721883  0.19713194  0.68583033
   0.18979571  0.68742646  0.18979571
   0.67053651  0.99149002  0.99466777
   0.99466777  0.99149002  0.67053651
   0.99204653  0.66049022  0.99204653
   0.32608862  0.01232078  0.00387190
   0.00387190  0.01232078  0.32608862
   0.00598874  0.32084098  0.00598874
   0.62023313  0.60741697  0.62023313
   0.38470020  0.40083282  0.38470020
   0.50425641  0.50030775  0.50425641
unknown system                          
           1
     5.184343    0.000000    0.000000
     1.949870    4.713787    0.000000
     2.445906    1.664692    4.668065
   B    C 
  11   4
Direct configuration=    99
   0.31141206  0.80339311  0.80389940
   0.80389940  0.80339311  0.31141206
   0.80945394  0.31401320  0.80945394
   0.68583033  0.19713194  0.19721883
   0.19721883  0.19713194  0.68583033
   0.18979571  0.68742646  0.18979571
   0.67053651  0.99149002  0.99466777
   0.99466777  0.99149002  0.67053651
   0.99204653  0.66049022  0.99204653
   0.32608862  0.01232078  0.00387190
   0.00387190  0.01232078  0.32608862
   0.00598874  0.32084098  0.00598874
   0.62023313  0.60741697  0.62023313
   0.38470020  0.40083282  0.38470020
   0.50425641  0.50030775  0.50425641
unknown system                          
           1
     5.184343    0.000000    0.000000
     1.949870    4.713787    0.000000
     2.445906    1.664692    4.668065
   B    C 
  11   4
Direct configuration=   100
   0.31141206  0.80339311  0.80389940
   0.80389940  0.80339311  0.31141206
   0.80945394  0.31401320  0.80945394
   0.68583033  0.19713194  0.19721883
   0.19721883  0.19713194  0.68583033
   0.18979571  0.68742646  0.18979571
   0.67053651  0.99149002  0.99466777
   0.99466777  0.99149002  0.67053651
   0.99204653  0.66049022  0.99204653
   0.32608862  0.01232078  0.00387190
   0.00387190  0.01232078  0.32608862
   0.00598874  0.32084098  0.00598874
   0.62023313  0.60741697  0.62023313
   0.38470020  0.40083282  0.38470020
   0.50425641  0.50030775  0.50425641
