 B  C 
 1.0000000000000000
    10.4015796073498645    0.0000000000000000    0.0000000000000000
     2.0177632361687561    4.2639983031396440    0.0000000000000000
     2.3658765969911739    1.6619587976450061    4.3704086296725100
 B   C  
  23   7
Cartesian
  5.1569699706131535  4.7614859043368405  3.5025034085636007
 10.3569410995253612  4.7718373184645095  3.5362210493538768
  6.5454989145757185  3.9570817805968819  1.3867508906220687
 11.7537714457047127  3.9412297283423965  1.3501813425739535
  6.7488813295191088  2.6674423639762646  3.5527534911786267
 11.9349416981711318  2.6552988265816801  3.5153279625334104
  4.4234765569606633  1.1692809773319843  0.8666138774431018
  9.6440710339477089  1.1442664791228527  0.8442747658128436
  3.0349063085590724  1.9806217727524278  2.9738932584021680
  8.2426345994988353  1.9698930984236458  3.0361178067585346
  8.0542757078696550  3.2636600672026828  0.8671167207288567
  7.8564070595674096  5.8754302884789338  4.3680305809848257
 13.0475068144713369  5.8833129009569101  4.3425511866567703
  8.7714827141735299  5.3494711485250894  2.9534515875753375
 13.9722611028161534  5.3306089494090303  2.9226446623314124
  8.8846905245826022  4.5053959415221545  4.3642895408584854
 14.0668999140288964  4.5045697184379039  4.3308879902956061
  1.7482441977599406  0.0350412765839942  0.0015887786310438
  6.9427482015546396  0.0353241447720872  0.0454883420200981
  0.8266998032556970  0.5603992583233330  1.4210095199422506
  6.0179111702414563  0.5872621040190610  1.4692662343060661
  0.7164556631687328  1.3992357634464536  0.0190186931697198
  5.9200706278300306  1.4113815917059609  0.0490406005076324
  2.8011275517103407  3.2823134547175630  0.7852990974692340
  5.8652202115269949  3.5888820849443532  2.7086729390220912
 11.0706704766517792  3.6045800614732366  2.6641040434178000
  3.6648112715770349  2.3984735571740399  1.6242542402342486
  8.9400025166792751  2.3022974582042250  1.7078035222840433
  4.7784961546811902  2.9937804071043956  2.1509257552807677
  9.9902187095993469  2.9594990211399415  2.1960482466536471
