  30  30   0   0
  0.6945824E+01  0.1044572E-08  0.4951256E-09  0.5416551E-09  0.5000000E-15
  1.000000000000000E-004
  CAR 
 unknown system                          
     17.35583440    -13.82507392  301      7.03490949      1.00000000
    -13.825  0.0000E+00  0.0000E+00
    -13.721  0.0000E+00  0.0000E+00
    -13.617  0.0000E+00  0.0000E+00
    -13.513  0.0000E+00  0.0000E+00
    -13.409  0.0000E+00  0.0000E+00
    -13.305  0.0000E+00  0.0000E+00
    -13.201  0.0000E+00  0.0000E+00
    -13.098  0.0000E+00  0.0000E+00
    -12.994  0.0000E+00  0.0000E+00
    -12.890  0.0000E+00  0.0000E+00
    -12.786  0.0000E+00  0.0000E+00
    -12.682  0.0000E+00  0.0000E+00
    -12.578  0.0000E+00  0.0000E+00
    -12.474  0.0000E+00  0.0000E+00
    -12.370  0.0000E+00  0.0000E+00
    -12.266  0.0000E+00  0.0000E+00
    -12.162  0.0000E+00  0.0000E+00
    -12.058  0.0000E+00  0.0000E+00
    -11.954  0.0000E+00  0.0000E+00
    -11.850  0.0000E+00  0.0000E+00
    -11.746  0.2204E-01  0.1058E-02
    -11.642  0.2521E-01  0.3515E-02
    -11.538  0.2873E-01  0.6276E-02
    -11.435  0.3750E-01  0.9642E-02
    -11.331  0.5716E-01  0.1488E-01
    -11.227  0.0000E+00  0.2000E-01
    -11.123  0.0000E+00  0.2000E-01
    -11.019  0.1353E-01  0.2061E-01
    -10.915  0.3428E-01  0.2296E-01
    -10.811  0.5222E-01  0.2729E-01
    -10.707  0.7490E-01  0.3598E-01
    -10.603  0.0000E+00  0.4000E-01
    -10.499  0.0000E+00  0.4000E-01
    -10.395  0.1108E-01  0.4013E-01
    -10.291  0.1595E-01  0.4165E-01
    -10.187  0.2272E-01  0.4364E-01
    -10.083  0.3942E-01  0.4702E-01
     -9.979  0.4245E-01  0.5119E-01
     -9.875  0.4937E-01  0.5655E-01
     -9.772  0.1517E-01  0.5929E-01
     -9.668  0.0000E+00  0.6000E-01
     -9.564  0.0000E+00  0.6000E-01
     -9.460  0.0000E+00  0.6000E-01
     -9.356  0.6041E-02  0.6022E-01
     -9.252  0.1375E-01  0.6122E-01
     -9.148  0.3519E-01  0.6335E-01
     -9.044  0.3619E-01  0.6710E-01
     -8.940  0.4476E-01  0.7157E-01
     -8.836  0.3867E-01  0.7566E-01
     -8.732  0.3704E-01  0.7964E-01
     -8.628  0.6244E-01  0.8467E-01
     -8.524  0.3838E-01  0.8964E-01
     -8.420  0.4048E-01  0.9354E-01
     -8.316  0.5306E-01  0.9847E-01
     -8.213  0.4686E-01  0.1036E+00
     -8.109  0.3494E-01  0.1080E+00
     -8.005  0.3471E-01  0.1113E+00
     -7.901  0.2688E-01  0.1151E+00
     -7.797  0.1594E-01  0.1173E+00
     -7.693  0.1014E-01  0.1186E+00
     -7.589  0.6056E-02  0.1195E+00
     -7.485  0.2359E-02  0.1199E+00
     -7.381  0.0000E+00  0.1200E+00
     -7.277  0.0000E+00  0.1200E+00
     -7.173  0.0000E+00  0.1200E+00
     -7.069  0.0000E+00  0.1200E+00
     -6.965  0.0000E+00  0.1200E+00
     -6.861  0.0000E+00  0.1200E+00
     -6.757  0.0000E+00  0.1200E+00
     -6.653  0.2427E-01  0.1217E+00
     -6.550  0.4664E-01  0.1249E+00
     -6.446  0.1036E+00  0.1326E+00
     -6.342  0.3302E-01  0.1395E+00
     -6.238  0.3092E-01  0.1418E+00
     -6.134  0.2405E-01  0.1449E+00
     -6.030  0.4299E-01  0.1485E+00
     -5.926  0.3028E-01  0.1523E+00
     -5.822  0.4377E-01  0.1560E+00
     -5.718  0.6278E-01  0.1619E+00
     -5.614  0.3761E-01  0.1680E+00
     -5.510  0.5792E-01  0.1730E+00
     -5.406  0.4315E-01  0.1776E+00
     -5.302  0.6338E-01  0.1831E+00
     -5.198  0.6591E-01  0.1905E+00
     -5.094  0.4943E-01  0.1962E+00
     -4.990  0.6547E-01  0.2019E+00
     -4.887  0.4291E-01  0.2076E+00
     -4.783  0.5024E-01  0.2125E+00
     -4.679  0.4404E-01  0.2178E+00
     -4.575  0.3368E-01  0.2222E+00
     -4.471  0.3184E-01  0.2253E+00
     -4.367  0.3266E-01  0.2286E+00
     -4.263  0.2853E-01  0.2318E+00
     -4.159  0.1982E-01  0.2342E+00
     -4.055  0.1963E-01  0.2361E+00
     -3.951  0.1781E-01  0.2381E+00
     -3.847  0.1885E-01  0.2400E+00
     -3.743  0.1979E-01  0.2420E+00
     -3.639  0.2542E-01  0.2443E+00
     -3.535  0.3785E-01  0.2478E+00
     -3.431  0.3443E-01  0.2516E+00
     -3.328  0.4183E-01  0.2555E+00
     -3.224  0.4761E-01  0.2603E+00
     -3.120  0.5864E-01  0.2660E+00
     -3.016  0.6347E-01  0.2720E+00
     -2.912  0.5783E-01  0.2785E+00
     -2.808  0.5905E-01  0.2845E+00
     -2.704  0.5683E-01  0.2907E+00
     -2.600  0.5677E-01  0.2964E+00
     -2.496  0.6976E-01  0.3029E+00
     -2.392  0.6958E-01  0.3101E+00
     -2.288  0.7019E-01  0.3177E+00
     -2.184  0.6186E-01  0.3243E+00
     -2.080  0.6270E-01  0.3309E+00
     -1.976  0.6740E-01  0.3374E+00
     -1.872  0.6752E-01  0.3443E+00
     -1.768  0.8246E-01  0.3517E+00
     -1.665  0.6583E-01  0.3594E+00
     -1.561  0.6231E-01  0.3660E+00
     -1.457  0.6743E-01  0.3729E+00
     -1.353  0.8409E-01  0.3805E+00
     -1.249  0.8078E-01  0.3893E+00
     -1.145  0.8038E-01  0.3976E+00
     -1.041  0.7411E-01  0.4058E+00
     -0.937  0.7850E-01  0.4134E+00
     -0.833  0.8126E-01  0.4222E+00
     -0.729  0.1015E+00  0.4314E+00
     -0.625  0.8722E-01  0.4417E+00
     -0.521  0.8889E-01  0.4503E+00
     -0.417  0.9212E-01  0.4601E+00
     -0.313  0.8218E-01  0.4696E+00
     -0.209  0.8430E-01  0.4781E+00
     -0.105  0.7106E-01  0.4864E+00
     -0.002  0.7633E-01  0.4937E+00
      0.102  0.7123E-01  0.5015E+00
      0.206  0.8448E-01  0.5096E+00
      0.310  0.7551E-01  0.5182E+00
      0.414  0.7360E-01  0.5262E+00
      0.518  0.7078E-01  0.5336E+00
      0.622  0.7629E-01  0.5413E+00
      0.726  0.8467E-01  0.5497E+00
      0.830  0.7717E-01  0.5588E+00
      0.934  0.6657E-01  0.5657E+00
      1.038  0.7770E-01  0.5734E+00
      1.142  0.7003E-01  0.5813E+00
      1.246  0.6623E-01  0.5884E+00
      1.350  0.5302E-01  0.5949E+00
      1.454  0.5355E-01  0.6007E+00
      1.558  0.5901E-01  0.6071E+00
      1.661  0.6178E-01  0.6132E+00
      1.765  0.6696E-01  0.6203E+00
      1.869  0.6556E-01  0.6273E+00
      1.973  0.8570E-01  0.6350E+00
      2.077  0.7111E-01  0.6430E+00
      2.181  0.8903E-01  0.6513E+00
      2.285  0.8466E-01  0.6603E+00
      2.389  0.1029E+00  0.6704E+00
      2.493  0.1157E+00  0.6811E+00
      2.597  0.1066E+00  0.6922E+00
      2.701  0.9952E-01  0.7027E+00
      2.805  0.1038E+00  0.7136E+00
      2.909  0.1249E+00  0.7252E+00
      3.013  0.1116E+00  0.7370E+00
      3.117  0.1093E+00  0.7486E+00
      3.220  0.1185E+00  0.7605E+00
      3.324  0.1061E+00  0.7718E+00
      3.428  0.1089E+00  0.7840E+00
      3.532  0.1258E+00  0.7958E+00
      3.636  0.1061E+00  0.8082E+00
      3.740  0.1078E+00  0.8197E+00
      3.844  0.1066E+00  0.8311E+00
      3.948  0.9875E-01  0.8420E+00
      4.052  0.1145E+00  0.8527E+00
      4.156  0.1009E+00  0.8635E+00
      4.260  0.1019E+00  0.8746E+00
      4.364  0.8752E-01  0.8852E+00
      4.468  0.8905E-01  0.8944E+00
      4.572  0.8942E-01  0.9040E+00
      4.676  0.7597E-01  0.9125E+00
      4.780  0.9306E-01  0.9205E+00
      4.883  0.7262E-01  0.9295E+00
      4.987  0.6504E-01  0.9361E+00
      5.091  0.6578E-01  0.9429E+00
      5.195  0.4661E-01  0.9483E+00
      5.299  0.2845E-01  0.9521E+00
      5.403  0.2462E-01  0.9549E+00
      5.507  0.2486E-01  0.9574E+00
      5.611  0.1429E-01  0.9596E+00
      5.715  0.0000E+00  0.9600E+00
      5.819  0.0000E+00  0.9600E+00
      5.923  0.0000E+00  0.9600E+00
      6.027  0.0000E+00  0.9600E+00
      6.131  0.0000E+00  0.9600E+00
      6.235  0.0000E+00  0.9600E+00
      6.339  0.0000E+00  0.9600E+00
      6.443  0.0000E+00  0.9600E+00
      6.546  0.0000E+00  0.9600E+00
      6.650  0.4701E-02  0.9601E+00
      6.754  0.1093E-01  0.9609E+00
      6.858  0.2830E-01  0.9627E+00
      6.962  0.4239E-01  0.9666E+00
      7.066  0.6430E-01  0.9717E+00
      7.170  0.3971E-01  0.9780E+00
      7.274  0.9435E-01  0.9833E+00
      7.378  0.7702E-01  0.9931E+00
      7.482  0.4954E-01  0.9991E+00
      7.586  0.6614E-01  0.1005E+01
      7.690  0.6064E-01  0.1013E+01
      7.794  0.5570E-01  0.1019E+01
      7.898  0.5601E-01  0.1024E+01
      8.002  0.7268E-01  0.1031E+01
      8.105  0.4590E-01  0.1038E+01
      8.209  0.0000E+00  0.1040E+01
      8.313  0.0000E+00  0.1040E+01
      8.417  0.0000E+00  0.1040E+01
      8.521  0.0000E+00  0.1040E+01
      8.625  0.0000E+00  0.1040E+01
      8.729  0.0000E+00  0.1040E+01
      8.833  0.0000E+00  0.1040E+01
      8.937  0.9253E-02  0.1040E+01
      9.041  0.1607E-01  0.1042E+01
      9.145  0.2826E-01  0.1044E+01
      9.249  0.3113E-01  0.1047E+01
      9.353  0.2834E-01  0.1050E+01
      9.457  0.2824E-01  0.1053E+01
      9.561  0.3321E-01  0.1056E+01
      9.665  0.3993E-01  0.1060E+01
      9.768  0.5204E-01  0.1065E+01
      9.872  0.4382E-01  0.1070E+01
      9.976  0.4825E-01  0.1075E+01
     10.080  0.4449E-01  0.1080E+01
     10.184  0.4794E-01  0.1084E+01
     10.288  0.3991E-01  0.1089E+01
     10.392  0.4586E-01  0.1093E+01
     10.496  0.6048E-01  0.1099E+01
     10.600  0.5917E-01  0.1105E+01
     10.704  0.6052E-01  0.1111E+01
     10.808  0.6335E-01  0.1118E+01
     10.912  0.6923E-01  0.1125E+01
     11.016  0.6373E-01  0.1132E+01
     11.120  0.6759E-01  0.1138E+01
     11.224  0.7081E-01  0.1146E+01
     11.328  0.6906E-01  0.1153E+01
     11.431  0.6829E-01  0.1160E+01
     11.535  0.8053E-01  0.1168E+01
     11.639  0.8123E-01  0.1177E+01
     11.743  0.7798E-01  0.1185E+01
     11.847  0.7005E-01  0.1193E+01
     11.951  0.6629E-01  0.1200E+01
     12.055  0.6098E-01  0.1207E+01
     12.159  0.5170E-01  0.1213E+01
     12.263  0.4394E-01  0.1218E+01
     12.367  0.5653E-01  0.1223E+01
     12.471  0.6850E-01  0.1230E+01
     12.575  0.4982E-01  0.1235E+01
     12.679  0.6051E-01  0.1241E+01
     12.783  0.6574E-01  0.1248E+01
     12.887  0.5394E-01  0.1254E+01
     12.991  0.5473E-01  0.1260E+01
     13.094  0.5047E-01  0.1266E+01
     13.198  0.5751E-01  0.1271E+01
     13.302  0.6539E-01  0.1278E+01
     13.406  0.8736E-01  0.1286E+01
     13.510  0.9208E-01  0.1295E+01
     13.614  0.8162E-01  0.1304E+01
     13.718  0.7686E-01  0.1312E+01
     13.822  0.8954E-01  0.1321E+01
     13.926  0.8752E-01  0.1330E+01
     14.030  0.1021E+00  0.1339E+01
     14.134  0.8998E-01  0.1349E+01
     14.238  0.9400E-01  0.1359E+01
     14.342  0.1046E+00  0.1369E+01
     14.446  0.1037E+00  0.1380E+01
     14.550  0.9041E-01  0.1390E+01
     14.653  0.1043E+00  0.1400E+01
     14.757  0.1043E+00  0.1410E+01
     14.861  0.9152E-01  0.1421E+01
     14.965  0.6830E-01  0.1429E+01
     15.069  0.3874E-01  0.1434E+01
     15.173  0.3312E-01  0.1439E+01
     15.277  0.1386E-02  0.1440E+01
     15.381  0.0000E+00  0.1440E+01
     15.485  0.0000E+00  0.1440E+01
     15.589  0.0000E+00  0.1440E+01
     15.693  0.0000E+00  0.1440E+01
     15.797  0.0000E+00  0.1440E+01
     15.901  0.0000E+00  0.1440E+01
     16.005  0.0000E+00  0.1440E+01
     16.109  0.0000E+00  0.1440E+01
     16.213  0.0000E+00  0.1440E+01
     16.316  0.0000E+00  0.1440E+01
     16.420  0.0000E+00  0.1440E+01
     16.524  0.0000E+00  0.1440E+01
     16.628  0.0000E+00  0.1440E+01
     16.732  0.0000E+00  0.1440E+01
     16.836  0.0000E+00  0.1440E+01
     16.940  0.0000E+00  0.1440E+01
     17.044  0.0000E+00  0.1440E+01
     17.148  0.0000E+00  0.1440E+01
     17.252  0.0000E+00  0.1440E+01
     17.356  0.0000E+00  0.1440E+01
