       N       E                     dE             d eps       ncg     rms          rms(c)
DAV:   1     0.143800216497E+03    0.14380E+03   -0.41552E+04 57312   0.102E+03
DAV:   2    -0.221012379705E+03   -0.36481E+03   -0.36095E+03 79020   0.199E+02
DAV:   3    -0.228872318035E+03   -0.78599E+01   -0.78407E+01 84672   0.322E+01
DAV:   4    -0.228922461180E+03   -0.50143E-01   -0.50145E-01 79128   0.258E+00
DAV:   5    -0.228923203895E+03   -0.74272E-03   -0.74269E-03 85176   0.296E-01    0.211E+01
DAV:   6    -0.216265643792E+03    0.12658E+02   -0.22298E+01 84780   0.146E+01    0.113E+01
DAV:   7    -0.213884842445E+03    0.23808E+01   -0.68288E+00 85716   0.782E+00    0.539E+00
DAV:   8    -0.213774747062E+03    0.11010E+00   -0.52262E+00 85788   0.482E+00    0.327E+00
DAV:   9    -0.213589105638E+03    0.18564E+00   -0.66797E-01 81216   0.252E+00    0.134E+00
DAV:  10    -0.213583429318E+03    0.56763E-02   -0.36760E-01 85932   0.167E+00    0.748E-01
DAV:  11    -0.213578348987E+03    0.50803E-02   -0.14846E-01 80568   0.917E-01    0.274E-01
DAV:  12    -0.213578002466E+03    0.34652E-03   -0.10621E-02 82728   0.283E-01    0.776E-02
DAV:  13    -0.213578168014E+03   -0.16555E-03   -0.67681E-04 83880   0.918E-02    0.374E-02
DAV:  14    -0.213578148888E+03    0.19125E-04   -0.14203E-04 85320   0.332E-02    0.984E-03
DAV:  15    -0.213578163699E+03   -0.14810E-04   -0.18469E-05 85464   0.143E-02    0.476E-03
DAV:  16    -0.213578162193E+03    0.15054E-05   -0.25159E-06 85176   0.565E-03    0.153E-03
DAV:  17    -0.213578163505E+03   -0.13119E-05   -0.28987E-07 85968   0.178E-03    0.797E-04
DAV:  18    -0.213578162606E+03    0.89930E-06   -0.63946E-08 84168   0.726E-04    0.362E-04
DAV:  19    -0.213578163059E+03   -0.45298E-06   -0.14034E-08 71316   0.338E-04    0.112E-04
DAV:  20    -0.213578163105E+03   -0.45758E-07   -0.17545E-09 66240   0.146E-04    0.103E-04
DAV:  21    -0.213578163090E+03    0.14626E-07   -0.20722E-10 68148   0.547E-05    0.943E-05
DAV:  22    -0.213578163094E+03   -0.42528E-08   -0.41019E-11 64224   0.223E-05
   1 F= -.21357816E+03 E0= -.21357816E+03  d E =0.000000E+00
       N       E                     dE             d eps       ncg     rms          rms(c)
DAV:   1    -0.213578163088E+03    0.21564E-08   -0.70415E-12 63180   0.904E-06    0.922E-05
DAV:   2    -0.213578163090E+03   -0.23520E-08   -0.31547E-12 59904   0.337E-06    0.922E-05
DAV:   3    -0.213578163088E+03    0.19318E-08   -0.69696E-13 57528   0.157E-06    0.922E-05
DAV:   4    -0.213578163089E+03   -0.80490E-09   -0.11046E-12 53640   0.947E-07    0.922E-05
DAV:   5    -0.213578163090E+03   -0.41200E-09    0.80940E-13 51192   0.451E-07    0.922E-05
DAV:   6    -0.213578163090E+03   -0.33651E-09   -0.37665E-13 48564   0.202E-07
   2 F= -.21357816E+03 E0= -.21357816E+03  d E =0.000000E+00
       N       E                     dE             d eps       ncg     rms          rms(c)
DAV:   1    -0.213578163089E+03    0.51841E-09   -0.15863E-12 46584   0.907E-08    0.922E-05
DAV:   2    -0.213578163089E+03   -0.31378E-09    0.59117E-13 45108   0.354E-08    0.922E-05
DAV:   3    -0.213578163089E+03    0.69031E-09    0.33766E-13 43596   0.198E-08    0.922E-05
DAV:   4    -0.213578163089E+03   -0.60118E-09   -0.69155E-13 42084   0.125E-08    0.922E-05
DAV:   5    -0.213578163089E+03   -0.81855E-10   -0.35766E-13 40680   0.617E-09    0.922E-05
DAV:   6    -0.213578163089E+03    0.47567E-09   -0.92992E-13 38520   0.309E-09
   3 F= -.21357816E+03 E0= -.21357816E+03  d E =0.000000E+00
       N       E                     dE             d eps       ncg     rms          rms(c)
DAV:   1    -0.213578163090E+03   -0.65211E-09   -0.24156E-12 37692   0.121E-09    0.922E-05
DAV:   2    -0.213578163089E+03    0.99953E-09   -0.17693E-13 36972   0.733E-10    0.922E-05
DAV:   3    -0.213578163089E+03   -0.23829E-09   -0.11782E-12 36756   0.504E-10    0.922E-05
DAV:   4    -0.213578163090E+03   -0.69122E-09    0.31579E-13 33912   0.307E-10    0.922E-05
DAV:   5    -0.213578163090E+03    0.42201E-09   -0.16852E-12 34740   0.251E-10    0.922E-05
DAV:   6    -0.213578163089E+03    0.63937E-09   -0.20934E-12 33912   0.165E-10
   4 F= -.21357816E+03 E0= -.21357816E+03  d E =0.000000E+00
       N       E                     dE             d eps       ncg     rms          rms(c)
DAV:   1    -0.213578163090E+03   -0.54661E-09   -0.14519E-12 33840   0.184E-10    0.922E-05
DAV:   2    -0.213578163090E+03    0.19372E-09   -0.16465E-12 33408   0.293E-10    0.922E-05
DAV:   3    -0.213578163089E+03    0.98134E-09   -0.15367E-13 33372   0.221E-10    0.922E-05
DAV:   4    -0.213578163090E+03   -0.97134E-09   -0.22466E-12 33012   0.214E-10    0.922E-05
DAV:   5    -0.213578163089E+03    0.96588E-09   -0.45302E-14 32436   0.175E-10    0.922E-05
DAV:   6    -0.213578163089E+03   -0.30195E-09   -0.30266E-12 32148   0.156E-10
   5 F= -.21357816E+03 E0= -.21357816E+03  d E =0.000000E+00
       N       E                     dE             d eps       ncg     rms          rms(c)
DAV:   1    -0.213578163090E+03   -0.96043E-09   -0.13528E-12 31932   0.271E-10    0.922E-05
DAV:   2    -0.213578163090E+03    0.17917E-09   -0.22551E-12 31644   0.156E-10    0.922E-05
DAV:   3    -0.213578163089E+03    0.82673E-09    0.79164E-13 31500   0.178E-10    0.922E-05
DAV:   4    -0.213578163090E+03   -0.71304E-09   -0.22507E-12 31392   0.188E-10    0.922E-05
DAV:   5    -0.213578163090E+03   -0.24647E-09   -0.21224E-12 31212   0.168E-10    0.922E-05
DAV:   6    -0.213578163090E+03    0.17644E-09   -0.93842E-13 31140   0.146E-10
   6 F= -.21357816E+03 E0= -.21357816E+03  d E =0.000000E+00
       N       E                     dE             d eps       ncg     rms          rms(c)
DAV:   1    -0.213578163090E+03    0.28467E-09   -0.10603E-12 31068   0.137E-10    0.922E-05
DAV:   2    -0.213578163089E+03    0.22192E-09   -0.85371E-13 31032   0.194E-10    0.922E-05
DAV:   3    -0.213578163090E+03   -0.63847E-09   -0.18138E-12 30780   0.214E-10    0.922E-05
DAV:   4    -0.213578163090E+03    0.45384E-09   -0.72764E-13 30600   0.156E-10    0.922E-05
DAV:   5    -0.213578163089E+03    0.30286E-09   -0.11809E-12 30528   0.217E-10    0.922E-05
DAV:   6    -0.213578163090E+03   -0.58571E-09   -0.10007E-12 30420   0.177E-10
   7 F= -.21357816E+03 E0= -.21357816E+03  d E =0.000000E+00
       N       E                     dE             d eps       ncg     rms          rms(c)
DAV:   1    -0.213578163089E+03    0.40927E-09    0.27182E-13 30240   0.288E-10    0.922E-05
DAV:   2    -0.213578163089E+03    0.89130E-10   -0.12469E-12 30168   0.455E-10    0.922E-05
DAV:   3    -0.213578163089E+03   -0.22737E-09   -0.63217E-13 30168   0.318E-10    0.922E-05
DAV:   4    -0.213578163090E+03   -0.63301E-09   -0.11971E-12 29808   0.228E-10    0.922E-05
DAV:   5    -0.213578163089E+03    0.16371E-09    0.33983E-13 29736   0.246E-10    0.922E-05
DAV:   6    -0.213578163089E+03    0.66211E-09    0.27947E-13 29484   0.320E-10
   8 F= -.21357816E+03 E0= -.21357816E+03  d E =0.000000E+00
       N       E                     dE             d eps       ncg     rms          rms(c)
DAV:   1    -0.213578163090E+03   -0.20373E-09   -0.13168E-12 29412   0.266E-10    0.922E-05
DAV:   2    -0.213578163089E+03    0.67303E-09   -0.21944E-12 29412   0.238E-10    0.922E-05
DAV:   3    -0.213578163090E+03   -0.89130E-09   -0.63813E-13 29268   0.310E-10    0.922E-05
DAV:   4    -0.213578163089E+03    0.44565E-09   -0.61626E-13 29196   0.270E-10    0.922E-05
DAV:   5    -0.213578163090E+03   -0.50022E-09   -0.12134E-12 29196   0.200E-10    0.922E-05
DAV:   6    -0.213578163089E+03    0.11105E-08   -0.66180E-13 29196   0.244E-10
   9 F= -.21357816E+03 E0= -.21357816E+03  d E =0.000000E+00
       N       E                     dE             d eps       ncg     rms          rms(c)
DAV:   1    -0.213578163089E+03    0.64938E-09   -0.16397E-13 29124   0.227E-10    0.922E-05
DAV:   2    -0.213578163090E+03   -0.37744E-09    0.14222E-13 29088   0.143E-10    0.922E-05
DAV:   3    -0.213578163089E+03    0.63028E-09   -0.14710E-12 29088   0.173E-10    0.922E-05
DAV:   4    -0.213578163090E+03   -0.83310E-09   -0.23152E-12 29088   0.138E-10    0.922E-05
DAV:   5    -0.213578163089E+03    0.58026E-09   -0.72835E-13 29016   0.185E-10    0.922E-05
DAV:   6    -0.213578163090E+03   -0.84219E-09   -0.79048E-13 28908   0.167E-10
  10 F= -.21357816E+03 E0= -.21357816E+03  d E =0.000000E+00
       N       E                     dE             d eps       ncg     rms          rms(c)
DAV:   1    -0.213578163089E+03    0.35288E-09   -0.76030E-13 28872   0.147E-10    0.922E-05
DAV:   2    -0.213578163089E+03   -0.23647E-09   -0.41904E-14 28872   0.239E-10    0.922E-05
DAV:   3    -0.213578163090E+03   -0.50386E-09   -0.15294E-12 28872   0.156E-10    0.922E-05
DAV:   4    -0.213578163089E+03    0.92950E-09    0.43352E-13 28872   0.167E-10    0.922E-05
DAV:   5    -0.213578163089E+03   -0.72760E-09   -0.27357E-14 28872   0.237E-10    0.922E-05
DAV:   6    -0.213578163089E+03   -0.50932E-10   -0.54965E-13 28872   0.225E-10
  11 F= -.21357816E+03 E0= -.21357816E+03  d E =0.000000E+00
       N       E                     dE             d eps       ncg     rms          rms(c)
DAV:   1    -0.213578163090E+03   -0.58390E-09   -0.34559E-13 28872   0.161E-10    0.922E-05
DAV:   2    -0.213578163090E+03    0.38290E-09   -0.26595E-12 28872   0.266E-10    0.922E-05
DAV:   3    -0.213578163090E+03    0.86402E-10   -0.19117E-12 28872   0.233E-10    0.922E-05
DAV:   4    -0.213578163089E+03    0.15643E-09   -0.23140E-12 28872   0.144E-10    0.922E-05
DAV:   5    -0.213578163090E+03   -0.18736E-09   -0.17541E-12 28800   0.149E-10    0.922E-05
DAV:   6    -0.213578163089E+03    0.13824E-09   -0.10652E-12 28764   0.200E-10
  12 F= -.21357816E+03 E0= -.21357816E+03  d E =0.000000E+00
       N       E                     dE             d eps       ncg     rms          rms(c)
DAV:   1    -0.213578163089E+03    0.65847E-09   -0.14993E-12 28764   0.215E-10    0.922E-05
DAV:   2    -0.213578163090E+03   -0.64210E-09   -0.31885E-12 28764   0.464E-10    0.922E-05
DAV:   3    -0.213578163090E+03   -0.29286E-09   -0.21741E-13 28764   0.334E-10    0.922E-05
DAV:   4    -0.213578163090E+03   -0.12005E-09    0.31458E-14 28728   0.148E-10    0.922E-05
DAV:   5    -0.213578163089E+03    0.91950E-09   -0.11174E-12 28656   0.191E-10    0.922E-05
DAV:   6    -0.213578163089E+03   -0.17280E-10   -0.19018E-12 28656   0.206E-10
  13 F= -.21357816E+03 E0= -.21357816E+03  d E =0.000000E+00
       N       E                     dE             d eps       ncg     rms          rms(c)
DAV:   1    -0.213578163089E+03    0.17189E-09   -0.14807E-12 28656   0.253E-10    0.922E-05
DAV:   2    -0.213578163089E+03    0.54570E-11   -0.87303E-13 28656   0.396E-10    0.922E-05
DAV:   3    -0.213578163090E+03   -0.89312E-09   -0.83274E-13 28656   0.265E-10    0.922E-05
DAV:   4    -0.213578163089E+03    0.30832E-09   -0.21158E-12 28656   0.242E-10    0.922E-05
DAV:   5    -0.213578163090E+03   -0.33378E-09   -0.36415E-13 28656   0.277E-10    0.922E-05
DAV:   6    -0.213578163089E+03    0.98680E-09    0.67200E-15 28656   0.201E-10
  14 F= -.21357816E+03 E0= -.21357816E+03  d E =0.000000E+00
       N       E                     dE             d eps       ncg     rms          rms(c)
DAV:   1    -0.213578163089E+03    0.85674E-09   -0.13467E-12 28656   0.142E-10    0.922E-05
DAV:   2    -0.213578163089E+03   -0.30195E-09   -0.59255E-13 28656   0.208E-10    0.922E-05
DAV:   3    -0.213578163090E+03   -0.61755E-09   -0.14460E-12 28656   0.150E-10    0.922E-05
DAV:   4    -0.213578163089E+03    0.88494E-09   -0.16348E-12 28656   0.171E-10    0.922E-05
DAV:   5    -0.213578163089E+03   -0.35834E-09   -0.82349E-13 28656   0.132E-10    0.922E-05
DAV:   6    -0.213578163089E+03    0.46020E-09   -0.14661E-12 28656   0.227E-10
  15 F= -.21357816E+03 E0= -.21357816E+03  d E =0.000000E+00
       N       E                     dE             d eps       ncg     rms          rms(c)
DAV:   1    -0.213578163089E+03   -0.18190E-11   -0.31334E-13 28656   0.232E-10    0.922E-05
DAV:   2    -0.213578163089E+03    0.22919E-09   -0.14178E-12 28656   0.228E-10    0.922E-05
DAV:   3    -0.213578163089E+03    0.21737E-09   -0.17803E-12 28656   0.154E-10    0.922E-05
DAV:   4    -0.213578163090E+03   -0.74488E-09   -0.41994E-13 28656   0.209E-10    0.922E-05
DAV:   5    -0.213578163089E+03    0.77307E-09    0.98339E-13 28656   0.200E-10    0.922E-05
DAV:   6    -0.213578163089E+03   -0.21464E-09   -0.28250E-13 28656   0.137E-10
  16 F= -.21357816E+03 E0= -.21357816E+03  d E =0.000000E+00
       N       E                     dE             d eps       ncg     rms          rms(c)
DAV:   1    -0.213578163090E+03   -0.95224E-09    0.31972E-13 28656   0.271E-10    0.922E-05
DAV:   2    -0.213578163089E+03    0.79854E-09   -0.13282E-12 28656   0.303E-10    0.922E-05
DAV:   3    -0.213578163089E+03   -0.14461E-09   -0.20891E-12 28656   0.233E-10    0.922E-05
DAV:   4    -0.213578163089E+03    0.14643E-09    0.74061E-14 28656   0.241E-10    0.922E-05
DAV:   5    -0.213578163089E+03    0.26648E-09   -0.14864E-12 28656   0.240E-10    0.922E-05
DAV:   6    -0.213578163089E+03   -0.34561E-10   -0.67994E-13 28656   0.157E-10
  17 F= -.21357816E+03 E0= -.21357816E+03  d E =0.000000E+00
       N       E                     dE             d eps       ncg     rms          rms(c)
DAV:   1    -0.213578163090E+03   -0.79490E-09   -0.64621E-13 28656   0.173E-10    0.922E-05
DAV:   2    -0.213578163089E+03    0.11914E-09    0.42622E-13 28656   0.242E-10    0.922E-05
DAV:   3    -0.213578163089E+03    0.91859E-10   -0.16186E-12 28656   0.151E-10    0.922E-05
DAV:   4    -0.213578163090E+03   -0.50568E-09   -0.10416E-13 28656   0.117E-10    0.922E-05
DAV:   5    -0.213578163089E+03    0.65211E-09    0.71304E-13 28656   0.146E-10    0.922E-05
DAV:   6    -0.213578163089E+03    0.26284E-09   -0.13507E-12 28656   0.223E-10
  18 F= -.21357816E+03 E0= -.21357816E+03  d E =0.000000E+00
       N       E                     dE             d eps       ncg     rms          rms(c)
DAV:   1    -0.213578163089E+03    0.30013E-10    0.44525E-13 28656   0.217E-10    0.922E-05
DAV:   2    -0.213578163090E+03   -0.44565E-09   -0.87526E-13 28656   0.210E-10    0.922E-05
DAV:   3    -0.213578163089E+03    0.88494E-09   -0.12033E-12 28656   0.148E-10    0.922E-05
DAV:   4    -0.213578163089E+03   -0.42837E-09   -0.82117E-13 28656   0.262E-10    0.922E-05
DAV:   5    -0.213578163090E+03   -0.48749E-09   -0.45616E-14 28656   0.236E-10    0.922E-05
DAV:   6    -0.213578163089E+03    0.52933E-09   -0.24004E-13 28656   0.138E-10
  19 F= -.21357816E+03 E0= -.21357816E+03  d E =0.000000E+00
       N       E                     dE             d eps       ncg     rms          rms(c)
DAV:   1    -0.213578163089E+03    0.68394E-09   -0.15406E-12 28656   0.160E-10    0.922E-05
DAV:   2    -0.213578163089E+03   -0.36925E-09    0.56227E-14 28656   0.285E-10    0.922E-05
DAV:   3    -0.213578163089E+03    0.37289E-09   -0.18919E-12 28656   0.284E-10    0.922E-05
DAV:   4    -0.213578163090E+03   -0.89130E-09   -0.38632E-14 28656   0.194E-10    0.922E-05
DAV:   5    -0.213578163089E+03    0.90495E-09    0.61909E-13 28656   0.116E-10    0.922E-05
DAV:   6    -0.213578163090E+03   -0.58935E-09   -0.48758E-13 28656   0.138E-10
  20 F= -.21357816E+03 E0= -.21357816E+03  d E =0.000000E+00
       N       E                     dE             d eps       ncg     rms          rms(c)
DAV:   1    -0.213578163090E+03   -0.94860E-09    0.41517E-13 28656   0.263E-10    0.922E-05
DAV:   2    -0.213578163090E+03    0.19099E-10   -0.45311E-13 28656   0.496E-10    0.922E-05
DAV:   3    -0.213578163090E+03    0.42746E-10   -0.19254E-12 28656   0.328E-10    0.922E-05
DAV:   4    -0.213578163089E+03    0.41109E-09   -0.12463E-12 28656   0.250E-10    0.922E-05
DAV:   5    -0.213578163089E+03    0.18372E-09   -0.19382E-12 28656   0.230E-10    0.922E-05
DAV:   6    -0.213578163090E+03   -0.63210E-09   -0.11379E-12 28656   0.171E-10
  21 F= -.21357816E+03 E0= -.21357816E+03  d E =0.000000E+00
       N       E                     dE             d eps       ncg     rms          rms(c)
DAV:   1    -0.213578163090E+03   -0.38381E-09   -0.19812E-12 28656   0.243E-10    0.922E-05
DAV:   2    -0.213578163089E+03    0.91859E-10   -0.15479E-12 28656   0.232E-10    0.922E-05
DAV:   3    -0.213578163089E+03    0.67303E-09   -0.50409E-13 28656   0.166E-10    0.922E-05
DAV:   4    -0.213578163090E+03   -0.68940E-09   -0.12988E-12 28656   0.271E-10    0.922E-05
DAV:   5    -0.213578163089E+03    0.51205E-09   -0.16556E-12 28656   0.232E-10    0.922E-05
DAV:   6    -0.213578163089E+03   -0.17280E-09   -0.38860E-13 28656   0.168E-10
  22 F= -.21357816E+03 E0= -.21357816E+03  d E =0.000000E+00
       N       E                     dE             d eps       ncg     rms          rms(c)
DAV:   1    -0.213578163090E+03   -0.73123E-09   -0.58003E-13 28656   0.187E-10    0.922E-05
DAV:   2    -0.213578163090E+03    0.89130E-10    0.83158E-13 28656   0.243E-10    0.922E-05
DAV:   3    -0.213578163089E+03    0.29286E-09   -0.13884E-12 28656   0.362E-10    0.922E-05
DAV:   4    -0.213578163090E+03   -0.17280E-09   -0.56181E-13 28656   0.337E-10    0.922E-05
DAV:   5    -0.213578163089E+03    0.68212E-09   -0.74607E-13 28656   0.137E-10    0.922E-05
DAV:   6    -0.213578163090E+03   -0.86402E-09   -0.17697E-12 28656   0.199E-10
  23 F= -.21357816E+03 E0= -.21357816E+03  d E =0.000000E+00
       N       E                     dE             d eps       ncg     rms          rms(c)
DAV:   1    -0.213578163090E+03   -0.98589E-09   -0.13003E-12 28656   0.130E-10    0.922E-05
DAV:   2    -0.213578163090E+03    0.25648E-09   -0.26632E-12 28656   0.271E-10    0.922E-05
DAV:   3    -0.213578163089E+03    0.78126E-09   -0.11258E-12 28656   0.251E-10    0.922E-05
DAV:   4    -0.213578163089E+03   -0.25193E-09   -0.15444E-12 28656   0.133E-10    0.922E-05
DAV:   5    -0.213578163090E+03   -0.73032E-09   -0.17011E-12 28656   0.183E-10    0.922E-05
DAV:   6    -0.213578163089E+03    0.98498E-09   -0.25971E-12 28656   0.135E-10
  24 F= -.21357816E+03 E0= -.21357816E+03  d E =0.000000E+00
       N       E                     dE             d eps       ncg     rms          rms(c)
DAV:   1    -0.213578163089E+03    0.82218E-09   -0.19394E-13 28656   0.165E-10    0.922E-05
DAV:   2    -0.213578163089E+03   -0.29559E-09   -0.21585E-12 28656   0.367E-10    0.922E-05
DAV:   3    -0.213578163090E+03   -0.79490E-09   -0.13319E-12 28656   0.236E-10    0.922E-05
DAV:   4    -0.213578163090E+03    0.30741E-09   -0.12310E-12 28656   0.222E-10    0.922E-05
DAV:   5    -0.213578163089E+03    0.51932E-09    0.53714E-13 28656   0.196E-10    0.922E-05
DAV:   6    -0.213578163089E+03   -0.45475E-11   -0.65079E-13 28656   0.201E-10
  25 F= -.21357816E+03 E0= -.21357816E+03  d E =0.000000E+00
       N       E                     dE             d eps       ncg     rms          rms(c)
DAV:   1    -0.213578163090E+03   -0.52114E-09   -0.11336E-12 28656   0.146E-10    0.922E-05
DAV:   2    -0.213578163090E+03    0.14188E-09   -0.10641E-12 28656   0.282E-10    0.922E-05
DAV:   3    -0.213578163089E+03    0.45384E-09   -0.22921E-12 28656   0.209E-10    0.922E-05
DAV:   4    -0.213578163090E+03   -0.81218E-09   -0.39141E-13 28656   0.128E-10    0.922E-05
DAV:   5    -0.213578163089E+03    0.57025E-09   -0.85868E-13 28656   0.158E-10    0.922E-05
DAV:   6    -0.213578163089E+03    0.46202E-09   -0.22733E-12 28656   0.213E-10
  26 F= -.21357816E+03 E0= -.21357816E+03  d E =0.000000E+00
       N       E                     dE             d eps       ncg     rms          rms(c)
DAV:   1    -0.213578163089E+03    0.36016E-09   -0.74336E-13 28656   0.106E-10    0.922E-05
DAV:   2    -0.213578163090E+03   -0.10386E-08   -0.67102E-13 28656   0.294E-10    0.922E-05
DAV:   3    -0.213578163089E+03    0.80490E-09   -0.34575E-13 28656   0.307E-10    0.922E-05
DAV:   4    -0.213578163089E+03    0.47385E-09   -0.21385E-12 28656   0.218E-10    0.922E-05
DAV:   5    -0.213578163089E+03   -0.42110E-09   -0.53380E-13 28656   0.216E-10    0.922E-05
DAV:   6    -0.213578163090E+03   -0.36653E-09   -0.89057E-13 28656   0.212E-10
  27 F= -.21357816E+03 E0= -.21357816E+03  d E =0.000000E+00
       N       E                     dE             d eps       ncg     rms          rms(c)
DAV:   1    -0.213578163090E+03   -0.32469E-09   -0.95257E-13 28656   0.126E-10    0.922E-05
DAV:   2    -0.213578163089E+03    0.17280E-09   -0.24654E-13 28656   0.456E-10    0.922E-05
DAV:   3    -0.213578163090E+03   -0.40836E-09   -0.18712E-12 28656   0.241E-10    0.922E-05
DAV:   4    -0.213578163090E+03    0.24193E-09   -0.15133E-12 28656   0.317E-10    0.922E-05
DAV:   5    -0.213578163090E+03   -0.44020E-09   -0.36524E-13 28656   0.400E-10    0.922E-05
DAV:   6    -0.213578163090E+03    0.20373E-09   -0.15576E-12 28656   0.122E-10
  28 F= -.21357816E+03 E0= -.21357816E+03  d E =0.000000E+00
       N       E                     dE             d eps       ncg     rms          rms(c)
DAV:   1    -0.213578163090E+03   -0.47294E-10   -0.12897E-12 28656   0.146E-10    0.922E-05
DAV:   2    -0.213578163089E+03    0.11059E-08   -0.84063E-13 28656   0.330E-10    0.922E-05
DAV:   3    -0.213578163089E+03   -0.94587E-10   -0.34013E-13 28656   0.379E-10    0.922E-05
DAV:   4    -0.213578163089E+03   -0.42019E-09   -0.60194E-13 28656   0.196E-10    0.922E-05
DAV:   5    -0.213578163090E+03   -0.43838E-09   -0.17244E-12 28656   0.212E-10    0.922E-05
DAV:   6    -0.213578163090E+03   -0.79126E-10   -0.20152E-12 28656   0.339E-10
  29 F= -.21357816E+03 E0= -.21357816E+03  d E =0.000000E+00
       N       E                     dE             d eps       ncg     rms          rms(c)
DAV:   1    -0.213578163089E+03    0.88221E-09   -0.21608E-12 28656   0.144E-10    0.922E-05
DAV:   2    -0.213578163089E+03   -0.27103E-09   -0.16354E-12 28656   0.346E-10    0.922E-05
DAV:   3    -0.213578163089E+03   -0.15643E-09   -0.17403E-12 28656   0.193E-10    0.922E-05
DAV:   4    -0.213578163089E+03    0.50204E-09    0.11338E-12 28656   0.173E-10    0.922E-05
DAV:   5    -0.213578163089E+03   -0.50841E-09   -0.16654E-12 28656   0.283E-10    0.922E-05
DAV:   6    -0.213578163090E+03   -0.26102E-09   -0.58698E-13 28656   0.155E-10
  30 F= -.21357816E+03 E0= -.21357816E+03  d E =0.000000E+00
       N       E                     dE             d eps       ncg     rms          rms(c)
DAV:   1    -0.213578163089E+03    0.53569E-09   -0.11565E-12 28656   0.224E-10    0.922E-05
DAV:   2    -0.213578163089E+03    0.16189E-09   -0.44214E-13 28656   0.340E-10    0.922E-05
DAV:   3    -0.213578163090E+03   -0.96134E-09   -0.70371E-13 28656   0.154E-10    0.922E-05
DAV:   4    -0.213578163090E+03   -0.27285E-11   -0.47170E-13 28656   0.234E-10    0.922E-05
DAV:   5    -0.213578163090E+03   -0.13551E-09   -0.14107E-12 28656   0.213E-10    0.922E-05
DAV:   6    -0.213578163089E+03    0.77671E-09   -0.51508E-13 28656   0.191E-10
  31 F= -.21357816E+03 E0= -.21357816E+03  d E =0.000000E+00
       N       E                     dE             d eps       ncg     rms          rms(c)
DAV:   1    -0.213578163089E+03    0.98134E-09    0.47298E-15 28656   0.105E-10    0.922E-05
DAV:   2    -0.213578163089E+03   -0.68212E-10   -0.82627E-13 28656   0.139E-10    0.922E-05
DAV:   3    -0.213578163089E+03    0.10004E-10   -0.38213E-13 28656   0.188E-10    0.922E-05
DAV:   4    -0.213578163090E+03   -0.93041E-09   -0.65245E-13 28656   0.172E-10    0.922E-05
DAV:   5    -0.213578163089E+03    0.96406E-09   -0.29646E-13 28656   0.176E-10    0.922E-05
DAV:   6    -0.213578163090E+03   -0.12087E-08   -0.96712E-13 28656   0.179E-10
  32 F= -.21357816E+03 E0= -.21357816E+03  d E =0.000000E+00
       N       E                     dE             d eps       ncg     rms          rms(c)
DAV:   1    -0.213578163090E+03   -0.88494E-09    0.78136E-13 28656   0.129E-10    0.922E-05
DAV:   2    -0.213578163089E+03    0.92223E-09   -0.17816E-12 28656   0.374E-10    0.922E-05
DAV:   3    -0.213578163090E+03   -0.10496E-08   -0.11678E-12 28656   0.329E-10    0.922E-05
DAV:   4    -0.213578163090E+03   -0.17099E-09   -0.12657E-12 28656   0.153E-10    0.922E-05
DAV:   5    -0.213578163089E+03    0.67121E-09   -0.77928E-13 28656   0.174E-10    0.922E-05
DAV:   6    -0.213578163089E+03    0.28922E-09   -0.12254E-12 28656   0.270E-10
  33 F= -.21357816E+03 E0= -.21357816E+03  d E =0.000000E+00
       N       E                     dE             d eps       ncg     rms          rms(c)
DAV:   1    -0.213578163089E+03   -0.76398E-10   -0.57762E-13 28656   0.173E-10    0.922E-05
DAV:   2    -0.213578163090E+03   -0.53842E-09   -0.10369E-12 28656   0.264E-10    0.922E-05
DAV:   3    -0.213578163089E+03    0.99681E-09   -0.95749E-13 28656   0.158E-10    0.922E-05
DAV:   4    -0.213578163090E+03   -0.74033E-09   -0.39975E-13 28656   0.199E-10    0.922E-05
DAV:   5    -0.213578163089E+03    0.63483E-09   -0.60968E-13 28656   0.314E-10    0.922E-05
DAV:   6    -0.213578163090E+03   -0.10114E-08   -0.12398E-12 28656   0.231E-10
  34 F= -.21357816E+03 E0= -.21357816E+03  d E =0.000000E+00
       N       E                     dE             d eps       ncg     rms          rms(c)
DAV:   1    -0.213578163089E+03   -0.90949E-10   -0.74675E-13 28656   0.143E-10    0.922E-05
DAV:   2    -0.213578163090E+03   -0.52205E-09   -0.48329E-13 28656   0.276E-10    0.922E-05
DAV:   3    -0.213578163089E+03    0.55843E-09   -0.15485E-12 28656   0.328E-10    0.922E-05
DAV:   4    -0.213578163089E+03    0.35834E-09   -0.78045E-13 28656   0.182E-10    0.922E-05
DAV:   5    -0.213578163089E+03   -0.33469E-09   -0.27486E-12 28656   0.205E-10    0.922E-05
DAV:   6    -0.213578163090E+03   -0.87493E-09   -0.68867E-13 28656   0.137E-10
  35 F= -.21357816E+03 E0= -.21357816E+03  d E =0.000000E+00
       N       E                     dE             d eps       ncg     rms          rms(c)
DAV:   1    -0.213578163089E+03   -0.18190E-11    0.13590E-12 28656   0.126E-10    0.922E-05
DAV:   2    -0.213578163090E+03   -0.63937E-09   -0.47448E-13 28656   0.236E-10    0.922E-05
DAV:   3    -0.213578163090E+03    0.72760E-11   -0.48808E-13 28656   0.177E-10    0.922E-05
DAV:   4    -0.213578163090E+03   -0.25648E-09   -0.98932E-13 28656   0.146E-10    0.922E-05
DAV:   5    -0.213578163090E+03    0.20373E-09    0.30064E-13 28656   0.382E-10    0.922E-05
DAV:   6    -0.213578163090E+03   -0.18827E-09    0.35307E-13 28656   0.196E-10
  36 F= -.21357816E+03 E0= -.21357816E+03  d E =0.000000E+00
       N       E                     dE             d eps       ncg     rms          rms(c)
DAV:   1    -0.213578163090E+03   -0.82764E-10    0.54377E-13 28656   0.208E-10    0.922E-05
DAV:   2    -0.213578163090E+03   -0.81855E-10   -0.28203E-13 28656   0.342E-10    0.922E-05
DAV:   3    -0.213578163089E+03    0.94042E-09    0.37215E-14 28656   0.237E-10    0.922E-05
DAV:   4    -0.213578163090E+03   -0.74124E-09   -0.10679E-12 28656   0.197E-10    0.922E-05
DAV:   5    -0.213578163089E+03    0.58299E-09   -0.18110E-12 28656   0.296E-10    0.922E-05
DAV:   6    -0.213578163089E+03    0.90949E-10   -0.52321E-13 28656   0.312E-10
  37 F= -.21357816E+03 E0= -.21357816E+03  d E =0.000000E+00
       N       E                     dE             d eps       ncg     rms          rms(c)
DAV:   1    -0.213578163089E+03   -0.28922E-09   -0.29174E-13 28656   0.174E-10    0.922E-05
DAV:   2    -0.213578163090E+03   -0.76398E-10    0.55052E-13 28656   0.363E-10    0.922E-05
DAV:   3    -0.213578163089E+03    0.72214E-09   -0.14280E-12 28656   0.220E-10    0.922E-05
DAV:   4    -0.213578163090E+03   -0.11278E-08   -0.22743E-12 28656   0.190E-10    0.922E-05
DAV:   5    -0.213578163089E+03    0.90040E-09   -0.57570E-13 28656   0.220E-10    0.922E-05
DAV:   6    -0.213578163090E+03   -0.70759E-09   -0.31996E-13 28656   0.134E-10
  38 F= -.21357816E+03 E0= -.21357816E+03  d E =0.000000E+00
       N       E                     dE             d eps       ncg     rms          rms(c)
DAV:   1    -0.213578163089E+03   -0.26193E-09   -0.13369E-12 28656   0.176E-10    0.922E-05
DAV:   2    -0.213578163089E+03    0.34925E-09   -0.89286E-13 28656   0.189E-10    0.922E-05
DAV:   3    -0.213578163089E+03   -0.50022E-10    0.92300E-14 28656   0.160E-10    0.922E-05
DAV:   4    -0.213578163090E+03   -0.77125E-09   -0.89557E-13 28656   0.219E-10    0.922E-05
DAV:   5    -0.213578163089E+03    0.85038E-09   -0.10947E-12 28656   0.311E-10    0.922E-05
DAV:   6    -0.213578163089E+03   -0.50022E-09   -0.22360E-13 28656   0.208E-10
  39 F= -.21357816E+03 E0= -.21357816E+03  d E =0.000000E+00
       N       E                     dE             d eps       ncg     rms          rms(c)
DAV:   1    -0.213578163090E+03   -0.58481E-09    0.76253E-13 28656   0.285E-10    0.922E-05
DAV:   2    -0.213578163090E+03   -0.90040E-10   -0.72762E-13 28656   0.223E-10    0.922E-05
DAV:   3    -0.213578163089E+03    0.55115E-09   -0.15685E-12 28656   0.207E-10    0.922E-05
DAV:   4    -0.213578163090E+03   -0.98044E-09   -0.11698E-12 28656   0.340E-10    0.922E-05
DAV:   5    -0.213578163090E+03    0.38017E-09    0.29102E-13 28656   0.278E-10    0.922E-05
DAV:   6    -0.213578163089E+03    0.50750E-09   -0.10641E-12 28656   0.182E-10
  40 F= -.21357816E+03 E0= -.21357816E+03  d E =0.000000E+00
       N       E                     dE             d eps       ncg     rms          rms(c)
DAV:   1    -0.213578163090E+03   -0.18190E-10   -0.88693E-13 28656   0.349E-10    0.922E-05
DAV:   2    -0.213578163089E+03    0.57298E-09   -0.15737E-12 28656   0.238E-10    0.922E-05
DAV:   3    -0.213578163090E+03   -0.82400E-09   -0.13786E-12 28656   0.151E-10    0.922E-05
DAV:   4    -0.213578163090E+03   -0.12369E-09    0.43997E-13 28656   0.165E-10    0.922E-05
DAV:   5    -0.213578163089E+03    0.12587E-08   -0.12694E-12 28656   0.127E-10    0.922E-05
DAV:   6    -0.213578163089E+03   -0.26193E-09   -0.25088E-13 28656   0.154E-10
  41 F= -.21357816E+03 E0= -.21357816E+03  d E =0.000000E+00
       N       E                     dE             d eps       ncg     rms          rms(c)
DAV:   1    -0.213578163090E+03   -0.11842E-08   -0.39253E-13 28656   0.240E-10    0.922E-05
DAV:   2    -0.213578163089E+03    0.11823E-08   -0.95081E-13 28656   0.249E-10    0.922E-05
DAV:   3    -0.213578163090E+03   -0.85220E-09   -0.61414E-14 28656   0.274E-10    0.922E-05
DAV:   4    -0.213578163089E+03    0.84856E-09   -0.16686E-12 28656   0.122E-10    0.922E-05
DAV:   5    -0.213578163089E+03   -0.66029E-09   -0.15411E-12 28656   0.182E-10    0.922E-05
DAV:   6    -0.213578163089E+03    0.13097E-09   -0.80952E-13 28656   0.203E-10
  42 F= -.21357816E+03 E0= -.21357816E+03  d E =0.000000E+00
       N       E                     dE             d eps       ncg     rms          rms(c)
DAV:   1    -0.213578163090E+03   -0.11914E-09   -0.48298E-13 28656   0.353E-10    0.922E-05
DAV:   2    -0.213578163090E+03   -0.27649E-09    0.10703E-12 28656   0.206E-10    0.922E-05
DAV:   3    -0.213578163089E+03    0.77853E-09   -0.17499E-12 28656   0.159E-10    0.922E-05
DAV:   4    -0.213578163089E+03    0.12824E-09   -0.14300E-12 28656   0.241E-10    0.922E-05
DAV:   5    -0.213578163089E+03   -0.39381E-09   -0.29064E-12 28656   0.172E-10    0.922E-05
DAV:   6    -0.213578163089E+03   -0.24556E-10   -0.17197E-12 28656   0.115E-10
  43 F= -.21357816E+03 E0= -.21357816E+03  d E =0.000000E+00
       N       E                     dE             d eps       ncg     rms          rms(c)
DAV:   1    -0.213578163089E+03    0.19918E-09   -0.15381E-12 28656   0.201E-10    0.922E-05
DAV:   2    -0.213578163089E+03   -0.17735E-09   -0.16083E-12 28656   0.342E-10    0.922E-05
DAV:   3    -0.213578163090E+03   -0.66302E-09    0.19859E-13 28656   0.378E-10    0.922E-05
DAV:   4    -0.213578163090E+03    0.47021E-09   -0.69298E-13 28656   0.174E-10    0.922E-05
DAV:   5    -0.213578163090E+03   -0.46384E-10   -0.11404E-12 28656   0.234E-10    0.922E-05
DAV:   6    -0.213578163089E+03    0.92768E-10   -0.11117E-12 28656   0.145E-10
  44 F= -.21357816E+03 E0= -.21357816E+03  d E =0.000000E+00
       N       E                     dE             d eps       ncg     rms          rms(c)
DAV:   1    -0.213578163089E+03    0.42746E-09   -0.91598E-13 28656   0.245E-10    0.922E-05
DAV:   2    -0.213578163089E+03    0.21100E-09    0.27094E-13 28656   0.297E-10    0.922E-05
DAV:   3    -0.213578163090E+03   -0.10587E-08   -0.65703E-13 28656   0.251E-10    0.922E-05
DAV:   4    -0.213578163089E+03    0.12242E-08   -0.65896E-13 28656   0.218E-10    0.922E-05
DAV:   5    -0.213578163089E+03   -0.27921E-09   -0.54038E-13 28656   0.219E-10    0.922E-05
DAV:   6    -0.213578163089E+03    0.52751E-10    0.16934E-13 28656   0.209E-10
  45 F= -.21357816E+03 E0= -.21357816E+03  d E =0.000000E+00
       N       E                     dE             d eps       ncg     rms          rms(c)
DAV:   1    -0.213578163089E+03    0.30104E-09    0.10959E-13 28656   0.202E-10    0.922E-05
DAV:   2    -0.213578163089E+03   -0.20646E-09   -0.92383E-13 28656   0.298E-10    0.922E-05
DAV:   3    -0.213578163089E+03   -0.48840E-09   -0.74436E-13 28656   0.342E-10    0.922E-05
DAV:   4    -0.213578163089E+03    0.68212E-09    0.52039E-13 28656   0.219E-10    0.922E-05
DAV:   5    -0.213578163089E+03   -0.45566E-09   -0.19601E-13 28656   0.233E-10    0.922E-05
DAV:   6    -0.213578163089E+03    0.52751E-10    0.54309E-13 28656   0.133E-10
  46 F= -.21357816E+03 E0= -.21357816E+03  d E =0.000000E+00
       N       E                     dE             d eps       ncg     rms          rms(c)
DAV:   1    -0.213578163090E+03   -0.50295E-09    0.85713E-13 28656   0.142E-10    0.922E-05
DAV:   2    -0.213578163089E+03    0.29013E-09    0.40879E-13 28656   0.420E-10    0.922E-05
DAV:   3    -0.213578163089E+03    0.42110E-09   -0.55210E-13 28656   0.351E-10    0.922E-05
DAV:   4    -0.213578163089E+03   -0.26466E-09   -0.17309E-13 28656   0.250E-10    0.922E-05
DAV:   5    -0.213578163089E+03    0.36107E-09   -0.38912E-13 28656   0.173E-10    0.922E-05
DAV:   6    -0.213578163090E+03   -0.68030E-09   -0.29584E-13 28656   0.159E-10
  47 F= -.21357816E+03 E0= -.21357816E+03  d E =0.000000E+00
       N       E                     dE             d eps       ncg     rms          rms(c)
DAV:   1    -0.213578163089E+03    0.13097E-09   -0.42651E-13 28656   0.285E-10    0.922E-05
DAV:   2    -0.213578163089E+03   -0.47294E-09   -0.27190E-12 28656   0.546E-10    0.922E-05
DAV:   3    -0.213578163089E+03    0.33288E-09   -0.11841E-12 28656   0.401E-10    0.922E-05
DAV:   4    -0.213578163090E+03   -0.58571E-09    0.16661E-13 28656   0.177E-10    0.922E-05
DAV:   5    -0.213578163089E+03    0.53296E-09   -0.27148E-13 28656   0.300E-10    0.922E-05
DAV:   6    -0.213578163090E+03   -0.74306E-09   -0.77969E-13 28656   0.187E-10
  48 F= -.21357816E+03 E0= -.21357816E+03  d E =0.000000E+00
       N       E                     dE             d eps       ncg     rms          rms(c)
DAV:   1    -0.213578163089E+03    0.24284E-09    0.24120E-14 28656   0.148E-10    0.922E-05
DAV:   2    -0.213578163089E+03   -0.72851E-09   -0.46711E-13 28656   0.191E-10    0.922E-05
DAV:   3    -0.213578163089E+03    0.22192E-09   -0.36238E-14 28656   0.289E-10    0.922E-05
DAV:   4    -0.213578163089E+03    0.52569E-09   -0.10670E-12 28656   0.194E-10    0.922E-05
DAV:   5    -0.213578163089E+03   -0.58481E-09    0.13162E-13 28656   0.145E-10    0.922E-05
DAV:   6    -0.213578163089E+03    0.19099E-10   -0.11561E-12 28656   0.210E-10
  49 F= -.21357816E+03 E0= -.21357816E+03  d E =0.000000E+00
       N       E                     dE             d eps       ncg     rms          rms(c)
DAV:   1    -0.213578163090E+03   -0.28103E-09   -0.12124E-12 28656   0.147E-10    0.922E-05
DAV:   2    -0.213578163090E+03   -0.23556E-09   -0.16779E-12 28656   0.353E-10    0.922E-05
DAV:   3    -0.213578163090E+03   -0.13370E-09   -0.12713E-12 28656   0.249E-10    0.922E-05
DAV:   4    -0.213578163089E+03    0.60027E-09   -0.22257E-12 28656   0.265E-10    0.922E-05
DAV:   5    -0.213578163089E+03    0.33288E-09   -0.96643E-13 28656   0.183E-10    0.922E-05
DAV:   6    -0.213578163090E+03   -0.94042E-09   -0.13283E-12 28656   0.281E-10
  50 F= -.21357816E+03 E0= -.21357816E+03  d E =0.000000E+00
       N       E                     dE             d eps       ncg     rms          rms(c)
DAV:   1    -0.213578163089E+03   -0.46020E-09   -0.11535E-12 28656   0.262E-10    0.922E-05
DAV:   2    -0.213578163090E+03   -0.97316E-10   -0.88795E-13 28656   0.177E-10    0.922E-05
DAV:   3    -0.213578163089E+03    0.12096E-09   -0.22990E-12 28656   0.108E-10    0.922E-05
DAV:   4    -0.213578163089E+03    0.46384E-10    0.18505E-13 28656   0.280E-10    0.922E-05
DAV:   5    -0.213578163090E+03   -0.57753E-09    0.27862E-13 28656   0.207E-10    0.922E-05
DAV:   6    -0.213578163089E+03    0.62209E-09   -0.11146E-12 28656   0.235E-10
  51 F= -.21357816E+03 E0= -.21357816E+03  d E =0.000000E+00
       N       E                     dE             d eps       ncg     rms          rms(c)
DAV:   1    -0.213578163089E+03    0.11169E-08   -0.12738E-12 28656   0.180E-10    0.922E-05
DAV:   2    -0.213578163089E+03   -0.41655E-09   -0.90201E-13 28656   0.422E-10    0.922E-05
DAV:   3    -0.213578163090E+03   -0.70850E-09   -0.13317E-12 28656   0.242E-10    0.922E-05
DAV:   4    -0.213578163089E+03    0.99226E-09    0.89487E-13 28656   0.225E-10    0.922E-05
DAV:   5    -0.213578163090E+03   -0.85856E-09   -0.18377E-12 28656   0.253E-10    0.922E-05
DAV:   6    -0.213578163089E+03    0.99953E-09   -0.91978E-13 28656   0.196E-10
  52 F= -.21357816E+03 E0= -.21357816E+03  d E =0.000000E+00
       N       E                     dE             d eps       ncg     rms          rms(c)
DAV:   1    -0.213578163089E+03    0.87130E-09    0.33322E-13 28656   0.142E-10    0.922E-05
DAV:   2    -0.213578163089E+03    0.14006E-09    0.14583E-13 28656   0.201E-10    0.922E-05
DAV:   3    -0.213578163090E+03   -0.89130E-09   -0.51168E-13 28656   0.166E-10    0.922E-05
DAV:   4    -0.213578163090E+03    0.20555E-09   -0.78918E-14 28656   0.198E-10    0.922E-05
DAV:   5    -0.213578163090E+03   -0.34561E-10   -0.35750E-13 28656   0.146E-10    0.922E-05
DAV:   6    -0.213578163089E+03    0.68576E-09   -0.35806E-13 28656   0.169E-10
  53 F= -.21357816E+03 E0= -.21357816E+03  d E =0.000000E+00
       N       E                     dE             d eps       ncg     rms          rms(c)
DAV:   1    -0.213578163089E+03    0.51568E-09   -0.42822E-13 28656   0.138E-10    0.922E-05
DAV:   2    -0.213578163089E+03   -0.28103E-09   -0.19612E-12 28656   0.173E-10    0.922E-05
DAV:   3    -0.213578163090E+03   -0.42201E-09   -0.41328E-13 28656   0.248E-10    0.922E-05
DAV:   4    -0.213578163090E+03    0.16098E-09   -0.10248E-12 28656   0.163E-10    0.922E-05
DAV:   5    -0.213578163089E+03    0.70031E-09    0.49928E-13 28656   0.237E-10    0.922E-05
DAV:   6    -0.213578163090E+03   -0.10414E-08   -0.70536E-13 28656   0.146E-10
  54 F= -.21357816E+03 E0= -.21357816E+03  d E =0.000000E+00
       N       E                     dE             d eps       ncg     rms          rms(c)
DAV:   1    -0.213578163089E+03   -0.33378E-09   -0.30393E-13 28656   0.233E-10    0.922E-05
DAV:   2    -0.213578163090E+03   -0.77489E-09    0.11203E-12 28656   0.317E-10    0.922E-05
DAV:   3    -0.213578163090E+03   -0.24556E-10   -0.13844E-12 28656   0.177E-10    0.922E-05
DAV:   4    -0.213578163089E+03    0.59208E-09   -0.54137E-13 28656   0.218E-10    0.922E-05
DAV:   5    -0.213578163090E+03   -0.34106E-09    0.95706E-14 28656   0.166E-10    0.922E-05
DAV:   6    -0.213578163089E+03    0.90131E-09   -0.68520E-13 28656   0.249E-10
  55 F= -.21357816E+03 E0= -.21357816E+03  d E =0.000000E+00
       N       E                     dE             d eps       ncg     rms          rms(c)
DAV:   1    -0.213578163089E+03    0.39199E-09   -0.89893E-13 28656   0.155E-10    0.922E-05
DAV:   2    -0.213578163089E+03    0.67303E-10   -0.36066E-13 28656   0.167E-10    0.922E-05
DAV:   3    -0.213578163090E+03   -0.25648E-09   -0.49519E-13 28656   0.142E-10    0.922E-05
DAV:   4    -0.213578163090E+03   -0.17826E-09   -0.55613E-13 28656   0.190E-10    0.922E-05
DAV:   5    -0.213578163089E+03    0.62482E-09    0.84420E-13 28656   0.154E-10    0.922E-05
DAV:   6    -0.213578163090E+03   -0.87766E-09   -0.85309E-13 28656   0.137E-10
  56 F= -.21357816E+03 E0= -.21357816E+03  d E =0.000000E+00
       N       E                     dE             d eps       ncg     rms          rms(c)
DAV:   1    -0.213578163089E+03    0.38199E-10   -0.10059E-12 28656   0.143E-10    0.922E-05
DAV:   2    -0.213578163089E+03   -0.31741E-09    0.32200E-14 28656   0.313E-10    0.922E-05
DAV:   3    -0.213578163089E+03    0.19736E-09   -0.27019E-13 28656   0.155E-10    0.922E-05
DAV:   4    -0.213578163089E+03    0.28285E-09   -0.29041E-13 28656   0.258E-10    0.922E-05
DAV:   5    -0.213578163090E+03   -0.85311E-09   -0.11881E-12 28656   0.157E-10    0.922E-05
DAV:   6    -0.213578163090E+03    0.13279E-09   -0.53664E-13 28656   0.213E-10
  57 F= -.21357816E+03 E0= -.21357816E+03  d E =0.000000E+00
       N       E                     dE             d eps       ncg     rms          rms(c)
DAV:   1    -0.213578163089E+03    0.10759E-08   -0.11404E-12 28656   0.159E-10    0.922E-05
DAV:   2    -0.213578163090E+03   -0.11205E-08   -0.87884E-13 28656   0.311E-10    0.922E-05
DAV:   3    -0.213578163089E+03    0.79126E-09   -0.22762E-12 28656   0.238E-10    0.922E-05
DAV:   4    -0.213578163089E+03    0.51841E-10    0.29698E-13 28656   0.157E-10    0.922E-05
DAV:   5    -0.213578163089E+03   -0.39836E-09   -0.91683E-14 28656   0.134E-10    0.922E-05
DAV:   6    -0.213578163090E+03   -0.50022E-09    0.11314E-12 28656   0.170E-10
  58 F= -.21357816E+03 E0= -.21357816E+03  d E =0.000000E+00
       N       E                     dE             d eps       ncg     rms          rms(c)
DAV:   1    -0.213578163090E+03   -0.34106E-09   -0.45505E-13 28656   0.123E-10    0.922E-05
DAV:   2    -0.213578163090E+03    0.10732E-09    0.12833E-12 28656   0.264E-10    0.922E-05
DAV:   3    -0.213578163090E+03   -0.24102E-09   -0.20393E-12 28656   0.190E-10    0.922E-05
DAV:   4    -0.213578163089E+03    0.47658E-09   -0.25138E-12 28656   0.272E-10    0.922E-05
DAV:   5    -0.213578163089E+03    0.47476E-09   -0.23654E-13 28656   0.345E-10    0.922E-05
DAV:   6    -0.213578163090E+03   -0.91404E-09   -0.17866E-12 28656   0.234E-10
  59 F= -.21357816E+03 E0= -.21357816E+03  d E =0.000000E+00
       N       E                     dE             d eps       ncg     rms          rms(c)
DAV:   1    -0.213578163089E+03   -0.40927E-10   -0.82557E-13 28656   0.227E-10    0.922E-05
DAV:   2    -0.213578163089E+03   -0.19190E-09   -0.84040E-13 28656   0.246E-10    0.922E-05
DAV:   3    -0.213578163090E+03   -0.77671E-09    0.19693E-14 28656   0.321E-10    0.922E-05
DAV:   4    -0.213578163089E+03    0.52296E-09    0.14724E-15 28656   0.268E-10    0.922E-05
DAV:   5    -0.213578163089E+03    0.30650E-09   -0.13983E-13 28656   0.158E-10    0.922E-05
DAV:   6    -0.213578163089E+03   -0.17553E-09    0.76384E-14 28656   0.210E-10
  60 F= -.21357816E+03 E0= -.21357816E+03  d E =0.000000E+00
       N       E                     dE             d eps       ncg     rms          rms(c)
DAV:   1    -0.213578163090E+03   -0.79308E-09    0.40804E-13 28656   0.134E-10    0.922E-05
DAV:   2    -0.213578163089E+03    0.95042E-09   -0.18026E-12 28656   0.270E-10    0.922E-05
DAV:   3    -0.213578163089E+03   -0.56116E-09   -0.21357E-12 28656   0.254E-10    0.922E-05
DAV:   4    -0.213578163089E+03    0.53024E-09   -0.13519E-12 28656   0.232E-10    0.922E-05
DAV:   5    -0.213578163089E+03   -0.60936E-10   -0.17911E-12 28656   0.146E-10    0.922E-05
DAV:   6    -0.213578163089E+03   -0.43747E-09   -0.21583E-14 28656   0.113E-10
  61 F= -.21357816E+03 E0= -.21357816E+03  d E =0.000000E+00
       N       E                     dE             d eps       ncg     rms          rms(c)
DAV:   1    -0.213578163090E+03   -0.10641E-08   -0.21758E-13 28656   0.206E-10    0.922E-05
DAV:   2    -0.213578163089E+03    0.86038E-09   -0.94512E-13 28656   0.233E-10    0.922E-05
DAV:   3    -0.213578163090E+03   -0.40836E-09   -0.11012E-12 28656   0.229E-10    0.922E-05
DAV:   4    -0.213578163090E+03   -0.10914E-09   -0.54460E-13 28656   0.188E-10    0.922E-05
DAV:   5    -0.213578163090E+03   -0.22101E-09   -0.73636E-14 28656   0.257E-10    0.922E-05
DAV:   6    -0.213578163089E+03    0.94951E-09   -0.26246E-12 28656   0.139E-10
  62 F= -.21357816E+03 E0= -.21357816E+03  d E =0.000000E+00
       N       E                     dE             d eps       ncg     rms          rms(c)
DAV:   1    -0.213578163089E+03    0.81491E-09   -0.20708E-12 28656   0.336E-10    0.922E-05
DAV:   2    -0.213578163089E+03    0.27285E-10   -0.17031E-12 28656   0.275E-10    0.922E-05
DAV:   3    -0.213578163090E+03   -0.95133E-09   -0.95103E-13 28656   0.237E-10    0.922E-05
DAV:   4    -0.213578163089E+03    0.87130E-09   -0.10283E-12 28656   0.308E-10    0.922E-05
DAV:   5    -0.213578163090E+03   -0.65847E-09   -0.13088E-12 28656   0.197E-10    0.922E-05
DAV:   6    -0.213578163089E+03    0.83583E-09   -0.15731E-12 28656   0.184E-10
  63 F= -.21357816E+03 E0= -.21357816E+03  d E =0.000000E+00
       N       E                     dE             d eps       ncg     rms          rms(c)
DAV:   1    -0.213578163089E+03    0.79581E-09   -0.73540E-14 28656   0.214E-10    0.922E-05
DAV:   2    -0.213578163090E+03   -0.89312E-09    0.54836E-13 28656   0.264E-10    0.922E-05
DAV:   3    -0.213578163090E+03    0.33924E-09   -0.24396E-12 28656   0.259E-10    0.922E-05
DAV:   4    -0.213578163090E+03   -0.24374E-09   -0.12563E-12 28656   0.285E-10    0.922E-05
DAV:   5    -0.213578163089E+03    0.94224E-09   -0.70953E-13 28656   0.266E-10    0.922E-05
DAV:   6    -0.213578163089E+03    0.10914E-10   -0.10743E-12 28656   0.175E-10
  64 F= -.21357816E+03 E0= -.21357816E+03  d E =0.000000E+00
       N       E                     dE             d eps       ncg     rms          rms(c)
DAV:   1    -0.213578163089E+03    0.16553E-09   -0.28224E-13 28656   0.110E-10    0.922E-05
DAV:   2    -0.213578163089E+03   -0.40018E-09    0.58948E-13 28656   0.261E-10    0.922E-05
DAV:   3    -0.213578163089E+03   -0.65484E-10    0.67628E-13 28656   0.224E-10    0.922E-05
DAV:   4    -0.213578163089E+03   -0.81855E-11   -0.47003E-13 28656   0.253E-10    0.922E-05
DAV:   5    -0.213578163089E+03   -0.72760E-10   -0.15079E-13 28656   0.126E-10    0.922E-05
DAV:   6    -0.213578163089E+03   -0.70031E-10   -0.53725E-13 28656   0.129E-10
  65 F= -.21357816E+03 E0= -.21357816E+03  d E =0.000000E+00
       N       E                     dE             d eps       ncg     rms          rms(c)
DAV:   1    -0.213578163089E+03    0.23647E-10   -0.20470E-12 28656   0.156E-10    0.922E-05
DAV:   2    -0.213578163090E+03   -0.74670E-09   -0.73790E-13 28656   0.360E-10    0.922E-05
DAV:   3    -0.213578163089E+03    0.74488E-09   -0.14479E-12 28656   0.273E-10    0.922E-05
DAV:   4    -0.213578163089E+03    0.16917E-09   -0.10453E-12 28656   0.277E-10    0.922E-05
DAV:   5    -0.213578163090E+03   -0.57935E-09    0.24582E-13 28656   0.142E-10    0.922E-05
DAV:   6    -0.213578163090E+03   -0.28740E-09   -0.11067E-12 28656   0.160E-10
  66 F= -.21357816E+03 E0= -.21357816E+03  d E =0.000000E+00
       N       E                     dE             d eps       ncg     rms          rms(c)
DAV:   1    -0.213578163090E+03   -0.41018E-09    0.39420E-13 28656   0.713E-11    0.922E-05
DAV:   2    -0.213578163089E+03    0.11451E-08    0.22775E-13 28656   0.384E-10    0.922E-05
DAV:   3    -0.213578163089E+03   -0.13188E-09   -0.17654E-12 28656   0.304E-10    0.922E-05
DAV:   4    -0.213578163089E+03    0.66393E-10   -0.92333E-13 28656   0.149E-10    0.922E-05
DAV:   5    -0.213578163089E+03   -0.44110E-09   -0.12624E-12 28656   0.302E-10    0.922E-05
DAV:   6    -0.213578163089E+03    0.61118E-09   -0.13961E-12 28656   0.381E-10
  67 F= -.21357816E+03 E0= -.21357816E+03  d E =0.000000E+00
       N       E                     dE             d eps       ncg     rms          rms(c)
DAV:   1    -0.213578163089E+03    0.10277E-09   -0.21137E-12 28656   0.238E-10    0.922E-05
DAV:   2    -0.213578163089E+03    0.19827E-09   -0.69829E-13 28656   0.176E-10    0.922E-05
DAV:   3    -0.213578163089E+03   -0.12187E-09    0.68216E-13 28656   0.122E-10    0.922E-05
DAV:   4    -0.213578163089E+03    0.44474E-09    0.58020E-13 28656   0.216E-10    0.922E-05
DAV:   5    -0.213578163090E+03   -0.90859E-09   -0.32831E-13 28656   0.181E-10    0.922E-05
DAV:   6    -0.213578163090E+03   -0.44565E-10   -0.64498E-13 28656   0.155E-10
  68 F= -.21357816E+03 E0= -.21357816E+03  d E =0.000000E+00
       N       E                     dE             d eps       ncg     rms          rms(c)
DAV:   1    -0.213578163090E+03   -0.26375E-10   -0.15532E-12 28656   0.127E-10    0.922E-05
DAV:   2    -0.213578163090E+03    0.82764E-10   -0.10179E-12 28656   0.185E-10    0.922E-05
DAV:   3    -0.213578163090E+03    0.13279E-09   -0.10964E-12 28656   0.175E-10    0.922E-05
DAV:   4    -0.213578163090E+03   -0.11278E-09   -0.20852E-12 28656   0.192E-10    0.922E-05
DAV:   5    -0.213578163089E+03    0.48385E-09   -0.18224E-12 28656   0.181E-10    0.922E-05
DAV:   6    -0.213578163089E+03   -0.16553E-09   -0.18513E-12 28656   0.133E-10
  69 F= -.21357816E+03 E0= -.21357816E+03  d E =0.000000E+00
       N       E                     dE             d eps       ncg     rms          rms(c)
DAV:   1    -0.213578163090E+03   -0.45839E-09   -0.21071E-12 28656   0.191E-10    0.922E-05
DAV:   2    -0.213578163090E+03   -0.41291E-09   -0.58329E-13 28656   0.225E-10    0.922E-05
DAV:   3    -0.213578163089E+03    0.12324E-08   -0.19688E-12 28656   0.261E-10    0.922E-05
DAV:   4    -0.213578163089E+03   -0.34561E-10   -0.20739E-12 28656   0.238E-10    0.922E-05
DAV:   5    -0.213578163090E+03   -0.87766E-09   -0.79618E-13 28656   0.143E-10    0.922E-05
DAV:   6    -0.213578163090E+03   -0.21009E-09   -0.16752E-12 28656   0.119E-10
  70 F= -.21357816E+03 E0= -.21357816E+03  d E =0.000000E+00
       N       E                     dE             d eps       ncg     rms          rms(c)
DAV:   1    -0.213578163090E+03   -0.27285E-09   -0.10208E-12 28656   0.151E-10    0.922E-05
DAV:   2    -0.213578163089E+03    0.66939E-09   -0.19447E-12 28656   0.370E-10    0.922E-05
DAV:   3    -0.213578163089E+03    0.34561E-09   -0.24253E-12 28656   0.348E-10    0.922E-05
DAV:   4    -0.213578163089E+03   -0.50022E-09   -0.22878E-12 28656   0.160E-10    0.922E-05
DAV:   5    -0.213578163089E+03    0.54570E-11   -0.15907E-12 28656   0.133E-10    0.922E-05
DAV:   6    -0.213578163090E+03   -0.46930E-09   -0.15712E-12 28656   0.114E-10
  71 F= -.21357816E+03 E0= -.21357816E+03  d E =0.000000E+00
       N       E                     dE             d eps       ncg     rms          rms(c)
DAV:   1    -0.213578163090E+03   -0.52751E-10   -0.92049E-13 28656   0.151E-10    0.922E-05
DAV:   2    -0.213578163090E+03   -0.35288E-09   -0.19067E-12 28656   0.216E-10    0.922E-05
DAV:   3    -0.213578163089E+03    0.81673E-09   -0.10464E-12 28656   0.221E-10    0.922E-05
DAV:   4    -0.213578163089E+03    0.67303E-10   -0.15935E-12 28656   0.133E-10    0.922E-05
DAV:   5    -0.213578163089E+03    0.13006E-09   -0.20633E-12 28656   0.244E-10    0.922E-05
DAV:   6    -0.213578163090E+03   -0.67303E-09   -0.21127E-12 28656   0.357E-10
  72 F= -.21357816E+03 E0= -.21357816E+03  d E =0.000000E+00
       N       E                     dE             d eps       ncg     rms          rms(c)
DAV:   1    -0.213578163090E+03   -0.10423E-08   -0.15117E-12 28656   0.181E-10    0.922E-05
DAV:   2    -0.213578163090E+03    0.64574E-10   -0.94396E-13 28656   0.203E-10    0.922E-05
DAV:   3    -0.213578163089E+03    0.80763E-09    0.28568E-13 28656   0.158E-10    0.922E-05
DAV:   4    -0.213578163090E+03   -0.81036E-09   -0.16266E-12 28656   0.180E-10    0.922E-05
DAV:   5    -0.213578163090E+03    0.33924E-09   -0.84783E-13 28656   0.310E-10    0.922E-05
DAV:   6    -0.213578163090E+03   -0.29377E-09   -0.15460E-12 28656   0.396E-10
  73 F= -.21357816E+03 E0= -.21357816E+03  d E =0.000000E+00
       N       E                     dE             d eps       ncg     rms          rms(c)
DAV:   1    -0.213578163089E+03    0.45839E-09   -0.14727E-12 28656   0.233E-10    0.922E-05
DAV:   2    -0.213578163090E+03   -0.72941E-09   -0.14191E-12 28656   0.423E-10    0.922E-05
DAV:   3    -0.213578163090E+03   -0.23829E-09   -0.44207E-13 28656   0.357E-10    0.922E-05
DAV:   4    -0.213578163090E+03   -0.61846E-10    0.22137E-13 28656   0.227E-10    0.922E-05
DAV:   5    -0.213578163090E+03    0.18008E-09   -0.11397E-12 28656   0.236E-10    0.922E-05
DAV:   6    -0.213578163090E+03    0.37016E-09   -0.25974E-12 28656   0.198E-10
  74 F= -.21357816E+03 E0= -.21357816E+03  d E =0.000000E+00
       N       E                     dE             d eps       ncg     rms          rms(c)
DAV:   1    -0.213578163089E+03    0.68121E-09   -0.23428E-12 28656   0.171E-10    0.922E-05
DAV:   2    -0.213578163089E+03    0.12824E-09   -0.26433E-13 28656   0.155E-10    0.922E-05
DAV:   3    -0.213578163089E+03   -0.10914E-10    0.19349E-13 28656   0.235E-10    0.922E-05
DAV:   4    -0.213578163090E+03   -0.79854E-09   -0.28057E-13 28656   0.274E-10    0.922E-05
DAV:   5    -0.213578163089E+03    0.74942E-09   -0.96961E-13 28656   0.213E-10    0.922E-05
DAV:   6    -0.213578163089E+03   -0.84583E-10   -0.13791E-13 28656   0.206E-10
  75 F= -.21357816E+03 E0= -.21357816E+03  d E =0.000000E+00
       N       E                     dE             d eps       ncg     rms          rms(c)
DAV:   1    -0.213578163090E+03   -0.50932E-09    0.13127E-12 28656   0.207E-10    0.922E-05
DAV:   2    -0.213578163089E+03    0.58571E-09   -0.61351E-13 28656   0.259E-10    0.922E-05
DAV:   3    -0.213578163090E+03   -0.62937E-09    0.44513E-13 28656   0.351E-10    0.922E-05
DAV:   4    -0.213578163089E+03    0.66029E-09   -0.61018E-13 28656   0.164E-10    0.922E-05
DAV:   5    -0.213578163089E+03   -0.13642E-09   -0.55618E-13 28656   0.210E-10    0.922E-05
DAV:   6    -0.213578163089E+03   -0.29104E-09   -0.11776E-12 28656   0.212E-10
  76 F= -.21357816E+03 E0= -.21357816E+03  d E =0.000000E+00
       N       E                     dE             d eps       ncg     rms          rms(c)
DAV:   1    -0.213578163089E+03    0.17099E-09   -0.13377E-12 28656   0.146E-10    0.922E-05
DAV:   2    -0.213578163089E+03   -0.12915E-09    0.12353E-12 28656   0.286E-10    0.922E-05
DAV:   3    -0.213578163090E+03   -0.77125E-09    0.36949E-13 28656   0.272E-10    0.922E-05
DAV:   4    -0.213578163089E+03    0.68303E-09    0.40685E-13 28656   0.187E-10    0.922E-05
DAV:   5    -0.213578163089E+03    0.10277E-09   -0.12405E-12 28656   0.120E-10    0.922E-05
DAV:   6    -0.213578163090E+03   -0.84037E-09   -0.11097E-12 28656   0.156E-10
  77 F= -.21357816E+03 E0= -.21357816E+03  d E =0.000000E+00
       N       E                     dE             d eps       ncg     rms          rms(c)
DAV:   1    -0.213578163090E+03   -0.61664E-09    0.45666E-13 28656   0.323E-10    0.922E-05
DAV:   2    -0.213578163090E+03   -0.16371E-10   -0.20863E-12 28656   0.225E-10    0.922E-05
DAV:   3    -0.213578163089E+03    0.69213E-09   -0.93629E-13 28656   0.337E-10    0.922E-05
DAV:   4    -0.213578163090E+03   -0.95224E-09   -0.59267E-13 28656   0.267E-10    0.922E-05
DAV:   5    -0.213578163089E+03    0.70850E-09   -0.10802E-12 28656   0.133E-10    0.922E-05
DAV:   6    -0.213578163090E+03   -0.40654E-09   -0.13757E-12 28656   0.195E-10
  78 F= -.21357816E+03 E0= -.21357816E+03  d E =0.000000E+00
       N       E                     dE             d eps       ncg     rms          rms(c)
DAV:   1    -0.213578163090E+03   -0.57480E-09   -0.22967E-12 28656   0.326E-10    0.922E-05
DAV:   2    -0.213578163090E+03   -0.42746E-10   -0.90548E-14 28656   0.226E-10    0.922E-05
DAV:   3    -0.213578163089E+03    0.67666E-09   -0.15957E-12 28656   0.161E-10    0.922E-05
DAV:   4    -0.213578163089E+03   -0.91859E-10   -0.78932E-13 28656   0.158E-10    0.922E-05
DAV:   5    -0.213578163090E+03   -0.39017E-09   -0.20470E-12 28656   0.367E-10    0.922E-05
DAV:   6    -0.213578163089E+03    0.41200E-09   -0.69370E-13 28656   0.361E-10
  79 F= -.21357816E+03 E0= -.21357816E+03  d E =0.000000E+00
       N       E                     dE             d eps       ncg     rms          rms(c)
DAV:   1    -0.213578163089E+03    0.55661E-09   -0.28980E-12 28656   0.135E-10    0.922E-05
DAV:   2    -0.213578163089E+03    0.17099E-09   -0.17473E-12 28656   0.262E-10    0.922E-05
DAV:   3    -0.213578163089E+03    0.25466E-10   -0.12693E-15 28656   0.359E-10    0.922E-05
DAV:   4    -0.213578163090E+03   -0.77944E-09   -0.11789E-12 28656   0.326E-10    0.922E-05
DAV:   5    -0.213578163089E+03    0.31741E-09   -0.37963E-13 28656   0.153E-10    0.922E-05
DAV:   6    -0.213578163089E+03    0.28649E-09    0.36412E-13 28656   0.156E-10
  80 F= -.21357816E+03 E0= -.21357816E+03  d E =0.000000E+00
       N       E                     dE             d eps       ncg     rms          rms(c)
DAV:   1    -0.213578163090E+03   -0.51114E-09   -0.14621E-12 28656   0.107E-10    0.922E-05
DAV:   2    -0.213578163090E+03    0.43838E-09   -0.34838E-13 28656   0.416E-10    0.922E-05
DAV:   3    -0.213578163090E+03   -0.37289E-09   -0.13374E-12 28656   0.336E-10    0.922E-05
DAV:   4    -0.213578163089E+03    0.46020E-09   -0.21538E-12 28656   0.302E-10    0.922E-05
DAV:   5    -0.213578163090E+03   -0.47294E-09   -0.13940E-12 28656   0.230E-10    0.922E-05
DAV:   6    -0.213578163089E+03    0.78944E-09   -0.83405E-13 28656   0.104E-10
  81 F= -.21357816E+03 E0= -.21357816E+03  d E =0.000000E+00
       N       E                     dE             d eps       ncg     rms          rms(c)
DAV:   1    -0.213578163090E+03    0.14097E-09   -0.21880E-12 28656   0.181E-10    0.922E-05
DAV:   2    -0.213578163090E+03    0.20827E-09   -0.29206E-13 28656   0.186E-10    0.922E-05
DAV:   3    -0.213578163090E+03   -0.32105E-09   -0.22011E-12 28656   0.197E-10    0.922E-05
DAV:   4    -0.213578163090E+03   -0.59117E-10   -0.23201E-12 28656   0.213E-10    0.922E-05
DAV:   5    -0.213578163089E+03    0.88130E-09   -0.10538E-12 28656   0.345E-10    0.922E-05
DAV:   6    -0.213578163089E+03   -0.33742E-09   -0.17747E-12 28656   0.217E-10
  82 F= -.21357816E+03 E0= -.21357816E+03  d E =0.000000E+00
       N       E                     dE             d eps       ncg     rms          rms(c)
DAV:   1    -0.213578163090E+03   -0.74488E-09   -0.18498E-12 28656   0.183E-10    0.922E-05
DAV:   2    -0.213578163090E+03    0.21919E-09   -0.19530E-12 28656   0.169E-10    0.922E-05
DAV:   3    -0.213578163089E+03    0.71941E-09   -0.10729E-12 28656   0.265E-10    0.922E-05
DAV:   4    -0.213578163089E+03   -0.31650E-09   -0.19383E-12 28656   0.291E-10    0.922E-05
DAV:   5    -0.213578163089E+03   -0.30559E-09   -0.33989E-13 28656   0.155E-10    0.922E-05
DAV:   6    -0.213578163090E+03   -0.45657E-09   -0.70290E-13 28656   0.231E-10
  83 F= -.21357816E+03 E0= -.21357816E+03  d E =0.000000E+00
       N       E                     dE             d eps       ncg     rms          rms(c)
DAV:   1    -0.213578163090E+03   -0.54570E-09   -0.11867E-12 28656   0.203E-10    0.922E-05
DAV:   2    -0.213578163089E+03    0.61300E-09   -0.11294E-12 28656   0.153E-10    0.922E-05
DAV:   3    -0.213578163090E+03   -0.46566E-09    0.25861E-13 28656   0.170E-10    0.922E-05
DAV:   4    -0.213578163090E+03    0.26648E-09   -0.18472E-12 28656   0.150E-10    0.922E-05
DAV:   5    -0.213578163089E+03    0.41746E-09   -0.96052E-13 28656   0.170E-10    0.922E-05
DAV:   6    -0.213578163090E+03   -0.71850E-09   -0.12913E-12 28656   0.137E-10
  84 F= -.21357816E+03 E0= -.21357816E+03  d E =0.000000E+00
       N       E                     dE             d eps       ncg     rms          rms(c)
DAV:   1    -0.213578163090E+03   -0.46384E-09   -0.21958E-12 28656   0.167E-10    0.922E-05
DAV:   2    -0.213578163090E+03   -0.19463E-09   -0.27498E-12 28656   0.212E-10    0.922E-05
DAV:   3    -0.213578163090E+03   -0.11369E-09   -0.10723E-12 28656   0.266E-10    0.922E-05
DAV:   4    -0.213578163089E+03    0.94587E-09   -0.12914E-12 28656   0.277E-10    0.922E-05
DAV:   5    -0.213578163090E+03   -0.54024E-09   -0.74598E-13 28656   0.211E-10    0.922E-05
DAV:   6    -0.213578163090E+03   -0.38472E-09   -0.11827E-12 28656   0.145E-10
  85 F= -.21357816E+03 E0= -.21357816E+03  d E =0.000000E+00
       N       E                     dE             d eps       ncg     rms          rms(c)
DAV:   1    -0.213578163089E+03    0.56480E-09   -0.21950E-12 28656   0.208E-10    0.922E-05
DAV:   2    -0.213578163089E+03   -0.16917E-09   -0.14912E-12 28656   0.347E-10    0.922E-05
DAV:   3    -0.213578163090E+03   -0.90040E-09   -0.85336E-13 28656   0.246E-10    0.922E-05
DAV:   4    -0.213578163089E+03    0.10123E-08   -0.18194E-13 28656   0.185E-10    0.922E-05
DAV:   5    -0.213578163090E+03   -0.46111E-09   -0.19580E-13 28656   0.132E-10    0.922E-05
DAV:   6    -0.213578163089E+03    0.30013E-09   -0.61773E-13 28656   0.207E-10
  86 F= -.21357816E+03 E0= -.21357816E+03  d E =0.000000E+00
       N       E                     dE             d eps       ncg     rms          rms(c)
DAV:   1    -0.213578163089E+03    0.20009E-10   -0.52523E-13 28656   0.227E-10    0.922E-05
DAV:   2    -0.213578163090E+03   -0.56480E-09    0.24548E-13 28656   0.141E-10    0.922E-05
DAV:   3    -0.213578163089E+03    0.12324E-08   -0.17757E-12 28656   0.351E-10    0.922E-05
DAV:   4    -0.213578163089E+03   -0.21828E-10   -0.11296E-12 28656   0.309E-10    0.922E-05
DAV:   5    -0.213578163089E+03   -0.63301E-09   -0.21674E-13 28656   0.225E-10    0.922E-05
DAV:   6    -0.213578163089E+03    0.35652E-09   -0.19581E-12 28656   0.234E-10
  87 F= -.21357816E+03 E0= -.21357816E+03  d E =0.000000E+00
       N       E                     dE             d eps       ncg     rms          rms(c)
DAV:   1    -0.213578163089E+03    0.44565E-09   -0.69569E-13 28656   0.232E-10    0.922E-05
DAV:   2    -0.213578163090E+03   -0.87311E-09   -0.48918E-13 28656   0.218E-10    0.922E-05
DAV:   3    -0.213578163089E+03    0.63483E-09   -0.12443E-12 28656   0.201E-10    0.922E-05
DAV:   4    -0.213578163089E+03    0.57298E-09   -0.14558E-12 28656   0.138E-10    0.922E-05
DAV:   5    -0.213578163090E+03   -0.11933E-08   -0.10838E-12 28656   0.170E-10    0.922E-05
DAV:   6    -0.213578163090E+03   -0.17099E-09   -0.15073E-12 28656   0.250E-10
  88 F= -.21357816E+03 E0= -.21357816E+03  d E =0.000000E+00
       N       E                     dE             d eps       ncg     rms          rms(c)
DAV:   1    -0.213578163090E+03    0.29195E-09   -0.92244E-13 28656   0.193E-10    0.922E-05
DAV:   2    -0.213578163089E+03    0.43747E-09   -0.80094E-13 28656   0.146E-10    0.922E-05
DAV:   3    -0.213578163090E+03   -0.76216E-09   -0.23897E-12 28656   0.205E-10    0.922E-05
DAV:   4    -0.213578163090E+03    0.38926E-09   -0.15638E-12 28656   0.305E-10    0.922E-05
DAV:   5    -0.213578163089E+03    0.37198E-09   -0.81002E-13 28656   0.182E-10    0.922E-05
DAV:   6    -0.213578163090E+03   -0.59390E-09   -0.17952E-12 28656   0.259E-10
  89 F= -.21357816E+03 E0= -.21357816E+03  d E =0.000000E+00
       N       E                     dE             d eps       ncg     rms          rms(c)
DAV:   1    -0.213578163090E+03   -0.42292E-09   -0.10746E-12 28656   0.248E-10    0.922E-05
DAV:   2    -0.213578163090E+03   -0.25102E-09   -0.24531E-12 28656   0.174E-10    0.922E-05
DAV:   3    -0.213578163089E+03    0.37016E-09   -0.19354E-12 28656   0.356E-10    0.922E-05
DAV:   4    -0.213578163089E+03    0.45202E-09    0.10734E-13 28656   0.335E-10    0.922E-05
DAV:   5    -0.213578163090E+03   -0.73305E-09   -0.30757E-12 28656   0.193E-10    0.922E-05
DAV:   6    -0.213578163089E+03    0.72760E-09   -0.35225E-13 28656   0.154E-10
  90 F= -.21357816E+03 E0= -.21357816E+03  d E =0.000000E+00
       N       E                     dE             d eps       ncg     rms          rms(c)
DAV:   1    -0.213578163089E+03    0.93678E-09   -0.35003E-13 28656   0.142E-10    0.922E-05
DAV:   2    -0.213578163089E+03   -0.32651E-09   -0.17737E-13 28656   0.353E-10    0.922E-05
DAV:   3    -0.213578163090E+03   -0.47930E-09   -0.27234E-12 28656   0.379E-10    0.922E-05
DAV:   4    -0.213578163090E+03    0.43656E-10    0.13570E-12 28656   0.141E-10    0.922E-05
DAV:   5    -0.213578163090E+03   -0.37653E-09    0.10504E-12 28656   0.237E-10    0.922E-05
DAV:   6    -0.213578163090E+03    0.11823E-10    0.14558E-12 28656   0.272E-10
  91 F= -.21357816E+03 E0= -.21357816E+03  d E =0.000000E+00
       N       E                     dE             d eps       ncg     rms          rms(c)
DAV:   1    -0.213578163089E+03    0.52660E-09   -0.13733E-12 28656   0.171E-10    0.922E-05
DAV:   2    -0.213578163090E+03   -0.25011E-09   -0.38067E-13 28656   0.369E-10    0.922E-05
DAV:   3    -0.213578163090E+03   -0.17099E-09   -0.27210E-12 28656   0.184E-10    0.922E-05
DAV:   4    -0.213578163090E+03   -0.13097E-09   -0.10763E-12 28656   0.216E-10    0.922E-05
DAV:   5    -0.213578163089E+03    0.53751E-09   -0.23784E-12 28656   0.161E-10    0.922E-05
DAV:   6    -0.213578163089E+03   -0.30013E-10   -0.11847E-12 28656   0.269E-10
  92 F= -.21357816E+03 E0= -.21357816E+03  d E =0.000000E+00
       N       E                     dE             d eps       ncg     rms          rms(c)
DAV:   1    -0.213578163089E+03    0.15370E-09   -0.11832E-12 28656   0.136E-10    0.922E-05
DAV:   2    -0.213578163089E+03   -0.20736E-09   -0.20308E-12 28656   0.198E-10    0.922E-05
DAV:   3    -0.213578163089E+03    0.25921E-09   -0.80042E-13 28656   0.168E-10    0.922E-05
DAV:   4    -0.213578163089E+03    0.34652E-09   -0.62544E-13 28656   0.160E-10    0.922E-05
DAV:   5    -0.213578163090E+03   -0.81127E-09   -0.83898E-13 28656   0.120E-10    0.922E-05
DAV:   6    -0.213578163089E+03    0.83128E-09   -0.89255E-14 28656   0.264E-10
  93 F= -.21357816E+03 E0= -.21357816E+03  d E =0.000000E+00
       N       E                     dE             d eps       ncg     rms          rms(c)
DAV:   1    -0.213578163089E+03    0.44747E-09   -0.45314E-13 28656   0.203E-10    0.922E-05
DAV:   2    -0.213578163090E+03   -0.79854E-09    0.11551E-12 28656   0.390E-10    0.922E-05
DAV:   3    -0.213578163090E+03    0.36925E-09   -0.24894E-12 28656   0.184E-10    0.922E-05
DAV:   4    -0.213578163089E+03    0.54933E-09   -0.23393E-12 28656   0.294E-10    0.922E-05
DAV:   5    -0.213578163089E+03   -0.14734E-09    0.30858E-13 28656   0.211E-10    0.922E-05
DAV:   6    -0.213578163089E+03   -0.17462E-09   -0.10378E-12 28656   0.164E-10
  94 F= -.21357816E+03 E0= -.21357816E+03  d E =0.000000E+00
       N       E                     dE             d eps       ncg     rms          rms(c)
DAV:   1    -0.213578163090E+03   -0.30377E-09   -0.88604E-14 28656   0.165E-10    0.922E-05
DAV:   2    -0.213578163090E+03   -0.22737E-09   -0.14245E-12 28656   0.150E-10    0.922E-05
DAV:   3    -0.213578163090E+03   -0.61846E-10   -0.14511E-12 28656   0.244E-10    0.922E-05
DAV:   4    -0.213578163090E+03   -0.80036E-10   -0.14535E-12 28656   0.123E-10    0.922E-05
DAV:   5    -0.213578163089E+03    0.59481E-09   -0.93970E-13 28656   0.217E-10    0.922E-05
DAV:   6    -0.213578163089E+03    0.14552E-10   -0.12819E-14 28656   0.131E-10
  95 F= -.21357816E+03 E0= -.21357816E+03  d E =0.000000E+00
       N       E                     dE             d eps       ncg     rms          rms(c)
DAV:   1    -0.213578163089E+03    0.40382E-09   -0.54559E-13 28656   0.154E-10    0.922E-05
DAV:   2    -0.213578163089E+03   -0.54570E-10   -0.77969E-13 28656   0.342E-10    0.922E-05
DAV:   3    -0.213578163089E+03    0.12551E-09   -0.75490E-13 28656   0.222E-10    0.922E-05
DAV:   4    -0.213578163089E+03   -0.22737E-10    0.26537E-13 28656   0.183E-10    0.922E-05
DAV:   5    -0.213578163090E+03   -0.70304E-09   -0.92347E-13 28656   0.265E-10    0.922E-05
DAV:   6    -0.213578163090E+03   -0.11460E-09   -0.16128E-12 28656   0.284E-10
  96 F= -.21357816E+03 E0= -.21357816E+03  d E =0.000000E+00
       N       E                     dE             d eps       ncg     rms          rms(c)
DAV:   1    -0.213578163089E+03    0.44929E-09   -0.70400E-13 28656   0.152E-10    0.922E-05
DAV:   2    -0.213578163090E+03   -0.64938E-09   -0.12008E-12 28656   0.188E-10    0.922E-05
DAV:   3    -0.213578163090E+03    0.24374E-09   -0.38161E-14 28656   0.179E-10    0.922E-05
DAV:   4    -0.213578163090E+03   -0.36198E-09    0.12117E-13 28656   0.129E-10    0.922E-05
DAV:   5    -0.213578163089E+03    0.47476E-09   -0.22219E-13 28656   0.166E-10    0.922E-05
DAV:   6    -0.213578163090E+03   -0.34652E-09   -0.11120E-12 28656   0.283E-10
  97 F= -.21357816E+03 E0= -.21357816E+03  d E =0.000000E+00
       N       E                     dE             d eps       ncg     rms          rms(c)
DAV:   1    -0.213578163089E+03    0.11823E-09   -0.30689E-14 28656   0.200E-10    0.922E-05
DAV:   2    -0.213578163089E+03    0.40745E-09   -0.38106E-13 28656   0.301E-10    0.922E-05
DAV:   3    -0.213578163090E+03   -0.98407E-09   -0.13478E-12 28656   0.398E-10    0.922E-05
DAV:   4    -0.213578163090E+03   -0.90949E-10   -0.65037E-13 28656   0.168E-10    0.922E-05
DAV:   5    -0.213578163090E+03    0.85493E-10   -0.41682E-13 28656   0.106E-10    0.922E-05
DAV:   6    -0.213578163089E+03    0.88221E-09    0.54432E-14 28656   0.217E-10
  98 F= -.21357816E+03 E0= -.21357816E+03  d E =0.000000E+00
       N       E                     dE             d eps       ncg     rms          rms(c)
DAV:   1    -0.213578163090E+03    0.32378E-09   -0.20195E-12 28656   0.335E-10    0.922E-05
DAV:   2    -0.213578163090E+03   -0.33015E-09   -0.79160E-13 28656   0.333E-10    0.922E-05
DAV:   3    -0.213578163089E+03    0.56116E-09   -0.29558E-12 28656   0.250E-10    0.922E-05
DAV:   4    -0.213578163090E+03   -0.28376E-09   -0.27794E-12 28656   0.241E-10    0.922E-05
DAV:   5    -0.213578163090E+03   -0.44747E-09    0.34103E-13 28656   0.189E-10    0.922E-05
DAV:   6    -0.213578163089E+03    0.11460E-08   -0.10550E-12 28656   0.213E-10
  99 F= -.21357816E+03 E0= -.21357816E+03  d E =0.000000E+00
       N       E                     dE             d eps       ncg     rms          rms(c)
DAV:   1    -0.213578163089E+03    0.81491E-09   -0.60373E-13 28656   0.302E-10    0.922E-05
DAV:   2    -0.213578163089E+03    0.98225E-10   -0.11460E-12 28656   0.309E-10    0.922E-05
DAV:   3    -0.213578163090E+03   -0.65120E-09   -0.10978E-13 28656   0.239E-10    0.922E-05
DAV:   4    -0.213578163089E+03    0.10314E-08   -0.10390E-12 28656   0.220E-10    0.922E-05
DAV:   5    -0.213578163089E+03   -0.18190E-10   -0.31107E-13 28656   0.186E-10    0.922E-05
DAV:   6    -0.213578163089E+03   -0.66211E-09   -0.37013E-13 28656   0.120E-10
 100 F= -.21357816E+03 E0= -.21357816E+03  d E =0.000000E+00
