  60  60   0   0
  0.7357591E+01  0.1042263E-08  0.1057419E-08  0.5199768E-09  0.5000000E-15
  1.000000000000000E-004
  CAR 
 unknown system                          
     14.52541928    -13.97023378  301      6.86314709      1.00000000
    -13.970  0.0000E+00  0.0000E+00
    -13.875  0.0000E+00  0.0000E+00
    -13.780  0.0000E+00  0.0000E+00
    -13.685  0.0000E+00  0.0000E+00
    -13.590  0.0000E+00  0.0000E+00
    -13.495  0.0000E+00  0.0000E+00
    -13.400  0.0000E+00  0.0000E+00
    -13.305  0.0000E+00  0.0000E+00
    -13.210  0.0000E+00  0.0000E+00
    -13.115  0.0000E+00  0.0000E+00
    -13.020  0.0000E+00  0.0000E+00
    -12.925  0.0000E+00  0.0000E+00
    -12.830  0.0000E+00  0.0000E+00
    -12.735  0.0000E+00  0.0000E+00
    -12.640  0.0000E+00  0.0000E+00
    -12.545  0.0000E+00  0.0000E+00
    -12.450  0.0000E+00  0.0000E+00
    -12.355  0.0000E+00  0.0000E+00
    -12.260  0.0000E+00  0.0000E+00
    -12.166  0.0000E+00  0.0000E+00
    -12.071  0.0000E+00  0.0000E+00
    -11.976  0.0000E+00  0.0000E+00
    -11.881  0.5660E-01  0.5568E-02
    -11.786  0.3748E-01  0.9727E-02
    -11.691  0.3272E-01  0.1299E-01
    -11.596  0.4317E-01  0.1660E-01
    -11.501  0.0000E+00  0.2000E-01
    -11.406  0.0000E+00  0.2000E-01
    -11.311  0.2952E-01  0.2040E-01
    -11.216  0.4756E-01  0.2417E-01
    -11.121  0.4357E-01  0.2918E-01
    -11.026  0.3583E-01  0.3272E-01
    -10.931  0.1254E+00  0.3896E-01
    -10.836  0.1011E+00  0.4969E-01
    -10.741  0.1460E+00  0.6851E-01
    -10.646  0.2633E-01  0.7997E-01
    -10.551  0.9750E-01  0.8790E-01
    -10.456  0.8236E-01  0.9769E-01
    -10.361  0.0000E+00  0.1000E+00
    -10.266  0.4617E-01  0.1056E+00
    -10.171  0.5473E-01  0.1100E+00
    -10.076  0.6845E-01  0.1175E+00
     -9.981  0.0000E+00  0.1200E+00
     -9.886  0.0000E+00  0.1200E+00
     -9.791  0.0000E+00  0.1200E+00
     -9.696  0.0000E+00  0.1200E+00
     -9.601  0.0000E+00  0.1200E+00
     -9.506  0.0000E+00  0.1200E+00
     -9.411  0.0000E+00  0.1200E+00
     -9.316  0.1747E-01  0.1202E+00
     -9.221  0.6133E-01  0.1251E+00
     -9.126  0.5410E-01  0.1305E+00
     -9.031  0.8166E-01  0.1369E+00
     -8.936  0.1251E+00  0.1465E+00
     -8.841  0.1114E+00  0.1581E+00
     -8.746  0.1082E+00  0.1675E+00
     -8.651  0.1279E+00  0.1781E+00
     -8.556  0.1831E+00  0.1920E+00
     -8.461  0.1136E+00  0.2052E+00
     -8.366  0.6507E-01  0.2122E+00
     -8.271  0.8772E-01  0.2187E+00
     -8.176  0.1109E+00  0.2278E+00
     -8.081  0.8352E-01  0.2376E+00
     -7.986  0.1566E+00  0.2458E+00
     -7.891  0.5357E-01  0.2559E+00
     -7.796  0.2012E-01  0.2591E+00
     -7.701  0.0000E+00  0.2600E+00
     -7.606  0.0000E+00  0.2600E+00
     -7.511  0.0000E+00  0.2600E+00
     -7.416  0.0000E+00  0.2600E+00
     -7.321  0.0000E+00  0.2600E+00
     -7.226  0.0000E+00  0.2600E+00
     -7.131  0.7949E-01  0.2630E+00
     -7.036  0.7029E-01  0.2715E+00
     -6.941  0.6744E-01  0.2813E+00
     -6.846  0.9059E-01  0.2875E+00
     -6.751  0.4731E-01  0.2943E+00
     -6.656  0.2135E-01  0.2999E+00
     -6.561  0.0000E+00  0.3000E+00
     -6.466  0.0000E+00  0.3000E+00
     -6.371  0.0000E+00  0.3000E+00
     -6.276  0.0000E+00  0.3000E+00
     -6.181  0.0000E+00  0.3000E+00
     -6.086  0.4843E-01  0.3008E+00
     -5.991  0.1865E+00  0.3116E+00
     -5.896  0.4029E-01  0.3205E+00
     -5.801  0.1098E+00  0.3337E+00
     -5.706  0.3280E-01  0.3391E+00
     -5.612  0.8179E-01  0.3439E+00
     -5.517  0.9139E-01  0.3518E+00
     -5.422  0.1313E+00  0.3620E+00
     -5.327  0.9690E-01  0.3740E+00
     -5.232  0.1393E+00  0.3855E+00
     -5.137  0.1267E+00  0.3973E+00
     -5.042  0.1885E+00  0.4116E+00
     -4.947  0.1739E+00  0.4285E+00
     -4.852  0.5600E-01  0.4384E+00
     -4.757  0.0000E+00  0.4400E+00
     -4.662  0.2763E-01  0.4405E+00
     -4.567  0.1142E+00  0.4465E+00
     -4.472  0.1597E+00  0.4623E+00
     -4.377  0.1173E+00  0.4734E+00
     -4.282  0.1933E-01  0.4791E+00
     -4.187  0.2341E-01  0.4810E+00
     -4.092  0.6620E-01  0.4861E+00
     -3.997  0.4584E-01  0.4915E+00
     -3.902  0.4955E-01  0.4959E+00
     -3.807  0.5844E-01  0.5018E+00
     -3.712  0.9442E-01  0.5081E+00
     -3.617  0.6848E-01  0.5164E+00
     -3.522  0.3691E-01  0.5205E+00
     -3.427  0.1040E+00  0.5256E+00
     -3.332  0.1270E+00  0.5358E+00
     -3.237  0.1428E+00  0.5477E+00
     -3.142  0.1393E+00  0.5600E+00
     -3.047  0.1522E+00  0.5734E+00
     -2.952  0.1044E+00  0.5847E+00
     -2.857  0.1438E+00  0.5955E+00
     -2.762  0.1244E+00  0.6095E+00
     -2.667  0.1071E+00  0.6201E+00
     -2.572  0.1502E+00  0.6319E+00
     -2.477  0.1352E+00  0.6454E+00
     -2.382  0.1525E+00  0.6599E+00
     -2.287  0.1190E+00  0.6736E+00
     -2.192  0.1522E+00  0.6865E+00
     -2.097  0.1431E+00  0.7018E+00
     -2.002  0.1454E+00  0.7160E+00
     -1.907  0.1678E+00  0.7300E+00
     -1.812  0.1436E+00  0.7452E+00
     -1.717  0.1311E+00  0.7584E+00
     -1.622  0.1374E+00  0.7733E+00
     -1.527  0.1511E+00  0.7855E+00
     -1.432  0.1329E+00  0.7990E+00
     -1.337  0.1424E+00  0.8124E+00
     -1.242  0.1479E+00  0.8265E+00
     -1.147  0.1396E+00  0.8406E+00
     -1.052  0.1550E+00  0.8548E+00
     -0.957  0.1709E+00  0.8709E+00
     -0.862  0.1738E+00  0.8862E+00
     -0.767  0.1955E+00  0.9026E+00
     -0.672  0.1848E+00  0.9199E+00
     -0.577  0.1725E+00  0.9373E+00
     -0.482  0.1689E+00  0.9547E+00
     -0.387  0.1844E+00  0.9714E+00
     -0.292  0.1699E+00  0.9872E+00
     -0.197  0.2030E+00  0.1006E+01
     -0.102  0.1643E+00  0.1023E+01
     -0.007  0.1933E+00  0.1040E+01
      0.088  0.1651E+00  0.1057E+01
      0.183  0.1696E+00  0.1073E+01
      0.278  0.1754E+00  0.1089E+01
      0.373  0.1594E+00  0.1104E+01
      0.468  0.1784E+00  0.1121E+01
      0.563  0.1784E+00  0.1139E+01
      0.658  0.1825E+00  0.1157E+01
      0.753  0.2065E+00  0.1175E+01
      0.848  0.2045E+00  0.1193E+01
      0.942  0.1483E+00  0.1209E+01
      1.037  0.1610E+00  0.1226E+01
      1.132  0.1750E+00  0.1244E+01
      1.227  0.1923E+00  0.1260E+01
      1.322  0.1606E+00  0.1278E+01
      1.417  0.1168E+00  0.1295E+01
      1.512  0.1588E+00  0.1313E+01
      1.607  0.1486E+00  0.1325E+01
      1.702  0.1139E+00  0.1339E+01
      1.797  0.1238E+00  0.1354E+01
      1.892  0.1640E+00  0.1367E+01
      1.987  0.2006E+00  0.1383E+01
      2.082  0.2073E+00  0.1400E+01
      2.177  0.2087E+00  0.1419E+01
      2.272  0.1743E+00  0.1436E+01
      2.367  0.1776E+00  0.1454E+01
      2.462  0.1824E+00  0.1472E+01
      2.557  0.2120E+00  0.1491E+01
      2.652  0.2129E+00  0.1512E+01
      2.747  0.2328E+00  0.1535E+01
      2.842  0.2022E+00  0.1556E+01
      2.937  0.2042E+00  0.1577E+01
      3.032  0.2025E+00  0.1599E+01
      3.127  0.1505E+00  0.1619E+01
      3.222  0.1765E+00  0.1639E+01
      3.317  0.2143E+00  0.1656E+01
      3.412  0.1944E+00  0.1675E+01
      3.507  0.2279E+00  0.1695E+01
      3.602  0.1739E+00  0.1714E+01
      3.697  0.1981E+00  0.1730E+01
      3.792  0.2098E+00  0.1751E+01
      3.887  0.1593E+00  0.1769E+01
      3.982  0.1842E+00  0.1786E+01
      4.077  0.1739E+00  0.1802E+01
      4.172  0.1510E+00  0.1819E+01
      4.267  0.1954E+00  0.1837E+01
      4.362  0.1660E+00  0.1853E+01
      4.457  0.1722E+00  0.1869E+01
      4.552  0.1616E+00  0.1886E+01
      4.647  0.1004E+00  0.1898E+01
      4.742  0.5997E-01  0.1906E+01
      4.837  0.5360E-01  0.1911E+01
      4.932  0.2795E-01  0.1915E+01
      5.027  0.1680E-01  0.1917E+01
      5.122  0.1497E-01  0.1919E+01
      5.217  0.6070E-02  0.1920E+01
      5.312  0.0000E+00  0.1920E+01
      5.407  0.0000E+00  0.1920E+01
      5.502  0.0000E+00  0.1920E+01
      5.597  0.0000E+00  0.1920E+01
      5.692  0.0000E+00  0.1920E+01
      5.787  0.0000E+00  0.1920E+01
      5.882  0.0000E+00  0.1920E+01
      5.977  0.0000E+00  0.1920E+01
      6.072  0.0000E+00  0.1920E+01
      6.167  0.0000E+00  0.1920E+01
      6.262  0.0000E+00  0.1920E+01
      6.357  0.0000E+00  0.1920E+01
      6.452  0.0000E+00  0.1920E+01
      6.547  0.5596E-01  0.1922E+01
      6.642  0.8708E-01  0.1929E+01
      6.737  0.1102E+00  0.1938E+01
      6.832  0.9105E-01  0.1947E+01
      6.927  0.1146E+00  0.1959E+01
      7.022  0.1001E+00  0.1969E+01
      7.117  0.1414E+00  0.1982E+01
      7.212  0.1775E+00  0.1994E+01
      7.307  0.1041E+00  0.2010E+01
      7.402  0.1955E+00  0.2026E+01
      7.496  0.7289E-01  0.2035E+01
      7.591  0.1571E+00  0.2046E+01
      7.686  0.1070E+00  0.2059E+01
      7.781  0.1127E+00  0.2071E+01
      7.876  0.4633E-01  0.2078E+01
      7.971  0.0000E+00  0.2080E+01
      8.066  0.6825E-02  0.2080E+01
      8.161  0.4721E-01  0.2084E+01
      8.256  0.4606E-01  0.2087E+01
      8.351  0.5166E-01  0.2093E+01
      8.446  0.6219E-01  0.2098E+01
      8.541  0.4440E-01  0.2103E+01
      8.636  0.3366E-01  0.2107E+01
      8.731  0.5968E-01  0.2111E+01
      8.826  0.8296E-01  0.2118E+01
      8.921  0.7695E-01  0.2126E+01
      9.016  0.6869E-01  0.2132E+01
      9.111  0.7930E-01  0.2140E+01
      9.206  0.8008E-01  0.2148E+01
      9.301  0.1012E+00  0.2157E+01
      9.396  0.9840E-01  0.2166E+01
      9.491  0.1151E+00  0.2176E+01
      9.586  0.1028E+00  0.2186E+01
      9.681  0.9254E-01  0.2196E+01
      9.776  0.8457E-01  0.2203E+01
      9.871  0.9528E-01  0.2212E+01
      9.966  0.1184E+00  0.2223E+01
     10.061  0.1266E+00  0.2234E+01
     10.156  0.8701E-01  0.2245E+01
     10.251  0.1029E+00  0.2254E+01
     10.346  0.1478E+00  0.2266E+01
     10.441  0.1342E+00  0.2279E+01
     10.536  0.1439E+00  0.2293E+01
     10.631  0.1427E+00  0.2305E+01
     10.726  0.1660E+00  0.2320E+01
     10.821  0.1682E+00  0.2337E+01
     10.916  0.1652E+00  0.2353E+01
     11.011  0.1393E+00  0.2367E+01
     11.106  0.1361E+00  0.2381E+01
     11.201  0.1639E+00  0.2395E+01
     11.296  0.1365E+00  0.2410E+01
     11.391  0.1363E+00  0.2423E+01
     11.486  0.1642E+00  0.2436E+01
     11.581  0.1640E+00  0.2451E+01
     11.676  0.1538E+00  0.2465E+01
     11.771  0.1129E+00  0.2479E+01
     11.866  0.1200E+00  0.2490E+01
     11.961  0.1306E+00  0.2502E+01
     12.056  0.1094E+00  0.2513E+01
     12.151  0.1103E+00  0.2522E+01
     12.246  0.1131E+00  0.2537E+01
     12.341  0.1307E+00  0.2551E+01
     12.436  0.4559E-01  0.2558E+01
     12.531  0.0000E+00  0.2560E+01
     12.626  0.0000E+00  0.2560E+01
     12.721  0.0000E+00  0.2560E+01
     12.816  0.0000E+00  0.2560E+01
     12.911  0.0000E+00  0.2560E+01
     13.006  0.0000E+00  0.2560E+01
     13.101  0.0000E+00  0.2560E+01
     13.196  0.0000E+00  0.2560E+01
     13.291  0.0000E+00  0.2560E+01
     13.386  0.0000E+00  0.2560E+01
     13.481  0.0000E+00  0.2560E+01
     13.576  0.0000E+00  0.2560E+01
     13.671  0.0000E+00  0.2560E+01
     13.766  0.0000E+00  0.2560E+01
     13.861  0.0000E+00  0.2560E+01
     13.956  0.0000E+00  0.2560E+01
     14.050  0.0000E+00  0.2560E+01
     14.145  0.0000E+00  0.2560E+01
     14.240  0.0000E+00  0.2560E+01
     14.335  0.0000E+00  0.2560E+01
     14.430  0.0000E+00  0.2560E+01
     14.525  0.0000E+00  0.2560E+01
