   60   60  100    1
  0.7357591E+01  0.1042263E-08  0.1057419E-08  0.5199768E-09  0.5000000E-15
  1.000000000000000E-004
  CAR 
 unknown system                          
    195    166    128
 
  0.0000000E+00  0.0000000E+00  0.0000000E+00  0.3030303E-02
    1      -11.970234   1.000000
    2      -11.150308   1.000000
    3      -10.919137   1.000000
    4      -10.800676   1.000000
    5      -10.505832   1.000000
    6      -10.145296   1.000000
    7       -8.859941   1.000000
    8       -8.807602   1.000000
    9       -8.672373   1.000000
   10       -8.601343   1.000000
   11       -8.201614   1.000000
   12       -8.018951   1.000000
   13       -7.941211   1.000000
   14       -6.965420   1.000000
   15       -6.711314   1.000000
   16       -6.008048   1.000000
   17       -5.844944   1.000000
   18       -5.500188   1.000000
   19       -5.101243   1.000000
   20       -4.979285   1.000000
   21       -4.906394   1.000000
   22       -4.790581   1.000000
   23       -4.618134   1.000000
   24       -4.248450   1.000000
   25       -4.039508   1.000000
   26       -3.884278   1.000000
   27       -3.540841   1.000000
   28       -3.487846   1.000000
   29       -3.318172   1.000000
   30       -3.176317   1.000000
   31       -2.794955   1.000000
   32       -2.670852   1.000000
   33       -2.439530   1.000000
   34       -2.334255   1.000000
   35       -2.107822   1.000000
   36       -2.007984   1.000000
   37       -1.790821   1.000000
   38       -1.740983   1.000000
   39       -1.663218   1.000000
   40       -1.324922   1.000000
   41       -1.220980   1.000000
   42       -1.186325   1.000000
   43       -1.161145   1.000000
   44       -1.017729   1.000000
   45       -0.897547   1.000000
   46       -0.764450   1.000000
   47       -0.739085   1.000000
   48       -0.705028   1.000000
   49       -0.588722   1.000000
   50       -0.547553   1.000000
   51       -0.513470   1.000000
   52       -0.244803   1.000000
   53       -0.117807   1.000000
   54        0.023827   1.000000
   55        0.129928   1.000000
   56        0.250906   1.000000
   57        0.459266   1.000000
   58        0.512615   1.000000
   59        0.570095   1.000000
   60        0.626290   1.000000
   61        0.806481   1.000000
   62        1.048717   1.000000
   63        1.114163   1.000000
   64        1.268687   1.000000
   65        1.417166   1.000000
   66        1.574977   1.000000
   67        1.660515   1.000000
   68        1.796545   1.000000
   69        1.907617   1.000000
   70        1.959577   1.000000
   71        2.030998   1.000000
   72        2.168601   1.000000
   73        2.241654   1.000000
   74        2.415630   1.000000
   75        2.443653   1.000000
   76        2.496281   1.000000
   77        2.545579   1.000000
   78        2.625043   1.000000
   79        2.784816   1.000000
   80        2.914376   1.000000
   81        2.955076   1.000000
   82        3.151572   1.000000
   83        3.419891   1.000000
   84        3.455795   1.000000
   85        3.567608   1.000000
   86        3.604137   1.000000
   87        3.782375   1.000000
   88        3.999306   1.000000
   89        4.123878   1.000000
   90        4.265498   1.000000
   91        4.350428   1.000000
   92        4.530063   1.000000
   93        4.614671   1.000000
   94        4.761657   1.000000
   95        4.921552   1.000000
   96        5.251766   1.000000
   97        6.471025   1.000000
   98        6.568142   1.000000
   99        7.230129   0.000000
  100        7.259040   0.000000
  101        7.434414   0.000000
  102        7.654114   0.000000
  103        7.744129   0.000000
  104        7.911885   0.000000
  105        8.123857   0.000000
  106        8.667009   0.000000
  107        9.066869   0.000000
  108        9.234074   0.000000
  109        9.565042   0.000000
  110        9.756999   0.000000
  111       10.081446   0.000000
  112       10.321022   0.000000
  113       10.388649   0.000000
  114       10.761206   0.000000
  115       10.860441   0.000000
  116       10.998174   0.000000
  117       11.071387   0.000000
  118       11.161721   0.000000
  119       11.311894   0.000000
  120       11.370058   0.000000
  121       11.431639   0.000000
  122       11.777665   0.000000
  123       11.905394   0.000000
  124       12.017388   0.000000
  125       12.144239   0.000000
  126       12.238664   0.000000
  127       12.313736   0.000000
  128       12.493584   0.000000
 
  0.1666667E+00  0.0000000E+00 -0.6938894E-17  0.6060606E-02
    1      -11.962983   1.000000
    2      -11.159787   1.000000
    3      -10.915337   1.000000
    4      -10.838479   1.000000
    5      -10.499773   1.000000
    6      -10.101808   1.000000
    7       -8.926990   1.000000
    8       -8.713237   1.000000
    9       -8.670757   1.000000
   10       -8.600082   1.000000
   11       -8.199782   1.000000
   12       -8.063758   1.000000
   13       -7.954500   1.000000
   14       -6.959371   1.000000
   15       -6.700065   1.000000
   16       -5.997816   1.000000
   17       -5.835679   1.000000
   18       -5.526186   1.000000
   19       -5.153449   1.000000
   20       -4.995444   1.000000
   21       -4.942199   1.000000
   22       -4.834764   1.000000
   23       -4.546749   1.000000
   24       -4.277670   1.000000
   25       -4.050508   1.000000
   26       -3.849564   1.000000
   27       -3.495144   1.000000
   28       -3.434055   1.000000
   29       -3.192196   1.000000
   30       -3.083528   1.000000
   31       -2.734392   1.000000
   32       -2.608201   1.000000
   33       -2.462091   1.000000
   34       -2.355864   1.000000
   35       -2.207332   1.000000
   36       -2.137338   1.000000
   37       -1.879141   1.000000
   38       -1.812737   1.000000
   39       -1.708803   1.000000
   40       -1.338612   1.000000
   41       -1.259891   1.000000
   42       -1.199984   1.000000
   43       -1.051514   1.000000
   44       -0.960672   1.000000
   45       -0.950718   1.000000
   46       -0.887922   1.000000
   47       -0.821130   1.000000
   48       -0.722168   1.000000
   49       -0.659283   1.000000
   50       -0.474643   1.000000
   51       -0.388437   1.000000
   52       -0.299702   1.000000
   53       -0.069295   1.000000
   54        0.155619   1.000000
   55        0.195672   1.000000
   56        0.330982   1.000000
   57        0.439046   1.000000
   58        0.510751   1.000000
   59        0.542193   1.000000
   60        0.663978   1.000000
   61        0.713052   1.000000
   62        0.870392   1.000000
   63        1.200460   1.000000
   64        1.241653   1.000000
   65        1.469263   1.000000
   66        1.567756   1.000000
   67        1.672907   1.000000
   68        1.763898   1.000000
   69        1.902032   1.000000
   70        1.999946   1.000000
   71        2.149385   1.000000
   72        2.217149   1.000000
   73        2.326963   1.000000
   74        2.343192   1.000000
   75        2.444470   1.000000
   76        2.535566   1.000000
   77        2.624551   1.000000
   78        2.700380   1.000000
   79        2.765002   1.000000
   80        2.916860   1.000000
   81        2.962555   1.000000
   82        3.205867   1.000000
   83        3.388783   1.000000
   84        3.461568   1.000000
   85        3.568988   1.000000
   86        3.619241   1.000000
   87        3.713735   1.000000
   88        3.818818   1.000000
   89        4.166152   1.000000
   90        4.212185   1.000000
   91        4.327816   1.000000
   92        4.460324   1.000000
   93        4.534486   1.000000
   94        4.684494   1.000000
   95        4.895416   1.000000
   96        5.255054   1.000000
   97        6.513439   1.000000
   98        6.642687   1.025844
   99        7.219753   0.000000
  100        7.300209   0.000000
  101        7.385521   0.000000
  102        7.647020   0.000000
  103        7.699940   0.000000
  104        7.824096   0.000000
  105        8.118620   0.000000
  106        8.759905   0.000000
  107        9.133552   0.000000
  108        9.314409   0.000000
  109        9.626093   0.000000
  110        9.826905   0.000000
  111       10.100777   0.000000
  112       10.337587   0.000000
  113       10.381297   0.000000
  114       10.713250   0.000000
  115       10.944223   0.000000
  116       10.983316   0.000000
  117       11.090064   0.000000
  118       11.148790   0.000000
  119       11.249310   0.000000
  120       11.408767   0.000000
  121       11.463271   0.000000
  122       11.721465   0.000000
  123       11.802222   0.000000
  124       12.044544   0.000000
  125       12.107007   0.000000
  126       12.249510   0.000000
  127       12.294384   0.000000
  128       12.493048   0.000000
 
  0.3333333E+00 -0.2775558E-16  0.2775558E-16  0.6060606E-02
    1      -11.947719   1.000000
    2      -11.178354   1.000000
    3      -10.936845   1.000000
    4      -10.872720   1.000000
    5      -10.491929   1.000000
    6      -10.023061   1.000000
    7       -8.986963   1.000000
    8       -8.669098   1.000000
    9       -8.613369   1.000000
   10       -8.551127   1.000000
   11       -8.206317   1.000000
   12       -8.175002   1.000000
   13       -7.979434   1.000000
   14       -6.946007   1.000000
   15       -6.678653   1.000000
   16       -5.975757   1.000000
   17       -5.814361   1.000000
   18       -5.582762   1.000000
   19       -5.270792   1.000000
   20       -5.014360   1.000000
   21       -4.964629   1.000000
   22       -4.908408   1.000000
   23       -4.459453   1.000000
   24       -4.326505   1.000000
   25       -4.049852   1.000000
   26       -3.757999   1.000000
   27       -3.443295   1.000000
   28       -3.262029   1.000000
   29       -2.982658   1.000000
   30       -2.789998   1.000000
   31       -2.738915   1.000000
   32       -2.562236   1.000000
   33       -2.493113   1.000000
   34       -2.413165   1.000000
   35       -2.354361   1.000000
   36       -2.190251   1.000000
   37       -2.037888   1.000000
   38       -1.943570   1.000000
   39       -1.680151   1.000000
   40       -1.517365   1.000000
   41       -1.456388   1.000000
   42       -1.307668   1.000000
   43       -1.280427   1.000000
   44       -1.195234   1.000000
   45       -0.976406   1.000000
   46       -0.799068   1.000000
   47       -0.581723   1.000000
   48       -0.525071   1.000000
   49       -0.490861   1.000000
   50       -0.434284   1.000000
   51       -0.373093   1.000000
   52       -0.230098   1.000000
   53       -0.097363   1.000000
   54        0.010321   1.000000
   55        0.195728   1.000000
   56        0.259340   1.000000
   57        0.425552   1.000000
   58        0.581642   1.000000
   59        0.678718   1.000000
   60        0.753936   1.000000
   61        0.841900   1.000000
   62        0.874659   1.000000
   63        1.004960   1.000000
   64        1.262566   1.000000
   65        1.387273   1.000000
   66        1.490718   1.000000
   67        1.684747   1.000000
   68        1.816629   1.000000
   69        1.920346   1.000000
   70        2.065565   1.000000
   71        2.143214   1.000000
   72        2.229588   1.000000
   73        2.314968   1.000000
   74        2.486050   1.000000
   75        2.563188   1.000000
   76        2.612331   1.000000
   77        2.756467   1.000000
   78        2.833787   1.000000
   79        2.880351   1.000000
   80        3.001019   1.000000
   81        3.046896   1.000000
   82        3.186078   1.000000
   83        3.304937   1.000000
   84        3.400670   1.000000
   85        3.495570   1.000000
   86        3.656399   1.000000
   87        3.712064   1.000000
   88        3.744560   1.000000
   89        3.992109   1.000000
   90        4.114330   1.000000
   91        4.227834   1.000000
   92        4.282770   1.000000
   93        4.333160   1.000000
   94        4.555965   1.000000
   95        4.845242   1.000000
   96        5.260717   1.000000
   97        6.624707   1.000000
   98        6.859811   0.518544
   99        7.088155   0.000000
  100        7.255908   0.000000
  101        7.454134   0.000000
  102        7.549816   0.000000
  103        7.621046   0.000000
  104        7.713879   0.000000
  105        8.108183   0.000000
  106        8.981400   0.000000
  107        9.274085   0.000000
  108        9.441268   0.000000
  109        9.786373   0.000000
  110       10.003295   0.000000
  111       10.062301   0.000000
  112       10.331665   0.000000
  113       10.484986   0.000000
  114       10.648197   0.000000
  115       10.844348   0.000000
  116       10.964352   0.000000
  117       11.093762   0.000000
  118       11.229179   0.000000
  119       11.283167   0.000000
  120       11.412327   0.000000
  121       11.499732   0.000000
  122       11.572463   0.000000
  123       11.717118   0.000000
  124       11.930990   0.000000
  125       12.119344   0.000000
  126       12.271098   0.000000
  127       12.345538   0.000000
  128       12.502804   0.000000
 
  0.5000000E+00  0.0000000E+00  0.2775558E-16  0.3030303E-02
    1      -11.939675   1.000000
    2      -11.187811   1.000000
    3      -10.961362   1.000000
    4      -10.872100   1.000000
    5      -10.488814   1.000000
    6       -9.986670   1.000000
    7       -9.009410   1.000000
    8       -8.667351   1.000000
    9       -8.608561   1.000000
   10       -8.431469   1.000000
   11       -8.309155   1.000000
   12       -8.189563   1.000000
   13       -7.991918   1.000000
   14       -6.938718   1.000000
   15       -6.668386   1.000000
   16       -5.963817   1.000000
   17       -5.800339   1.000000
   18       -5.615266   1.000000
   19       -5.326029   1.000000
   20       -5.023254   1.000000
   21       -4.990317   1.000000
   22       -4.914911   1.000000
   23       -4.440595   1.000000
   24       -4.347237   1.000000
   25       -4.030441   1.000000
   26       -3.696081   1.000000
   27       -3.422757   1.000000
   28       -3.072414   1.000000
   29       -2.893749   1.000000
   30       -2.856333   1.000000
   31       -2.788918   1.000000
   32       -2.600454   1.000000
   33       -2.447294   1.000000
   34       -2.293884   1.000000
   35       -2.266713   1.000000
   36       -2.150633   1.000000
   37       -2.090549   1.000000
   38       -2.043543   1.000000
   39       -1.830807   1.000000
   40       -1.725859   1.000000
   41       -1.542644   1.000000
   42       -1.414461   1.000000
   43       -1.276841   1.000000
   44       -1.245069   1.000000
   45       -0.936786   1.000000
   46       -0.683905   1.000000
   47       -0.669667   1.000000
   48       -0.539436   1.000000
   49       -0.505687   1.000000
   50       -0.316274   1.000000
   51       -0.231440   1.000000
   52       -0.170000   1.000000
   53       -0.124144   1.000000
   54       -0.022834   1.000000
   55        0.182665   1.000000
   56        0.325264   1.000000
   57        0.423854   1.000000
   58        0.519932   1.000000
   59        0.686434   1.000000
   60        0.729125   1.000000
   61        0.796002   1.000000
   62        0.919791   1.000000
   63        1.081120   1.000000
   64        1.265270   1.000000
   65        1.343506   1.000000
   66        1.428361   1.000000
   67        1.638768   1.000000
   68        1.901024   1.000000
   69        2.016380   1.000000
   70        2.039638   1.000000
   71        2.157802   1.000000
   72        2.237848   1.000000
   73        2.347513   1.000000
   74        2.495625   1.000000
   75        2.571646   1.000000
   76        2.619945   1.000000
   77        2.837372   1.000000
   78        2.886997   1.000000
   79        2.899578   1.000000
   80        2.999283   1.000000
   81        3.079801   1.000000
   82        3.262016   1.000000
   83        3.273077   1.000000
   84        3.495500   1.000000
   85        3.519577   1.000000
   86        3.693117   1.000000
   87        3.742845   1.000000
   88        3.783965   1.000000
   89        3.867181   1.000000
   90        3.943581   1.000000
   91        4.068267   1.000000
   92        4.170269   1.000000
   93        4.227857   1.000000
   94        4.511205   1.000000
   95        4.825126   1.000000
   96        5.263136   1.000000
   97        6.761828   1.000000
   98        6.889521  -0.012528
   99        7.107403   0.000000
  100        7.260244   0.000000
  101        7.303877   0.000000
  102        7.465214   0.000000
  103        7.650992   0.000000
  104        7.708121   0.000000
  105        8.101558   0.000000
  106        9.189410   0.000000
  107        9.238845   0.000000
  108        9.491301   0.000000
  109        9.888263   0.000000
  110       10.114606   0.000000
  111       10.201827   0.000000
  112       10.336557   0.000000
  113       10.408320   0.000000
  114       10.565498   0.000000
  115       10.726732   0.000000
  116       10.954406   0.000000
  117       11.060979   0.000000
  118       11.264323   0.000000
  119       11.292410   0.000000
  120       11.426319   0.000000
  121       11.554830   0.000000
  122       11.633232   0.000000
  123       11.691676   0.000000
  124       11.892852   0.000000
  125       11.993993   0.000000
  126       12.287922   0.000000
  127       12.418897   0.000000
  128       12.504612   0.000000
 
  0.0000000E+00  0.2000000E+00  0.0000000E+00  0.6060606E-02
    1      -11.955269   1.000000
    2      -11.231433   1.000000
    3      -10.890654   1.000000
    4      -10.785408   1.000000
    5      -10.477762   1.000000
    6      -10.128329   1.000000
    7       -8.896386   1.000000
    8       -8.752752   1.000000
    9       -8.708389   1.000000
   10       -8.568189   1.000000
   11       -8.248186   1.000000
   12       -8.027521   1.000000
   13       -7.944692   1.000000
   14       -6.976684   1.000000
   15       -6.692508   1.000000
   16       -6.003071   1.000000
   17       -5.869936   1.000000
   18       -5.456640   1.000000
   19       -5.113834   1.000000
   20       -5.013286   1.000000
   21       -4.924138   1.000000
   22       -4.838315   1.000000
   23       -4.541732   1.000000
   24       -4.288942   1.000000
   25       -4.093007   1.000000
   26       -3.767827   1.000000
   27       -3.439788   1.000000
   28       -3.390779   1.000000
   29       -3.257657   1.000000
   30       -3.104243   1.000000
   31       -2.780381   1.000000
   32       -2.692503   1.000000
   33       -2.548116   1.000000
   34       -2.380814   1.000000
   35       -2.155172   1.000000
   36       -2.090287   1.000000
   37       -1.936672   1.000000
   38       -1.891343   1.000000
   39       -1.720901   1.000000
   40       -1.435047   1.000000
   41       -1.242303   1.000000
   42       -1.181791   1.000000
   43       -1.087901   1.000000
   44       -1.017124   1.000000
   45       -0.874924   1.000000
   46       -0.798912   1.000000
   47       -0.700003   1.000000
   48       -0.632289   1.000000
   49       -0.522300   1.000000
   50       -0.471502   1.000000
   51       -0.308586   1.000000
   52       -0.266181   1.000000
   53       -0.115334   1.000000
   54        0.078992   1.000000
   55        0.165370   1.000000
   56        0.285976   1.000000
   57        0.355370   1.000000
   58        0.517018   1.000000
   59        0.663209   1.000000
   60        0.755215   1.000000
   61        0.844837   1.000000
   62        0.983135   1.000000
   63        1.027422   1.000000
   64        1.131990   1.000000
   65        1.411205   1.000000
   66        1.458922   1.000000
   67        1.563249   1.000000
   68        1.796989   1.000000
   69        1.874236   1.000000
   70        1.987045   1.000000
   71        2.068878   1.000000
   72        2.119419   1.000000
   73        2.194151   1.000000
   74        2.340563   1.000000
   75        2.463601   1.000000
   76        2.564013   1.000000
   77        2.699285   1.000000
   78        2.826413   1.000000
   79        2.896549   1.000000
   80        2.947657   1.000000
   81        3.004652   1.000000
   82        3.155393   1.000000
   83        3.297840   1.000000
   84        3.424785   1.000000
   85        3.515328   1.000000
   86        3.715708   1.000000
   87        3.802571   1.000000
   88        3.836542   1.000000
   89        4.037393   1.000000
   90        4.194392   1.000000
   91        4.349711   1.000000
   92        4.517508   1.000000
   93        4.637892   1.000000
   94        4.716704   1.000000
   95        4.946606   1.000000
   96        5.148493   1.000000
   97        6.565823   1.000000
   98        6.656777   1.046007
   99        7.239899   0.000000
  100        7.287615   0.000000
  101        7.414508   0.000000
  102        7.548324   0.000000
  103        7.644726   0.000000
  104        7.898468   0.000000
  105        8.224279   0.000000
  106        8.746021   0.000000
  107        9.140443   0.000000
  108        9.310059   0.000000
  109        9.542331   0.000000
  110        9.661988   0.000000
  111       10.102297   0.000000
  112       10.397506   0.000000
  113       10.455350   0.000000
  114       10.832431   0.000000
  115       10.888302   0.000000
  116       10.991773   0.000000
  117       11.075905   0.000000
  118       11.220745   0.000000
  119       11.359386   0.000000
  120       11.394533   0.000000
  121       11.493124   0.000000
  122       11.670614   0.000000
  123       11.842484   0.000000
  124       11.962091   0.000000
  125       12.042311   0.000000
  126       12.202624   0.000000
  127       12.305543   0.000000
  128       12.344680   0.000000
 
  0.1666667E+00  0.2000000E+00  0.6938894E-17  0.6060606E-02
    1      -11.952963   1.000000
    2      -11.222457   1.000000
    3      -10.889145   1.000000
    4      -10.808528   1.000000
    5      -10.485385   1.000000
    6      -10.123810   1.000000
    7       -8.924346   1.000000
    8       -8.722668   1.000000
    9       -8.645395   1.000000
   10       -8.537234   1.000000
   11       -8.275001   1.000000
   12       -8.071761   1.000000
   13       -7.956174   1.000000
   14       -6.968847   1.000000
   15       -6.689455   1.000000
   16       -6.000524   1.000000
   17       -5.852216   1.000000
   18       -5.481308   1.000000
   19       -5.117196   1.000000
   20       -5.020982   1.000000
   21       -4.942277   1.000000
   22       -4.876689   1.000000
   23       -4.592575   1.000000
   24       -4.304993   1.000000
   25       -4.091890   1.000000
   26       -3.740380   1.000000
   27       -3.495779   1.000000
   28       -3.390114   1.000000
   29       -3.163312   1.000000
   30       -3.078234   1.000000
   31       -2.777219   1.000000
   32       -2.649767   1.000000
   33       -2.519867   1.000000
   34       -2.327847   1.000000
   35       -2.130158   1.000000
   36       -2.036406   1.000000
   37       -1.914412   1.000000
   38       -1.763642   1.000000
   39       -1.609436   1.000000
   40       -1.516483   1.000000
   41       -1.309823   1.000000
   42       -1.208701   1.000000
   43       -1.078406   1.000000
   44       -0.955211   1.000000
   45       -0.888600   1.000000
   46       -0.861623   1.000000
   47       -0.762275   1.000000
   48       -0.644526   1.000000
   49       -0.594944   1.000000
   50       -0.514462   1.000000
   51       -0.464147   1.000000
   52       -0.376421   1.000000
   53       -0.173037   1.000000
   54        0.043026   1.000000
   55        0.168172   1.000000
   56        0.280057   1.000000
   57        0.387786   1.000000
   58        0.508845   1.000000
   59        0.645290   1.000000
   60        0.693221   1.000000
   61        0.858959   1.000000
   62        0.923550   1.000000
   63        1.158228   1.000000
   64        1.254230   1.000000
   65        1.417386   1.000000
   66        1.474999   1.000000
   67        1.629275   1.000000
   68        1.835752   1.000000
   69        1.868240   1.000000
   70        1.994524   1.000000
   71        2.089607   1.000000
   72        2.173668   1.000000
   73        2.263330   1.000000
   74        2.356708   1.000000
   75        2.512468   1.000000
   76        2.556353   1.000000
   77        2.713112   1.000000
   78        2.795067   1.000000
   79        2.863927   1.000000
   80        2.918424   1.000000
   81        3.064093   1.000000
   82        3.175163   1.000000
   83        3.282888   1.000000
   84        3.445935   1.000000
   85        3.549178   1.000000
   86        3.698957   1.000000
   87        3.778992   1.000000
   88        3.912089   1.000000
   89        3.979621   1.000000
   90        4.128774   1.000000
   91        4.316057   1.000000
   92        4.438828   1.000000
   93        4.597735   1.000000
   94        4.642256   1.000000
   95        4.933651   1.000000
   96        5.152166   1.000000
   97        6.550432   1.000000
   98        6.640686   1.000000
   99        7.194123   0.000000
  100        7.302597   0.000000
  101        7.356781   0.000000
  102        7.586582   0.000000
  103        7.736984   0.000000
  104        7.908139   0.000000
  105        8.276821   0.000000
  106        8.847857   0.000000
  107        9.192682   0.000000
  108        9.352425   0.000000
  109        9.607414   0.000000
  110        9.688244   0.000000
  111       10.115781   0.000000
  112       10.361156   0.000000
  113       10.463293   0.000000
  114       10.772435   0.000000
  115       10.871553   0.000000
  116       11.028682   0.000000
  117       11.067610   0.000000
  118       11.147287   0.000000
  119       11.317623   0.000000
  120       11.381027   0.000000
  121       11.520972   0.000000
  122       11.599840   0.000000
  123       11.739042   0.000000
  124       11.860552   0.000000
  125       12.038894   0.000000
  126       12.197014   0.000000
  127       12.272310   0.000000
  128       12.321098   0.000000
 
  0.3333333E+00  0.2000000E+00  0.2775558E-16  0.6060606E-02
    1      -11.940542   1.000000
    2      -11.226232   1.000000
    3      -10.917084   1.000000
    4      -10.840614   1.000000
    5      -10.483226   1.000000
    6      -10.063628   1.000000
    7       -8.947948   1.000000
    8       -8.701787   1.000000
    9       -8.600791   1.000000
   10       -8.459427   1.000000
   11       -8.271222   1.000000
   12       -8.197048   1.000000
   13       -7.982016   1.000000
   14       -6.953655   1.000000
   15       -6.672961   1.000000
   16       -5.983369   1.000000
   17       -5.825669   1.000000
   18       -5.534365   1.000000
   19       -5.212016   1.000000
   20       -5.048163   1.000000
   21       -4.976609   1.000000
   22       -4.934500   1.000000
   23       -4.530733   1.000000
   24       -4.349066   1.000000
   25       -4.103351   1.000000
   26       -3.682547   1.000000
   27       -3.436565   1.000000
   28       -3.379706   1.000000
   29       -3.081951   1.000000
   30       -2.809290   1.000000
   31       -2.667477   1.000000
   32       -2.565640   1.000000
   33       -2.412121   1.000000
   34       -2.298104   1.000000
   35       -2.225984   1.000000
   36       -2.082019   1.000000
   37       -1.928186   1.000000
   38       -1.862399   1.000000
   39       -1.710054   1.000000
   40       -1.562064   1.000000
   41       -1.417208   1.000000
   42       -1.259588   1.000000
   43       -1.213442   1.000000
   44       -1.100815   1.000000
   45       -0.996104   1.000000
   46       -0.871620   1.000000
   47       -0.782492   1.000000
   48       -0.740139   1.000000
   49       -0.679263   1.000000
   50       -0.437926   1.000000
   51       -0.341208   1.000000
   52       -0.225985   1.000000
   53       -0.166066   1.000000
   54       -0.060696   1.000000
   55        0.052360   1.000000
   56        0.293130   1.000000
   57        0.461594   1.000000
   58        0.549741   1.000000
   59        0.654057   1.000000
   60        0.788180   1.000000
   61        0.892254   1.000000
   62        0.947813   1.000000
   63        1.189944   1.000000
   64        1.229984   1.000000
   65        1.328737   1.000000
   66        1.511231   1.000000
   67        1.730379   1.000000
   68        1.777667   1.000000
   69        1.975342   1.000000
   70        2.052612   1.000000
   71        2.167821   1.000000
   72        2.265501   1.000000
   73        2.377254   1.000000
   74        2.412043   1.000000
   75        2.558975   1.000000
   76        2.646874   1.000000
   77        2.712199   1.000000
   78        2.796512   1.000000
   79        2.872251   1.000000
   80        2.966416   1.000000
   81        3.063276   1.000000
   82        3.207207   1.000000
   83        3.349185   1.000000
   84        3.370230   1.000000
   85        3.505925   1.000000
   86        3.574956   1.000000
   87        3.771057   1.000000
   88        3.868522   1.000000
   89        3.974220   1.000000
   90        4.014146   1.000000
   91        4.197166   1.000000
   92        4.275723   1.000000
   93        4.471453   1.000000
   94        4.522855   1.000000
   95        4.875801   1.000000
   96        5.162242   1.000000
   97        6.617186   1.000000
   98        6.746892   1.066925
   99        7.082318   0.000000
  100        7.257678   0.000000
  101        7.440904   0.000000
  102        7.604519   0.000000
  103        7.728591   0.000000
  104        7.780583   0.000000
  105        8.302268   0.000000
  106        9.080933   0.000000
  107        9.353988   0.000000
  108        9.492209   0.000000
  109        9.771847   0.000000
  110        9.813671   0.000000
  111       10.081016   0.000000
  112       10.330983   0.000000
  113       10.463788   0.000000
  114       10.668845   0.000000
  115       10.852053   0.000000
  116       10.964770   0.000000
  117       11.043024   0.000000
  118       11.152201   0.000000
  119       11.205232   0.000000
  120       11.396325   0.000000
  121       11.472402   0.000000
  122       11.574896   0.000000
  123       11.649156   0.000000
  124       11.721500   0.000000
  125       12.089663   0.000000
  126       12.251228   0.000000
  127       12.301688   0.000000
  128       12.353102   0.000000
 
  0.5000000E+00  0.2000000E+00  0.1387779E-16  0.6060606E-02
    1      -11.930022   1.000000
    2      -11.234712   1.000000
    3      -10.981365   1.000000
    4      -10.808195   1.000000
    5      -10.480730   1.000000
    6      -10.011718   1.000000
    7       -8.959943   1.000000
    8       -8.692437   1.000000
    9       -8.611363   1.000000
   10       -8.418757   1.000000
   11       -8.295106   1.000000
   12       -8.214928   1.000000
   13       -8.008339   1.000000
   14       -6.947040   1.000000
   15       -6.659679   1.000000
   16       -5.967576   1.000000
   17       -5.819177   1.000000
   18       -5.556473   1.000000
   19       -5.294352   1.000000
   20       -5.072121   1.000000
   21       -5.008472   1.000000
   22       -4.921183   1.000000
   23       -4.464426   1.000000
   24       -4.376645   1.000000
   25       -4.093769   1.000000
   26       -3.640947   1.000000
   27       -3.372877   1.000000
   28       -3.233748   1.000000
   29       -3.005825   1.000000
   30       -2.787387   1.000000
   31       -2.588779   1.000000
   32       -2.508022   1.000000
   33       -2.436560   1.000000
   34       -2.303235   1.000000
   35       -2.242516   1.000000
   36       -2.104731   1.000000
   37       -2.041079   1.000000
   38       -1.898964   1.000000
   39       -1.827903   1.000000
   40       -1.660756   1.000000
   41       -1.508386   1.000000
   42       -1.419589   1.000000
   43       -1.309286   1.000000
   44       -1.207788   1.000000
   45       -1.144556   1.000000
   46       -0.903573   1.000000
   47       -0.839549   1.000000
   48       -0.606284   1.000000
   49       -0.472628   1.000000
   50       -0.411457   1.000000
   51       -0.233495   1.000000
   52       -0.139150   1.000000
   53       -0.022625   1.000000
   54        0.107017   1.000000
   55        0.152343   1.000000
   56        0.205690   1.000000
   57        0.363513   1.000000
   58        0.496934   1.000000
   59        0.596134   1.000000
   60        0.708765   1.000000
   61        0.878199   1.000000
   62        1.060744   1.000000
   63        1.202857   1.000000
   64        1.288799   1.000000
   65        1.383713   1.000000
   66        1.449213   1.000000
   67        1.691813   1.000000
   68        1.808377   1.000000
   69        1.977312   1.000000
   70        2.114304   1.000000
   71        2.153376   1.000000
   72        2.235752   1.000000
   73        2.340500   1.000000
   74        2.482752   1.000000
   75        2.606410   1.000000
   76        2.727944   1.000000
   77        2.807625   1.000000
   78        2.886421   1.000000
   79        2.934016   1.000000
   80        3.005064   1.000000
   81        3.057886   1.000000
   82        3.198643   1.000000
   83        3.300497   1.000000
   84        3.375388   1.000000
   85        3.477812   1.000000
   86        3.512745   1.000000
   87        3.738986   1.000000
   88        3.814718   1.000000
   89        3.882893   1.000000
   90        3.953794   1.000000
   91        4.128520   1.000000
   92        4.204499   1.000000
   93        4.321208   1.000000
   94        4.492591   1.000000
   95        4.842836   1.000000
   96        5.167837   1.000000
   97        6.743861   1.000000
   98        6.911103   0.065492
   99        7.020870   0.000000
  100        7.234437   0.000000
  101        7.387785   0.000000
  102        7.559158   0.000000
  103        7.671632   0.000000
  104        7.713140   0.000000
  105        8.270821   0.000000
  106        9.287550   0.000000
  107        9.403397   0.000000
  108        9.532076   0.000000
  109        9.876767   0.000000
  110        9.943628   0.000000
  111       10.155620   0.000000
  112       10.390360   0.000000
  113       10.428721   0.000000
  114       10.512813   0.000000
  115       10.724505   0.000000
  116       10.945947   0.000000
  117       11.023777   0.000000
  118       11.095485   0.000000
  119       11.215958   0.000000
  120       11.295409   0.000000
  121       11.550994   0.000000
  122       11.621152   0.000000
  123       11.674540   0.000000
  124       11.805521   0.000000
  125       12.058479   0.000000
  126       12.262702   0.000000
  127       12.345301   0.000000
  128       12.438045   0.000000
 
 -0.3333333E+00  0.2000000E+00 -0.1387779E-16  0.6060606E-02
    1      -11.932610   1.000000
    2      -11.240784   1.000000
    3      -10.985856   1.000000
    4      -10.785816   1.000000
    5      -10.472917   1.000000
    6      -10.015073   1.000000
    7       -8.947449   1.000000
    8       -8.715581   1.000000
    9       -8.617722   1.000000
   10       -8.566658   1.000000
   11       -8.208832   1.000000
   12       -8.153672   1.000000
   13       -8.004744   1.000000
   14       -6.956724   1.000000
   15       -6.662122   1.000000
   16       -5.969243   1.000000
   17       -5.843530   1.000000
   18       -5.522415   1.000000
   19       -5.280422   1.000000
   20       -5.060736   1.000000
   21       -4.976417   1.000000
   22       -4.917804   1.000000
   23       -4.461952   1.000000
   24       -4.358276   1.000000
   25       -4.059778   1.000000
   26       -3.662434   1.000000
   27       -3.352561   1.000000
   28       -3.068179   1.000000
   29       -2.924724   1.000000
   30       -2.881957   1.000000
   31       -2.827919   1.000000
   32       -2.657514   1.000000
   33       -2.472547   1.000000
   34       -2.404480   1.000000
   35       -2.277697   1.000000
   36       -2.198711   1.000000
   37       -2.058092   1.000000
   38       -1.949674   1.000000
   39       -1.787611   1.000000
   40       -1.585198   1.000000
   41       -1.471232   1.000000
   42       -1.404970   1.000000
   43       -1.281192   1.000000
   44       -1.174711   1.000000
   45       -1.065645   1.000000
   46       -0.889884   1.000000
   47       -0.781189   1.000000
   48       -0.521411   1.000000
   49       -0.357780   1.000000
   50       -0.299599   1.000000
   51       -0.242805   1.000000
   52       -0.167476   1.000000
   53       -0.053617   1.000000
   54        0.060076   1.000000
   55        0.221595   1.000000
   56        0.267392   1.000000
   57        0.425708   1.000000
   58        0.505634   1.000000
   59        0.645769   1.000000
   60        0.669456   1.000000
   61        0.886510   1.000000
   62        0.954976   1.000000
   63        1.073872   1.000000
   64        1.238290   1.000000
   65        1.377796   1.000000
   66        1.474397   1.000000
   67        1.699231   1.000000
   68        1.828852   1.000000
   69        1.890293   1.000000
   70        2.096617   1.000000
   71        2.168944   1.000000
   72        2.215422   1.000000
   73        2.301153   1.000000
   74        2.453558   1.000000
   75        2.588280   1.000000
   76        2.662739   1.000000
   77        2.857039   1.000000
   78        2.881761   1.000000
   79        2.940479   1.000000
   80        3.034472   1.000000
   81        3.083718   1.000000
   82        3.143875   1.000000
   83        3.242668   1.000000
   84        3.330402   1.000000
   85        3.428516   1.000000
   86        3.477661   1.000000
   87        3.676336   1.000000
   88        3.838597   1.000000
   89        3.911146   1.000000
   90        3.983505   1.000000
   91        4.237351   1.000000
   92        4.308652   1.000000
   93        4.424212   1.000000
   94        4.546328   1.000000
   95        4.850868   1.000000
   96        5.165242   1.000000
   97        6.738697   1.000182
   98        7.000576  -0.062691
   99        7.044688   0.000000
  100        7.299375   0.000000
  101        7.328771   0.000000
  102        7.517231   0.000000
  103        7.584220   0.000000
  104        7.719739   0.000000
  105        8.212191   0.000000
  106        9.092834   0.000000
  107        9.408058   0.000000
  108        9.511583   0.000000
  109        9.787696   0.000000
  110        9.870338   0.000000
  111       10.035805   0.000000
  112       10.363834   0.000000
  113       10.583562   0.000000
  114       10.646281   0.000000
  115       10.789575   0.000000
  116       10.918620   0.000000
  117       11.026536   0.000000
  118       11.140502   0.000000
  119       11.291228   0.000000
  120       11.364930   0.000000
  121       11.532979   0.000000
  122       11.608795   0.000000
  123       11.702018   0.000000
  124       11.913431   0.000000
  125       12.128852   0.000000
  126       12.215712   0.000000
  127       12.358861   0.000000
  128       12.454017   0.000000
 
 -0.1666667E+00  0.2000000E+00  0.2602085E-17  0.6060606E-02
    1      -11.945413   1.000000
    2      -11.241205   1.000000
    3      -10.930881   1.000000
    4      -10.787839   1.000000
    5      -10.467439   1.000000
    6      -10.071446   1.000000
    7       -8.908151   1.000000
    8       -8.754378   1.000000
    9       -8.689226   1.000000
   10       -8.589734   1.000000
   11       -8.212806   1.000000
   12       -8.067551   1.000000
   13       -7.965683   1.000000
   14       -6.971195   1.000000
   15       -6.678395   1.000000
   16       -5.987661   1.000000
   17       -5.866773   1.000000
   18       -5.476852   1.000000
   19       -5.186775   1.000000
   20       -5.027981   1.000000
   21       -4.949657   1.000000
   22       -4.876095   1.000000
   23       -4.479044   1.000000
   24       -4.314965   1.000000
   25       -4.072201   1.000000
   26       -3.734979   1.000000
   27       -3.368710   1.000000
   28       -3.265577   1.000000
   29       -3.126547   1.000000
   30       -2.973504   1.000000
   31       -2.787192   1.000000
   32       -2.683652   1.000000
   33       -2.497668   1.000000
   34       -2.444928   1.000000
   35       -2.297274   1.000000
   36       -2.109943   1.000000
   37       -2.075090   1.000000
   38       -1.971987   1.000000
   39       -1.864134   1.000000
   40       -1.447126   1.000000
   41       -1.331121   1.000000
   42       -1.287584   1.000000
   43       -1.120834   1.000000
   44       -1.020979   1.000000
   45       -0.913267   1.000000
   46       -0.781314   1.000000
   47       -0.701459   1.000000
   48       -0.598801   1.000000
   49       -0.545742   1.000000
   50       -0.427746   1.000000
   51       -0.257871   1.000000
   52       -0.101675   1.000000
   53       -0.069513   1.000000
   54        0.098209   1.000000
   55        0.205590   1.000000
   56        0.316780   1.000000
   57        0.404656   1.000000
   58        0.550037   1.000000
   59        0.597791   1.000000
   60        0.725204   1.000000
   61        0.838655   1.000000
   62        0.977576   1.000000
   63        1.055166   1.000000
   64        1.135411   1.000000
   65        1.340714   1.000000
   66        1.476325   1.000000
   67        1.618977   1.000000
   68        1.736936   1.000000
   69        1.936806   1.000000
   70        2.059210   1.000000
   71        2.117682   1.000000
   72        2.192957   1.000000
   73        2.237415   1.000000
   74        2.341532   1.000000
   75        2.485735   1.000000
   76        2.605091   1.000000
   77        2.753272   1.000000
   78        2.835411   1.000000
   79        2.919593   1.000000
   80        2.984654   1.000000
   81        3.065801   1.000000
   82        3.134887   1.000000
   83        3.266831   1.000000
   84        3.364623   1.000000
   85        3.450487   1.000000
   86        3.536042   1.000000
   87        3.711643   1.000000
   88        3.882469   1.000000
   89        3.987809   1.000000
   90        4.164926   1.000000
   91        4.306062   1.000000
   92        4.472051   1.000000
   93        4.572665   1.000000
   94        4.666383   1.000000
   95        4.897950   1.000000
   96        5.156173   1.000000
   97        6.638764   1.000337
   98        6.793969   0.822613
   99        7.218905   0.000000
  100        7.334466   0.000000
  101        7.397440   0.000000
  102        7.503101   0.000000
  103        7.563429   0.000000
  104        7.782593   0.000000
  105        8.188315   0.000000
  106        8.843963   0.000000
  107        9.243757   0.000000
  108        9.412240   0.000000
  109        9.608203   0.000000
  110        9.725965   0.000000
  111       10.083765   0.000000
  112       10.380379   0.000000
  113       10.489768   0.000000
  114       10.785495   0.000000
  115       10.894090   0.000000
  116       10.985567   0.000000
  117       11.060423   0.000000
  118       11.213805   0.000000
  119       11.287538   0.000000
  120       11.435574   0.000000
  121       11.497571   0.000000
  122       11.732339   0.000000
  123       11.818312   0.000000
  124       11.962161   0.000000
  125       12.035715   0.000000
  126       12.185908   0.000000
  127       12.337988   0.000000
  128       12.376680   0.000000
 
  0.0000000E+00  0.4000000E+00  0.0000000E+00  0.6060606E-02
    1      -11.927713   1.000000
    2      -11.331591   1.000000
    3      -10.875709   1.000000
    4      -10.767570   1.000000
    5      -10.429563   1.000000
    6      -10.098006   1.000000
    7       -8.926763   1.000000
    8       -8.783991   1.000000
    9       -8.644058   1.000000
   10       -8.509581   1.000000
   11       -8.363934   1.000000
   12       -8.041678   1.000000
   13       -7.946589   1.000000
   14       -6.995887   1.000000
   15       -6.662477   1.000000
   16       -5.988860   1.000000
   17       -5.914645   1.000000
   18       -5.352200   1.000000
   19       -5.192490   1.000000
   20       -5.028733   1.000000
   21       -4.937305   1.000000
   22       -4.898680   1.000000
   23       -4.490430   1.000000
   24       -4.337748   1.000000
   25       -4.120443   1.000000
   26       -3.596854   1.000000
   27       -3.247787   1.000000
   28       -3.169052   1.000000
   29       -3.096763   1.000000
   30       -2.939833   1.000000
   31       -2.879208   1.000000
   32       -2.798093   1.000000
   33       -2.586862   1.000000
   34       -2.513127   1.000000
   35       -2.410279   1.000000
   36       -2.293727   1.000000
   37       -2.087497   1.000000
   38       -1.942898   1.000000
   39       -1.845065   1.000000
   40       -1.581273   1.000000
   41       -1.483717   1.000000
   42       -1.174817   1.000000
   43       -1.015292   1.000000
   44       -0.872778   1.000000
   45       -0.770197   1.000000
   46       -0.700822   1.000000
   47       -0.612569   1.000000
   48       -0.518681   1.000000
   49       -0.461093   1.000000
   50       -0.349928   1.000000
   51       -0.271557   1.000000
   52       -0.155018   1.000000
   53       -0.009271   1.000000
   54        0.096007   1.000000
   55        0.134132   1.000000
   56        0.255723   1.000000
   57        0.433795   1.000000
   58        0.510146   1.000000
   59        0.636536   1.000000
   60        0.699694   1.000000
   61        0.798908   1.000000
   62        0.860993   1.000000
   63        1.033722   1.000000
   64        1.177208   1.000000
   65        1.222900   1.000000
   66        1.513941   1.000000
   67        1.583511   1.000000
   68        1.685038   1.000000
   69        1.864105   1.000000
   70        1.952518   1.000000
   71        1.967534   1.000000
   72        2.141448   1.000000
   73        2.221948   1.000000
   74        2.317305   1.000000
   75        2.540124   1.000000
   76        2.679290   1.000000
   77        2.754971   1.000000
   78        2.927329   1.000000
   79        3.007907   1.000000
   80        3.063266   1.000000
   81        3.106116   1.000000
   82        3.205758   1.000000
   83        3.309169   1.000000
   84        3.431922   1.000000
   85        3.461844   1.000000
   86        3.518114   1.000000
   87        3.730177   1.000000
   88        3.797810   1.000000
   89        4.033090   1.000000
   90        4.124701   1.000000
   91        4.280037   1.000000
   92        4.433091   1.000000
   93        4.607646   1.000000
   94        4.678491   1.000000
   95        4.951689   1.000000
   96        5.011625   1.000000
   97        6.808554   1.003618
   98        6.893924   0.272910
   99        7.149012   0.000000
  100        7.243939   0.000000
  101        7.260784   0.000000
  102        7.413077   0.000000
  103        7.626855   0.000000
  104        7.849308   0.000000
  105        8.492757   0.000000
  106        8.890544   0.000000
  107        9.026645   0.000000
  108        9.333933   0.000000
  109        9.549963   0.000000
  110        9.809298   0.000000
  111       10.116161   0.000000
  112       10.420272   0.000000
  113       10.612825   0.000000
  114       10.747455   0.000000
  115       10.870447   0.000000
  116       11.114007   0.000000
  117       11.166733   0.000000
  118       11.287749   0.000000
  119       11.374730   0.000000
  120       11.468513   0.000000
  121       11.565287   0.000000
  122       11.624312   0.000000
  123       11.710255   0.000000
  124       11.914101   0.000000
  125       11.971145   0.000000
  126       12.131289   0.000000
  127       12.190321   0.000000
  128       12.272624   0.000000
 
  0.1666667E+00  0.4000000E+00  0.0000000E+00  0.6060606E-02
    1      -11.926829   1.000000
    2      -11.318971   1.000000
    3      -10.894375   1.000000
    4      -10.768171   1.000000
    5      -10.435683   1.000000
    6      -10.106182   1.000000
    7       -8.907005   1.000000
    8       -8.777673   1.000000
    9       -8.618818   1.000000
   10       -8.445000   1.000000
   11       -8.398124   1.000000
   12       -8.082646   1.000000
   13       -7.963586   1.000000
   14       -6.987125   1.000000
   15       -6.661452   1.000000
   16       -5.989528   1.000000
   17       -5.895580   1.000000
   18       -5.364098   1.000000
   19       -5.170077   1.000000
   20       -5.075891   1.000000
   21       -4.959814   1.000000
   22       -4.929396   1.000000
   23       -4.540351   1.000000
   24       -4.308200   1.000000
   25       -4.188333   1.000000
   26       -3.596243   1.000000
   27       -3.339191   1.000000
   28       -3.196635   1.000000
   29       -3.023779   1.000000
   30       -2.935547   1.000000
   31       -2.843811   1.000000
   32       -2.764154   1.000000
   33       -2.520352   1.000000
   34       -2.360542   1.000000
   35       -2.278505   1.000000
   36       -2.211329   1.000000
   37       -2.119550   1.000000
   38       -1.900422   1.000000
   39       -1.707065   1.000000
   40       -1.531843   1.000000
   41       -1.408698   1.000000
   42       -1.248469   1.000000
   43       -1.136520   1.000000
   44       -1.035669   1.000000
   45       -0.923247   1.000000
   46       -0.766303   1.000000
   47       -0.642665   1.000000
   48       -0.551143   1.000000
   49       -0.438479   1.000000
   50       -0.319854   1.000000
   51       -0.290529   1.000000
   52       -0.188648   1.000000
   53       -0.145913   1.000000
   54       -0.028592   1.000000
   55        0.016789   1.000000
   56        0.224638   1.000000
   57        0.413003   1.000000
   58        0.502548   1.000000
   59        0.591045   1.000000
   60        0.745314   1.000000
   61        0.867089   1.000000
   62        0.885046   1.000000
   63        1.137606   1.000000
   64        1.265757   1.000000
   65        1.365433   1.000000
   66        1.470731   1.000000
   67        1.645645   1.000000
   68        1.719641   1.000000
   69        1.914133   1.000000
   70        1.983223   1.000000
   71        2.078794   1.000000
   72        2.127701   1.000000
   73        2.272423   1.000000
   74        2.408809   1.000000
   75        2.511328   1.000000
   76        2.592271   1.000000
   77        2.750740   1.000000
   78        2.868412   1.000000
   79        2.921589   1.000000
   80        3.055766   1.000000
   81        3.113001   1.000000
   82        3.198548   1.000000
   83        3.338850   1.000000
   84        3.409891   1.000000
   85        3.530470   1.000000
   86        3.627219   1.000000
   87        3.749234   1.000000
   88        3.794475   1.000000
   89        3.953279   1.000000
   90        4.081824   1.000000
   91        4.212372   1.000000
   92        4.395209   1.000000
   93        4.548100   1.000000
   94        4.651997   1.000000
   95        4.950653   1.000000
   96        4.998095   1.000000
   97        6.703211   1.005178
   98        6.820658   0.740730
   99        7.152802   0.000000
  100        7.280892   0.000000
  101        7.328830   0.000000
  102        7.483282   0.000000
  103        7.635702   0.000000
  104        7.896204   0.000000
  105        8.608021   0.000000
  106        8.953030   0.000000
  107        9.112040   0.000000
  108        9.375988   0.000000
  109        9.590638   0.000000
  110        9.821332   0.000000
  111       10.107895   0.000000
  112       10.403031   0.000000
  113       10.587885   0.000000
  114       10.734715   0.000000
  115       10.874802   0.000000
  116       10.999022   0.000000
  117       11.066166   0.000000
  118       11.205657   0.000000
  119       11.364130   0.000000
  120       11.460000   0.000000
  121       11.518028   0.000000
  122       11.566122   0.000000
  123       11.653926   0.000000
  124       11.802637   0.000000
  125       11.922828   0.000000
  126       12.042396   0.000000
  127       12.195483   0.000000
  128       12.297598   0.000000
 
  0.3333333E+00  0.4000000E+00  0.2775558E-16  0.6060606E-02
    1      -11.919442   1.000000
    2      -11.308093   1.000000
    3      -10.900754   1.000000
    4      -10.824193   1.000000
    5      -10.421908   1.000000
    6      -10.091469   1.000000
    7       -8.869723   1.000000
    8       -8.756272   1.000000
    9       -8.611071   1.000000
   10       -8.426768   1.000000
   11       -8.316925   1.000000
   12       -8.196383   1.000000
   13       -8.003195   1.000000
   14       -6.969392   1.000000
   15       -6.652689   1.000000
   16       -5.979989   1.000000
   17       -5.864769   1.000000
   18       -5.396972   1.000000
   19       -5.174689   1.000000
   20       -5.129708   1.000000
   21       -5.057218   1.000000
   22       -4.956887   1.000000
   23       -4.575602   1.000000
   24       -4.309721   1.000000
   25       -4.209409   1.000000
   26       -3.596355   1.000000
   27       -3.420130   1.000000
   28       -3.244759   1.000000
   29       -2.977253   1.000000
   30       -2.809616   1.000000
   31       -2.720920   1.000000
   32       -2.565622   1.000000
   33       -2.388894   1.000000
   34       -2.281180   1.000000
   35       -2.126618   1.000000
   36       -2.073057   1.000000
   37       -1.985644   1.000000
   38       -1.862250   1.000000
   39       -1.700276   1.000000
   40       -1.523866   1.000000
   41       -1.464607   1.000000
   42       -1.369107   1.000000
   43       -1.284448   1.000000
   44       -1.165315   1.000000
   45       -1.021027   1.000000
   46       -0.915318   1.000000
   47       -0.781689   1.000000
   48       -0.703838   1.000000
   49       -0.627416   1.000000
   50       -0.551496   1.000000
   51       -0.420674   1.000000
   52       -0.226362   1.000000
   53       -0.163109   1.000000
   54       -0.014682   1.000000
   55        0.048426   1.000000
   56        0.195705   1.000000
   57        0.492397   1.000000
   58        0.569326   1.000000
   59        0.654299   1.000000
   60        0.778770   1.000000
   61        0.902926   1.000000
   62        1.033858   1.000000
   63        1.186430   1.000000
   64        1.318031   1.000000
   65        1.467395   1.000000
   66        1.513029   1.000000
   67        1.757602   1.000000
   68        1.773839   1.000000
   69        1.956301   1.000000
   70        2.085378   1.000000
   71        2.201930   1.000000
   72        2.244236   1.000000
   73        2.361155   1.000000
   74        2.442778   1.000000
   75        2.495229   1.000000
   76        2.583474   1.000000
   77        2.715679   1.000000
   78        2.778353   1.000000
   79        2.905186   1.000000
   80        2.969220   1.000000
   81        3.099701   1.000000
   82        3.223735   1.000000
   83        3.327761   1.000000
   84        3.397550   1.000000
   85        3.473704   1.000000
   86        3.610248   1.000000
   87        3.700062   1.000000
   88        3.805848   1.000000
   89        3.970822   1.000000
   90        4.051921   1.000000
   91        4.114980   1.000000
   92        4.261285   1.000000
   93        4.454177   1.000000
   94        4.555741   1.000000
   95        4.932033   1.000000
   96        4.982884   1.000000
   97        6.666415   1.000000
   98        6.772842   1.023434
   99        7.131886   0.000000
  100        7.310236   0.000000
  101        7.412088   0.000000
  102        7.475612   0.000000
  103        7.744324   0.000000
  104        7.860172   0.000000
  105        8.708244   0.000000
  106        9.175421   0.000000
  107        9.298521   0.000000
  108        9.587134   0.000000
  109        9.730752   0.000000
  110        9.857087   0.000000
  111       10.071623   0.000000
  112       10.348902   0.000000
  113       10.505303   0.000000
  114       10.695857   0.000000
  115       10.727973   0.000000
  116       10.838498   0.000000
  117       10.907293   0.000000
  118       11.047829   0.000000
  119       11.193138   0.000000
  120       11.398217   0.000000
  121       11.481445   0.000000
  122       11.586789   0.000000
  123       11.633020   0.000000
  124       11.792143   0.000000
  125       11.927013   0.000000
  126       12.020913   0.000000
  127       12.206354   0.000000
  128       12.268803   0.000000
 
  0.5000000E+00  0.4000000E+00  0.2775558E-16  0.6060606E-02
    1      -11.912836   1.000000
    2      -11.308118   1.000000
    3      -10.930351   1.000000
    4      -10.825362   1.000000
    5      -10.419276   1.000000
    6      -10.066084   1.000000
    7       -8.850388   1.000000
    8       -8.739631   1.000000
    9       -8.638278   1.000000
   10       -8.387242   1.000000
   11       -8.327567   1.000000
   12       -8.205049   1.000000
   13       -8.042417   1.000000
   14       -6.960805   1.000000
   15       -6.645189   1.000000
   16       -5.970787   1.000000
   17       -5.852509   1.000000
   18       -5.405956   1.000000
   19       -5.216983   1.000000
   20       -5.185868   1.000000
   21       -5.076887   1.000000
   22       -4.953672   1.000000
   23       -4.549418   1.000000
   24       -4.330874   1.000000
   25       -4.206310   1.000000
   26       -3.594510   1.000000
   27       -3.400831   1.000000
   28       -3.238500   1.000000
   29       -2.975479   1.000000
   30       -2.778667   1.000000
   31       -2.588634   1.000000
   32       -2.415541   1.000000
   33       -2.377686   1.000000
   34       -2.247634   1.000000
   35       -2.099676   1.000000
   36       -1.994405   1.000000
   37       -1.885569   1.000000
   38       -1.823463   1.000000
   39       -1.789450   1.000000
   40       -1.677759   1.000000
   41       -1.535253   1.000000
   42       -1.416159   1.000000
   43       -1.323766   1.000000
   44       -1.235192   1.000000
   45       -1.097100   1.000000
   46       -1.038911   1.000000
   47       -0.925179   1.000000
   48       -0.792278   1.000000
   49       -0.659604   1.000000
   50       -0.561193   1.000000
   51       -0.485019   1.000000
   52       -0.181319   1.000000
   53       -0.038533   1.000000
   54        0.035172   1.000000
   55        0.136963   1.000000
   56        0.177090   1.000000
   57        0.517690   1.000000
   58        0.607906   1.000000
   59        0.640210   1.000000
   60        0.719574   1.000000
   61        0.946616   1.000000
   62        1.155101   1.000000
   63        1.233252   1.000000
   64        1.316629   1.000000
   65        1.396682   1.000000
   66        1.584739   1.000000
   67        1.743959   1.000000
   68        1.792804   1.000000
   69        1.989858   1.000000
   70        2.095984   1.000000
   71        2.202516   1.000000
   72        2.342283   1.000000
   73        2.429289   1.000000
   74        2.478647   1.000000
   75        2.549408   1.000000
   76        2.622524   1.000000
   77        2.701891   1.000000
   78        2.825212   1.000000
   79        2.893404   1.000000
   80        2.972916   1.000000
   81        3.024963   1.000000
   82        3.178904   1.000000
   83        3.297479   1.000000
   84        3.351441   1.000000
   85        3.434835   1.000000
   86        3.549168   1.000000
   87        3.732402   1.000000
   88        3.840497   1.000000
   89        3.898986   1.000000
   90        3.987453   1.000000
   91        4.084026   1.000000
   92        4.264018   1.000000
   93        4.394188   1.000000
   94        4.475018   1.000000
   95        4.888514   1.000000
   96        5.001688   1.000000
   97        6.695561   1.000000
   98        6.821915   0.894224
   99        7.103759   0.000000
  100        7.287705   0.000000
  101        7.403872   0.000000
  102        7.528579   0.000000
  103        7.759845   0.000000
  104        7.794075   0.000000
  105        8.704883   0.000000
  106        9.330332   0.000000
  107        9.439131   0.000000
  108        9.750428   0.000000
  109        9.845566   0.000000
  110        9.952613   0.000000
  111        9.999363   0.000000
  112       10.313263   0.000000
  113       10.474201   0.000000
  114       10.555664   0.000000
  115       10.646637   0.000000
  116       10.707712   0.000000
  117       10.845486   0.000000
  118       11.005153   0.000000
  119       11.077203   0.000000
  120       11.333506   0.000000
  121       11.537704   0.000000
  122       11.576502   0.000000
  123       11.643088   0.000000
  124       11.870986   0.000000
  125       11.948024   0.000000
  126       12.063753   0.000000
  127       12.190737   0.000000
  128       12.283589   0.000000
 
 -0.3333333E+00  0.4000000E+00 -0.2428613E-16  0.6060606E-02
    1      -11.913961   1.000000
    2      -11.316429   1.000000
    3      -10.960066   1.000000
    4      -10.764358   1.000000
    5      -10.433509   1.000000
    6      -10.054063   1.000000
    7       -8.866318   1.000000
    8       -8.760089   1.000000
    9       -8.624506   1.000000
   10       -8.529262   1.000000
   11       -8.244262   1.000000
   12       -8.166137   1.000000
   13       -8.023004   1.000000
   14       -6.971578   1.000000
   15       -6.646223   1.000000
   16       -5.970800   1.000000
   17       -5.874423   1.000000
   18       -5.373219   1.000000
   19       -5.242468   1.000000
   20       -5.174919   1.000000
   21       -5.030611   1.000000
   22       -4.926477   1.000000
   23       -4.511589   1.000000
   24       -4.347722   1.000000
   25       -4.175191   1.000000
   26       -3.588380   1.000000
   27       -3.265033   1.000000
   28       -3.182582   1.000000
   29       -2.977937   1.000000
   30       -2.793702   1.000000
   31       -2.679818   1.000000
   32       -2.604563   1.000000
   33       -2.522429   1.000000
   34       -2.339567   1.000000
   35       -2.198888   1.000000
   36       -2.079749   1.000000
   37       -2.064083   1.000000
   38       -1.841510   1.000000
   39       -1.739628   1.000000
   40       -1.667736   1.000000
   41       -1.586698   1.000000
   42       -1.457000   1.000000
   43       -1.232607   1.000000
   44       -1.166664   1.000000
   45       -1.025548   1.000000
   46       -0.923684   1.000000
   47       -0.887432   1.000000
   48       -0.694201   1.000000
   49       -0.473991   1.000000
   50       -0.414182   1.000000
   51       -0.290441   1.000000
   52       -0.099505   1.000000
   53       -0.020254   1.000000
   54        0.056373   1.000000
   55        0.202899   1.000000
   56        0.303547   1.000000
   57        0.367030   1.000000
   58        0.443830   1.000000
   59        0.545879   1.000000
   60        0.681063   1.000000
   61        0.854335   1.000000
   62        1.120054   1.000000
   63        1.202367   1.000000
   64        1.297942   1.000000
   65        1.427786   1.000000
   66        1.507078   1.000000
   67        1.707817   1.000000
   68        1.784358   1.000000
   69        1.998232   1.000000
   70        2.032172   1.000000
   71        2.091419   1.000000
   72        2.317387   1.000000
   73        2.421030   1.000000
   74        2.471902   1.000000
   75        2.594517   1.000000
   76        2.676949   1.000000
   77        2.716046   1.000000
   78        2.829287   1.000000
   79        2.898993   1.000000
   80        2.998213   1.000000
   81        3.081329   1.000000
   82        3.138211   1.000000
   83        3.236254   1.000000
   84        3.394620   1.000000
   85        3.424379   1.000000
   86        3.560501   1.000000
   87        3.652662   1.000000
   88        3.853507   1.000000
   89        3.898366   1.000000
   90        3.960742   1.000000
   91        4.184111   1.000000
   92        4.312547   1.000000
   93        4.434335   1.000000
   94        4.542706   1.000000
   95        4.872717   1.000000
   96        5.021041   1.000000
   97        6.767787   1.000337
   98        6.963898  -0.073727
   99        7.063986   0.000000
  100        7.196611   0.000000
  101        7.383649   0.000000
  102        7.540407   0.000000
  103        7.642179   0.000000
  104        7.802037   0.000000
  105        8.599381   0.000000
  106        9.247112   0.000000
  107        9.292333   0.000000
  108        9.662899   0.000000
  109        9.770106   0.000000
  110        9.880392   0.000000
  111       10.069263   0.000000
  112       10.357279   0.000000
  113       10.489975   0.000000
  114       10.648615   0.000000
  115       10.748648   0.000000
  116       10.856548   0.000000
  117       10.871949   0.000000
  118       11.031665   0.000000
  119       11.204453   0.000000
  120       11.356661   0.000000
  121       11.503803   0.000000
  122       11.617118   0.000000
  123       11.688058   0.000000
  124       11.873809   0.000000
  125       11.990374   0.000000
  126       12.097740   0.000000
  127       12.214807   0.000000
  128       12.359320   0.000000
 
 -0.1666667E+00  0.4000000E+00  0.1040834E-16  0.6060606E-02
    1      -11.921439   1.000000
    2      -11.329593   1.000000
    3      -10.922759   1.000000
    4      -10.748520   1.000000
    5      -10.433407   1.000000
    6      -10.070427   1.000000
    7       -8.906980   1.000000
    8       -8.776691   1.000000
    9       -8.625146   1.000000
   10       -8.575470   1.000000
   11       -8.291477   1.000000
   12       -8.081628   1.000000
   13       -7.969710   1.000000
   14       -6.988896   1.000000
   15       -6.654746   1.000000
   16       -5.979161   1.000000
   17       -5.905657   1.000000
   18       -5.355766   1.000000
   19       -5.221747   1.000000
   20       -5.084920   1.000000
   21       -4.946903   1.000000
   22       -4.926491   1.000000
   23       -4.488468   1.000000
   24       -4.355413   1.000000
   25       -4.113322   1.000000
   26       -3.588788   1.000000
   27       -3.194444   1.000000
   28       -3.073017   1.000000
   29       -3.037645   1.000000
   30       -2.935542   1.000000
   31       -2.848178   1.000000
   32       -2.720370   1.000000
   33       -2.640220   1.000000
   34       -2.544404   1.000000
   35       -2.357248   1.000000
   36       -2.225104   1.000000
   37       -2.059828   1.000000
   38       -1.940250   1.000000
   39       -1.819245   1.000000
   40       -1.650236   1.000000
   41       -1.528819   1.000000
   42       -1.312596   1.000000
   43       -1.115133   1.000000
   44       -0.930121   1.000000
   45       -0.881761   1.000000
   46       -0.821437   1.000000
   47       -0.625994   1.000000
   48       -0.534168   1.000000
   49       -0.414686   1.000000
   50       -0.275514   1.000000
   51       -0.197707   1.000000
   52       -0.106036   1.000000
   53       -0.019114   1.000000
   54        0.031537   1.000000
   55        0.187788   1.000000
   56        0.265551   1.000000
   57        0.381657   1.000000
   58        0.408422   1.000000
   59        0.611209   1.000000
   60        0.662884   1.000000
   61        0.764130   1.000000
   62        0.999150   1.000000
   63        1.130802   1.000000
   64        1.227958   1.000000
   65        1.328260   1.000000
   66        1.404716   1.000000
   67        1.637422   1.000000
   68        1.787596   1.000000
   69        1.885027   1.000000
   70        1.963887   1.000000
   71        2.089203   1.000000
   72        2.123517   1.000000
   73        2.280899   1.000000
   74        2.399949   1.000000
   75        2.578677   1.000000
   76        2.686248   1.000000
   77        2.758722   1.000000
   78        2.895409   1.000000
   79        2.985865   1.000000
   80        3.034444   1.000000
   81        3.121387   1.000000
   82        3.167000   1.000000
   83        3.255047   1.000000
   84        3.343144   1.000000
   85        3.485637   1.000000
   86        3.526801   1.000000
   87        3.675283   1.000000
   88        3.777470   1.000000
   89        3.990207   1.000000
   90        4.059720   1.000000
   91        4.280154   1.000000
   92        4.401248   1.000000
   93        4.555844   1.000000
   94        4.639575   1.000000
   95        4.902582   1.000000
   96        5.024201   1.000000
   97        6.867417   0.985111
   98        6.964219  -0.034578
   99        7.068668   0.000000
  100        7.172769   0.000000
  101        7.332209   0.000000
  102        7.452768   0.000000
  103        7.622231   0.000000
  104        7.802890   0.000000
  105        8.488853   0.000000
  106        9.016729   0.000000
  107        9.103497   0.000000
  108        9.456380   0.000000
  109        9.618415   0.000000
  110        9.829571   0.000000
  111       10.114442   0.000000
  112       10.410403   0.000000
  113       10.589379   0.000000
  114       10.678834   0.000000
  115       10.829456   0.000000
  116       11.053036   0.000000
  117       11.099378   0.000000
  118       11.185773   0.000000
  119       11.300136   0.000000
  120       11.448337   0.000000
  121       11.566581   0.000000
  122       11.640235   0.000000
  123       11.770728   0.000000
  124       11.837997   0.000000
  125       12.012159   0.000000
  126       12.054440   0.000000
  127       12.222907   0.000000
  128       12.306353   0.000000
 
  0.0000000E+00  0.0000000E+00  0.9090909E-01  0.6060606E-02
    1      -11.944701   1.000000
    2      -11.142659   1.000000
    3      -10.898045   1.000000
    4      -10.796850   1.000000
    5      -10.505076   1.000000
    6      -10.141483   1.000000
    7       -9.023304   1.000000
    8       -8.713858   1.000000
    9       -8.634392   1.000000
   10       -8.601332   1.000000
   11       -8.244829   1.000000
   12       -8.058235   1.000000
   13       -7.960291   1.000000
   14       -6.981255   1.000000
   15       -6.741631   1.000000
   16       -5.996728   1.000000
   17       -5.835623   1.000000
   18       -5.526552   1.000000
   19       -5.163818   1.000000
   20       -4.996232   1.000000
   21       -4.911872   1.000000
   22       -4.823657   1.000000
   23       -4.501259   1.000000
   24       -4.329880   1.000000
   25       -4.146943   1.000000
   26       -3.807668   1.000000
   27       -3.470073   1.000000
   28       -3.362565   1.000000
   29       -3.252646   1.000000
   30       -2.998623   1.000000
   31       -2.791547   1.000000
   32       -2.657215   1.000000
   33       -2.609052   1.000000
   34       -2.330253   1.000000
   35       -2.184903   1.000000
   36       -2.018482   1.000000
   37       -1.905371   1.000000
   38       -1.835430   1.000000
   39       -1.672522   1.000000
   40       -1.485779   1.000000
   41       -1.253807   1.000000
   42       -1.165275   1.000000
   43       -1.093162   1.000000
   44       -0.978435   1.000000
   45       -0.869437   1.000000
   46       -0.767499   1.000000
   47       -0.697992   1.000000
   48       -0.669960   1.000000
   49       -0.556757   1.000000
   50       -0.505960   1.000000
   51       -0.424890   1.000000
   52       -0.286012   1.000000
   53        0.010195   1.000000
   54        0.134124   1.000000
   55        0.289787   1.000000
   56        0.380661   1.000000
   57        0.449577   1.000000
   58        0.525815   1.000000
   59        0.632411   1.000000
   60        0.697861   1.000000
   61        0.864648   1.000000
   62        0.988922   1.000000
   63        1.098249   1.000000
   64        1.218162   1.000000
   65        1.341114   1.000000
   66        1.444623   1.000000
   67        1.698281   1.000000
   68        1.782459   1.000000
   69        1.880938   1.000000
   70        1.985095   1.000000
   71        2.041438   1.000000
   72        2.153983   1.000000
   73        2.228191   1.000000
   74        2.342922   1.000000
   75        2.453365   1.000000
   76        2.552346   1.000000
   77        2.614237   1.000000
   78        2.685420   1.000000
   79        2.828551   1.000000
   80        2.958216   1.000000
   81        2.995815   1.000000
   82        3.229393   1.000000
   83        3.273604   1.000000
   84        3.475498   1.000000
   85        3.588599   1.000000
   86        3.610756   1.000000
   87        3.839312   1.000000
   88        3.897482   1.000000
   89        4.101244   1.000000
   90        4.162847   1.000000
   91        4.325237   1.000000
   92        4.491847   1.000000
   93        4.613151   1.000000
   94        4.674153   1.000000
   95        4.823662   1.000000
   96        5.157906   1.000000
   97        6.516762   1.000000
   98        6.625023   1.006297
   99        7.215646   0.000000
  100        7.248281   0.000000
  101        7.363102   0.000000
  102        7.564565   0.000000
  103        7.686922   0.000000
  104        7.911822   0.000000
  105        8.174682   0.000000
  106        8.750504   0.000000
  107        9.057098   0.000000
  108        9.243646   0.000000
  109        9.541468   0.000000
  110        9.675281   0.000000
  111       10.048663   0.000000
  112       10.256834   0.000000
  113       10.528240   0.000000
  114       10.782680   0.000000
  115       10.841745   0.000000
  116       10.928640   0.000000
  117       11.016029   0.000000
  118       11.117070   0.000000
  119       11.254247   0.000000
  120       11.332144   0.000000
  121       11.499074   0.000000
  122       11.734278   0.000000
  123       11.826665   0.000000
  124       11.942789   0.000000
  125       12.034284   0.000000
  126       12.095445   0.000000
  127       12.237474   0.000000
  128       12.332395   0.000000
 
  0.1666667E+00  0.0000000E+00  0.9090909E-01  0.6060606E-02
    1      -11.943352   1.000000
    2      -11.147258   1.000000
    3      -10.897669   1.000000
    4      -10.800565   1.000000
    5      -10.504103   1.000000
    6      -10.133457   1.000000
    7       -8.948262   1.000000
    8       -8.741383   1.000000
    9       -8.709314   1.000000
   10       -8.597145   1.000000
   11       -8.267571   1.000000
   12       -8.036816   1.000000
   13       -7.957093   1.000000
   14       -6.957099   1.000000
   15       -6.733726   1.000000
   16       -5.982792   1.000000
   17       -5.835907   1.000000
   18       -5.502207   1.000000
   19       -5.185132   1.000000
   20       -4.994446   1.000000
   21       -4.928681   1.000000
   22       -4.851522   1.000000
   23       -4.490546   1.000000
   24       -4.333593   1.000000
   25       -4.175387   1.000000
   26       -3.865002   1.000000
   27       -3.458377   1.000000
   28       -3.377666   1.000000
   29       -3.220015   1.000000
   30       -2.995204   1.000000
   31       -2.749996   1.000000
   32       -2.652029   1.000000
   33       -2.562636   1.000000
   34       -2.368484   1.000000
   35       -2.181769   1.000000
   36       -1.989590   1.000000
   37       -1.920652   1.000000
   38       -1.827667   1.000000
   39       -1.662631   1.000000
   40       -1.400848   1.000000
   41       -1.283222   1.000000
   42       -1.239969   1.000000
   43       -1.044811   1.000000
   44       -0.898713   1.000000
   45       -0.846712   1.000000
   46       -0.766457   1.000000
   47       -0.675695   1.000000
   48       -0.584326   1.000000
   49       -0.546451   1.000000
   50       -0.481455   1.000000
   51       -0.391619   1.000000
   52       -0.145477   1.000000
   53       -0.103013   1.000000
   54        0.010490   1.000000
   55        0.114602   1.000000
   56        0.175200   1.000000
   57        0.392727   1.000000
   58        0.448385   1.000000
   59        0.565459   1.000000
   60        0.649184   1.000000
   61        0.705739   1.000000
   62        1.014223   1.000000
   63        1.138752   1.000000
   64        1.283120   1.000000
   65        1.418520   1.000000
   66        1.551581   1.000000
   67        1.635522   1.000000
   68        1.819526   1.000000
   69        1.966685   1.000000
   70        2.005839   1.000000
   71        2.154218   1.000000
   72        2.236591   1.000000
   73        2.302184   1.000000
   74        2.448964   1.000000
   75        2.507861   1.000000
   76        2.521145   1.000000
   77        2.607039   1.000000
   78        2.682388   1.000000
   79        2.839635   1.000000
   80        2.924709   1.000000
   81        2.982425   1.000000
   82        3.206100   1.000000
   83        3.252139   1.000000
   84        3.490997   1.000000
   85        3.580124   1.000000
   86        3.653456   1.000000
   87        3.788770   1.000000
   88        3.892224   1.000000
   89        3.969969   1.000000
   90        4.172190   1.000000
   91        4.288077   1.000000
   92        4.450944   1.000000
   93        4.609979   1.000000
   94        4.738308   1.000000
   95        4.793496   1.000000
   96        5.158116   1.000000
   97        6.515849   1.000000
   98        6.623785   1.000000
   99        7.210976   0.000000
  100        7.259202   0.000000
  101        7.364646   0.000000
  102        7.568291   0.000000
  103        7.666410   0.000000
  104        7.904424   0.000000
  105        8.191859   0.000000
  106        8.735094   0.000000
  107        9.089144   0.000000
  108        9.303052   0.000000
  109        9.579474   0.000000
  110        9.717084   0.000000
  111       10.047334   0.000000
  112       10.250763   0.000000
  113       10.511693   0.000000
  114       10.755959   0.000000
  115       10.834983   0.000000
  116       10.958306   0.000000
  117       11.007979   0.000000
  118       11.100826   0.000000
  119       11.202566   0.000000
  120       11.281226   0.000000
  121       11.514485   0.000000
  122       11.697389   0.000000
  123       11.779754   0.000000
  124       11.886410   0.000000
  125       11.957112   0.000000
  126       12.111379   0.000000
  127       12.235652   0.000000
  128       12.339593   0.000000
 
  0.3333333E+00 -0.2775558E-16  0.9090909E-01  0.6060606E-02
    1      -11.930275   1.000000
    2      -11.161346   1.000000
    3      -10.919821   1.000000
    4      -10.832595   1.000000
    5      -10.497022   1.000000
    6      -10.065632   1.000000
    7       -8.928924   1.000000
    8       -8.749789   1.000000
    9       -8.699391   1.000000
   10       -8.586570   1.000000
   11       -8.265093   1.000000
   12       -8.089044   1.000000
   13       -7.982256   1.000000
   14       -6.941820   1.000000
   15       -6.711013   1.000000
   16       -5.976192   1.000000
   17       -5.812777   1.000000
   18       -5.518475   1.000000
   19       -5.262375   1.000000
   20       -5.004086   1.000000
   21       -4.965462   1.000000
   22       -4.928509   1.000000
   23       -4.455207   1.000000
   24       -4.360047   1.000000
   25       -4.135076   1.000000
   26       -3.876903   1.000000
   27       -3.432335   1.000000
   28       -3.262688   1.000000
   29       -3.066561   1.000000
   30       -2.811664   1.000000
   31       -2.670454   1.000000
   32       -2.641505   1.000000
   33       -2.509807   1.000000
   34       -2.397268   1.000000
   35       -2.299749   1.000000
   36       -2.128042   1.000000
   37       -1.937421   1.000000
   38       -1.913971   1.000000
   39       -1.708380   1.000000
   40       -1.464037   1.000000
   41       -1.341544   1.000000
   42       -1.248546   1.000000
   43       -1.099995   1.000000
   44       -0.981716   1.000000
   45       -0.904599   1.000000
   46       -0.758281   1.000000
   47       -0.707822   1.000000
   48       -0.638178   1.000000
   49       -0.458314   1.000000
   50       -0.387364   1.000000
   51       -0.278535   1.000000
   52       -0.232870   1.000000
   53       -0.179937   1.000000
   54       -0.100396   1.000000
   55        0.125558   1.000000
   56        0.294138   1.000000
   57        0.357756   1.000000
   58        0.514785   1.000000
   59        0.588097   1.000000
   60        0.759862   1.000000
   61        0.841195   1.000000
   62        0.954875   1.000000
   63        1.026934   1.000000
   64        1.165603   1.000000
   65        1.364311   1.000000
   66        1.505785   1.000000
   67        1.730065   1.000000
   68        1.844703   1.000000
   69        1.989998   1.000000
   70        2.149892   1.000000
   71        2.241850   1.000000
   72        2.294304   1.000000
   73        2.371668   1.000000
   74        2.433259   1.000000
   75        2.527905   1.000000
   76        2.566218   1.000000
   77        2.689266   1.000000
   78        2.827772   1.000000
   79        2.927323   1.000000
   80        2.948145   1.000000
   81        3.073803   1.000000
   82        3.189569   1.000000
   83        3.280089   1.000000
   84        3.407707   1.000000
   85        3.514023   1.000000
   86        3.611655   1.000000
   87        3.638924   1.000000
   88        3.810291   1.000000
   89        3.962208   1.000000
   90        4.065328   1.000000
   91        4.194514   1.000000
   92        4.300552   1.000000
   93        4.517842   1.000000
   94        4.637992   1.000000
   95        4.753042   1.000000
   96        5.161747   1.000000
   97        6.622205   1.000000
   98        6.769440   1.062524
   99        7.087346   0.000000
  100        7.209688   0.000000
  101        7.457258   0.000000
  102        7.563947   0.000000
  103        7.631721   0.000000
  104        7.785235   0.000000
  105        8.167760   0.000000
  106        8.857246   0.000000
  107        9.224468   0.000000
  108        9.459833   0.000000
  109        9.699531   0.000000
  110        9.892831   0.000000
  111        9.984919   0.000000
  112       10.314509   0.000000
  113       10.545653   0.000000
  114       10.637892   0.000000
  115       10.798027   0.000000
  116       10.913428   0.000000
  117       11.049306   0.000000
  118       11.115607   0.000000
  119       11.213121   0.000000
  120       11.276118   0.000000
  121       11.429657   0.000000
  122       11.561310   0.000000
  123       11.626981   0.000000
  124       11.810610   0.000000
  125       12.021972   0.000000
  126       12.130880   0.000000
  127       12.306572   0.000000
  128       12.363166   0.000000
 
  0.5000000E+00  0.0000000E+00  0.9090909E-01  0.6060606E-02
    1      -11.917882   1.000000
    2      -11.172310   1.000000
    3      -10.953344   1.000000
    4      -10.841592   1.000000
    5      -10.492841   1.000000
    6      -10.010777   1.000000
    7       -9.004011   1.000000
    8       -8.705411   1.000000
    9       -8.625884   1.000000
   10       -8.555633   1.000000
   11       -8.230133   1.000000
   12       -8.186763   1.000000
   13       -8.015613   1.000000
   14       -6.948531   1.000000
   15       -6.699630   1.000000
   16       -5.981127   1.000000
   17       -5.799208   1.000000
   18       -5.561377   1.000000
   19       -5.276908   1.000000
   20       -5.043643   1.000000
   21       -4.991025   1.000000
   22       -4.961181   1.000000
   23       -4.455020   1.000000
   24       -4.376730   1.000000
   25       -4.057371   1.000000
   26       -3.801151   1.000000
   27       -3.407847   1.000000
   28       -3.072520   1.000000
   29       -2.913893   1.000000
   30       -2.879265   1.000000
   31       -2.713104   1.000000
   32       -2.586639   1.000000
   33       -2.430679   1.000000
   34       -2.389294   1.000000
   35       -2.288642   1.000000
   36       -2.130594   1.000000
   37       -2.051499   1.000000
   38       -1.973423   1.000000
   39       -1.710638   1.000000
   40       -1.525789   1.000000
   41       -1.464197   1.000000
   42       -1.348518   1.000000
   43       -1.306515   1.000000
   44       -1.235109   1.000000
   45       -1.083934   1.000000
   46       -0.775677   1.000000
   47       -0.693940   1.000000
   48       -0.523783   1.000000
   49       -0.445746   1.000000
   50       -0.301310   1.000000
   51       -0.245391   1.000000
   52       -0.189062   1.000000
   53       -0.048637   1.000000
   54        0.088485   1.000000
   55        0.178287   1.000000
   56        0.285704   1.000000
   57        0.432861   1.000000
   58        0.588691   1.000000
   59        0.680971   1.000000
   60        0.748611   1.000000
   61        0.832597   1.000000
   62        0.948378   1.000000
   63        1.025245   1.000000
   64        1.234839   1.000000
   65        1.368959   1.000000
   66        1.475395   1.000000
   67        1.673947   1.000000
   68        1.866330   1.000000
   69        1.977696   1.000000
   70        2.106136   1.000000
   71        2.164291   1.000000
   72        2.254541   1.000000
   73        2.338114   1.000000
   74        2.514658   1.000000
   75        2.538796   1.000000
   76        2.612110   1.000000
   77        2.812060   1.000000
   78        2.862735   1.000000
   79        2.951783   1.000000
   80        3.002125   1.000000
   81        3.069791   1.000000
   82        3.183694   1.000000
   83        3.365466   1.000000
   84        3.410292   1.000000
   85        3.491161   1.000000
   86        3.554914   1.000000
   87        3.711281   1.000000
   88        3.813011   1.000000
   89        3.901467   1.000000
   90        3.937193   1.000000
   91        4.074008   1.000000
   92        4.224865   1.000000
   93        4.363328   1.000000
   94        4.501219   1.000000
   95        4.732920   1.000000
   96        5.164835   1.000000
   97        6.778725   1.000000
   98        6.896426   0.065764
   99        7.025304   0.000000
  100        7.235281   0.000000
  101        7.332178   0.000000
  102        7.537364   0.000000
  103        7.629217   0.000000
  104        7.711456   0.000000
  105        8.133941   0.000000
  106        9.078766   0.000000
  107        9.262794   0.000000
  108        9.514090   0.000000
  109        9.761867   0.000000
  110       10.050454   0.000000
  111       10.120342   0.000000
  112       10.374060   0.000000
  113       10.432157   0.000000
  114       10.573772   0.000000
  115       10.732472   0.000000
  116       10.896019   0.000000
  117       11.006874   0.000000
  118       11.115944   0.000000
  119       11.152668   0.000000
  120       11.319487   0.000000
  121       11.466443   0.000000
  122       11.554316   0.000000
  123       11.619906   0.000000
  124       11.872813   0.000000
  125       12.024508   0.000000
  126       12.094048   0.000000
  127       12.343002   0.000000
  128       12.481586   0.000000
 
 -0.3333333E+00  0.2775558E-16  0.9090909E-01  0.6060606E-02
    1      -11.919373   1.000000
    2      -11.170110   1.000000
    3      -10.937311   1.000000
    4      -10.854521   1.000000
    5      -10.493148   1.000000
    6      -10.016524   1.000000
    7       -9.054829   1.000000
    8       -8.694608   1.000000
    9       -8.635474   1.000000
   10       -8.432051   1.000000
   11       -8.271089   1.000000
   12       -8.192763   1.000000
   13       -8.021823   1.000000
   14       -6.973497   1.000000
   15       -6.708063   1.000000
   16       -5.989308   1.000000
   17       -5.807351   1.000000
   18       -5.585315   1.000000
   19       -5.204390   1.000000
   20       -5.075598   1.000000
   21       -4.998130   1.000000
   22       -4.946318   1.000000
   23       -4.454900   1.000000
   24       -4.345772   1.000000
   25       -4.068852   1.000000
   26       -3.732666   1.000000
   27       -3.396938   1.000000
   28       -3.142619   1.000000
   29       -2.927934   1.000000
   30       -2.830376   1.000000
   31       -2.719440   1.000000
   32       -2.621003   1.000000
   33       -2.407417   1.000000
   34       -2.321211   1.000000
   35       -2.295539   1.000000
   36       -2.175277   1.000000
   37       -2.029277   1.000000
   38       -1.928788   1.000000
   39       -1.829806   1.000000
   40       -1.715490   1.000000
   41       -1.557984   1.000000
   42       -1.473877   1.000000
   43       -1.291622   1.000000
   44       -1.112516   1.000000
   45       -1.003886   1.000000
   46       -0.697294   1.000000
   47       -0.610757   1.000000
   48       -0.539442   1.000000
   49       -0.438823   1.000000
   50       -0.354201   1.000000
   51       -0.288245   1.000000
   52       -0.200805   1.000000
   53       -0.136774   1.000000
   54        0.176357   1.000000
   55        0.317438   1.000000
   56        0.415833   1.000000
   57        0.482483   1.000000
   58        0.600163   1.000000
   59        0.671693   1.000000
   60        0.781822   1.000000
   61        0.848946   1.000000
   62        0.962761   1.000000
   63        1.136958   1.000000
   64        1.279837   1.000000
   65        1.355167   1.000000
   66        1.462031   1.000000
   67        1.616212   1.000000
   68        1.842247   1.000000
   69        1.905043   1.000000
   70        2.004791   1.000000
   71        2.143807   1.000000
   72        2.223203   1.000000
   73        2.326138   1.000000
   74        2.464638   1.000000
   75        2.509334   1.000000
   76        2.595640   1.000000
   77        2.662108   1.000000
   78        2.782851   1.000000
   79        2.904708   1.000000
   80        2.944012   1.000000
   81        3.099451   1.000000
   82        3.213417   1.000000
   83        3.370262   1.000000
   84        3.432033   1.000000
   85        3.510860   1.000000
   86        3.603268   1.000000
   87        3.711484   1.000000
   88        3.870370   1.000000
   89        3.955557   1.000000
   90        4.003785   1.000000
   91        4.105165   1.000000
   92        4.256150   1.000000
   93        4.377470   1.000000
   94        4.478350   1.000000
   95        4.750971   1.000000
   96        5.165224   1.000000
   97        6.669672   1.000000
   98        6.959723   0.001173
   99        7.073659   0.000000
  100        7.263651   0.000000
  101        7.397297   0.000000
  102        7.474439   0.000000
  103        7.639796   0.000000
  104        7.670511   0.000000
  105        8.118148   0.000000
  106        9.072118   0.000000
  107        9.319295   0.000000
  108        9.460234   0.000000
  109        9.671647   0.000000
  110        9.914924   0.000000
  111       10.024223   0.000000
  112       10.406507   0.000000
  113       10.439302   0.000000
  114       10.691124   0.000000
  115       10.793875   0.000000
  116       10.919028   0.000000
  117       11.005875   0.000000
  118       11.154850   0.000000
  119       11.201102   0.000000
  120       11.311594   0.000000
  121       11.538958   0.000000
  122       11.555195   0.000000
  123       11.693324   0.000000
  124       11.776992   0.000000
  125       12.144756   0.000000
  126       12.182562   0.000000
  127       12.239219   0.000000
  128       12.508584   0.000000
 
 -0.1666667E+00  0.0000000E+00  0.9090909E-01  0.6060606E-02
    1      -11.933102   1.000000
    2      -11.154609   1.000000
    3      -10.894945   1.000000
    4      -10.851737   1.000000
    5      -10.497905   1.000000
    6      -10.079030   1.000000
    7       -9.061366   1.000000
    8       -8.702705   1.000000
    9       -8.635333   1.000000
   10       -8.494545   1.000000
   11       -8.222313   1.000000
   12       -8.153638   1.000000
   13       -7.988951   1.000000
   14       -6.990750   1.000000
   15       -6.727484   1.000000
   16       -5.998355   1.000000
   17       -5.820135   1.000000
   18       -5.568657   1.000000
   19       -5.165907   1.000000
   20       -5.028758   1.000000
   21       -4.977944   1.000000
   22       -4.877489   1.000000
   23       -4.456708   1.000000
   24       -4.334039   1.000000
   25       -4.116252   1.000000
   26       -3.755462   1.000000
   27       -3.420097   1.000000
   28       -3.282837   1.000000
   29       -3.075475   1.000000
   30       -2.871337   1.000000
   31       -2.837221   1.000000
   32       -2.575312   1.000000
   33       -2.471467   1.000000
   34       -2.374688   1.000000
   35       -2.226041   1.000000
   36       -2.169185   1.000000
   37       -1.998117   1.000000
   38       -1.886989   1.000000
   39       -1.813243   1.000000
   40       -1.706966   1.000000
   41       -1.359045   1.000000
   42       -1.188641   1.000000
   43       -1.148852   1.000000
   44       -0.985414   1.000000
   45       -0.955719   1.000000
   46       -0.834584   1.000000
   47       -0.732404   1.000000
   48       -0.628316   1.000000
   49       -0.496270   1.000000
   50       -0.434119   1.000000
   51       -0.369432   1.000000
   52       -0.105336   1.000000
   53       -0.032665   1.000000
   54        0.084944   1.000000
   55        0.337858   1.000000
   56        0.456339   1.000000
   57        0.497300   1.000000
   58        0.632140   1.000000
   59        0.724474   1.000000
   60        0.784041   1.000000
   61        0.840653   1.000000
   62        0.930089   1.000000
   63        1.181461   1.000000
   64        1.248154   1.000000
   65        1.359948   1.000000
   66        1.439676   1.000000
   67        1.615248   1.000000
   68        1.734888   1.000000
   69        1.821433   1.000000
   70        2.005707   1.000000
   71        2.116663   1.000000
   72        2.177269   1.000000
   73        2.240583   1.000000
   74        2.358325   1.000000
   75        2.455843   1.000000
   76        2.523902   1.000000
   77        2.630003   1.000000
   78        2.771582   1.000000
   79        2.839850   1.000000
   80        2.993922   1.000000
   81        3.023418   1.000000
   82        3.166454   1.000000
   83        3.357838   1.000000
   84        3.433941   1.000000
   85        3.537309   1.000000
   86        3.597435   1.000000
   87        3.759945   1.000000
   88        3.905757   1.000000
   89        4.079122   1.000000
   90        4.110194   1.000000
   91        4.241622   1.000000
   92        4.408016   1.000000
   93        4.502253   1.000000
   94        4.571310   1.000000
   95        4.798793   1.000000
   96        5.162007   1.000000
   97        6.576728   1.000000
   98        6.751993   0.976836
   99        7.168891   0.000000
  100        7.296082   0.000000
  101        7.364313   0.000000
  102        7.556466   0.000000
  103        7.658182   0.000000
  104        7.776933   0.000000
  105        8.130955   0.000000
  106        8.885618   0.000000
  107        9.186735   0.000000
  108        9.346055   0.000000
  109        9.588809   0.000000
  110        9.757885   0.000000
  111        9.971410   0.000000
  112       10.349087   0.000000
  113       10.513733   0.000000
  114       10.756179   0.000000
  115       10.841353   0.000000
  116       10.894572   0.000000
  117       11.054211   0.000000
  118       11.141452   0.000000
  119       11.255945   0.000000
  120       11.399364   0.000000
  121       11.474479   0.000000
  122       11.637079   0.000000
  123       11.731289   0.000000
  124       11.935012   0.000000
  125       12.044881   0.000000
  126       12.149823   0.000000
  127       12.291733   0.000000
  128       12.449470   0.000000
 
  0.0000000E+00  0.2000000E+00  0.9090909E-01  0.6060606E-02
    1      -11.937433   1.000000
    2      -11.179169   1.000000
    3      -10.897443   1.000000
    4      -10.785788   1.000000
    5      -10.492159   1.000000
    6      -10.119074   1.000000
    7       -8.978010   1.000000
    8       -8.786093   1.000000
    9       -8.680151   1.000000
   10       -8.578052   1.000000
   11       -8.199568   1.000000
   12       -8.088761   1.000000
   13       -7.951303   1.000000
   14       -6.983301   1.000000
   15       -6.733755   1.000000
   16       -6.008062   1.000000
   17       -5.844831   1.000000
   18       -5.450786   1.000000
   19       -5.196141   1.000000
   20       -5.053947   1.000000
   21       -4.988313   1.000000
   22       -4.780334   1.000000
   23       -4.518694   1.000000
   24       -4.326741   1.000000
   25       -4.124194   1.000000
   26       -3.731218   1.000000
   27       -3.460278   1.000000
   28       -3.274309   1.000000
   29       -3.237721   1.000000
   30       -2.964329   1.000000
   31       -2.715726   1.000000
   32       -2.630716   1.000000
   33       -2.498230   1.000000
   34       -2.438250   1.000000
   35       -2.221082   1.000000
   36       -2.047995   1.000000
   37       -1.962207   1.000000
   38       -1.894460   1.000000
   39       -1.713460   1.000000
   40       -1.567849   1.000000
   41       -1.359141   1.000000
   42       -1.187843   1.000000
   43       -1.075319   1.000000
   44       -1.026063   1.000000
   45       -1.010345   1.000000
   46       -0.881211   1.000000
   47       -0.787204   1.000000
   48       -0.672115   1.000000
   49       -0.561014   1.000000
   50       -0.472148   1.000000
   51       -0.284958   1.000000
   52       -0.079872   1.000000
   53        0.039460   1.000000
   54        0.217239   1.000000
   55        0.264232   1.000000
   56        0.390452   1.000000
   57        0.494366   1.000000
   58        0.584167   1.000000
   59        0.693067   1.000000
   60        0.793464   1.000000
   61        0.835063   1.000000
   62        0.953601   1.000000
   63        1.084284   1.000000
   64        1.246326   1.000000
   65        1.367016   1.000000
   66        1.522655   1.000000
   67        1.549700   1.000000
   68        1.774580   1.000000
   69        1.861282   1.000000
   70        1.964148   1.000000
   71        2.017594   1.000000
   72        2.072844   1.000000
   73        2.249141   1.000000
   74        2.335786   1.000000
   75        2.455133   1.000000
   76        2.596915   1.000000
   77        2.641824   1.000000
   78        2.784813   1.000000
   79        2.816658   1.000000
   80        2.953306   1.000000
   81        3.006700   1.000000
   82        3.215845   1.000000
   83        3.344912   1.000000
   84        3.436629   1.000000
   85        3.559747   1.000000
   86        3.722506   1.000000
   87        3.767231   1.000000
   88        3.808028   1.000000
   89        4.169541   1.000000
   90        4.209783   1.000000
   91        4.289271   1.000000
   92        4.435501   1.000000
   93        4.531779   1.000000
   94        4.637442   1.000000
   95        4.844706   1.000000
   96        5.048190   1.000000
   97        6.526248   1.000000
   98        6.711255   1.018092
   99        7.231210   0.000000
  100        7.276160   0.000000
  101        7.424938   0.000000
  102        7.582711   0.000000
  103        7.638894   0.000000
  104        7.834904   0.000000
  105        8.195200   0.000000
  106        8.808084   0.000000
  107        9.088190   0.000000
  108        9.266614   0.000000
  109        9.482947   0.000000
  110        9.557995   0.000000
  111       10.015243   0.000000
  112       10.286746   0.000000
  113       10.562319   0.000000
  114       10.742587   0.000000
  115       10.803076   0.000000
  116       10.871758   0.000000
  117       10.959941   0.000000
  118       11.125627   0.000000
  119       11.227490   0.000000
  120       11.395428   0.000000
  121       11.622584   0.000000
  122       11.677987   0.000000
  123       11.790313   0.000000
  124       11.924944   0.000000
  125       11.997904   0.000000
  126       12.086498   0.000000
  127       12.230968   0.000000
  128       12.361337   0.000000
 
  0.1666667E+00  0.2000000E+00  0.9090909E-01  0.6060606E-02
    1      -11.940836   1.000000
    2      -11.168608   1.000000
    3      -10.887284   1.000000
    4      -10.783346   1.000000
    5      -10.505690   1.000000
    6      -10.143525   1.000000
    7       -8.934272   1.000000
    8       -8.776967   1.000000
    9       -8.723835   1.000000
   10       -8.548793   1.000000
   11       -8.256043   1.000000
   12       -8.073672   1.000000
   13       -7.932792   1.000000
   14       -6.954240   1.000000
   15       -6.737432   1.000000
   16       -6.007541   1.000000
   17       -5.834381   1.000000
   18       -5.438592   1.000000
   19       -5.211007   1.000000
   20       -5.035896   1.000000
   21       -4.986052   1.000000
   22       -4.813454   1.000000
   23       -4.545385   1.000000
   24       -4.351922   1.000000
   25       -4.156579   1.000000
   26       -3.760463   1.000000
   27       -3.465553   1.000000
   28       -3.350305   1.000000
   29       -3.180021   1.000000
   30       -3.038439   1.000000
   31       -2.801700   1.000000
   32       -2.667649   1.000000
   33       -2.481017   1.000000
   34       -2.351876   1.000000
   35       -2.178643   1.000000
   36       -1.992433   1.000000
   37       -1.874839   1.000000
   38       -1.795673   1.000000
   39       -1.665646   1.000000
   40       -1.472705   1.000000
   41       -1.300596   1.000000
   42       -1.115903   1.000000
   43       -0.998004   1.000000
   44       -0.940324   1.000000
   45       -0.861184   1.000000
   46       -0.808386   1.000000
   47       -0.709473   1.000000
   48       -0.621036   1.000000
   49       -0.583159   1.000000
   50       -0.511761   1.000000
   51       -0.433702   1.000000
   52       -0.296182   1.000000
   53       -0.112975   1.000000
   54        0.031863   1.000000
   55        0.135982   1.000000
   56        0.204591   1.000000
   57        0.424570   1.000000
   58        0.470213   1.000000
   59        0.598903   1.000000
   60        0.683434   1.000000
   61        0.836603   1.000000
   62        0.895158   1.000000
   63        1.223755   1.000000
   64        1.303684   1.000000
   65        1.415885   1.000000
   66        1.485337   1.000000
   67        1.609323   1.000000
   68        1.773960   1.000000
   69        1.943942   1.000000
   70        1.989229   1.000000
   71        2.062288   1.000000
   72        2.081739   1.000000
   73        2.306932   1.000000
   74        2.392680   1.000000
   75        2.546140   1.000000
   76        2.612608   1.000000
   77        2.630156   1.000000
   78        2.773064   1.000000
   79        2.903087   1.000000
   80        2.948316   1.000000
   81        3.058533   1.000000
   82        3.170541   1.000000
   83        3.364088   1.000000
   84        3.474401   1.000000
   85        3.554577   1.000000
   86        3.667717   1.000000
   87        3.816675   1.000000
   88        3.958342   1.000000
   89        4.122975   1.000000
   90        4.164730   1.000000
   91        4.238972   1.000000
   92        4.403307   1.000000
   93        4.521060   1.000000
   94        4.678112   1.000000
   95        4.834473   1.000000
   96        5.041456   1.000000
   97        6.483993   1.000000
   98        6.626255   1.016519
   99        7.209848   0.000000
  100        7.277729   0.000000
  101        7.354124   0.000000
  102        7.623204   0.000000
  103        7.681302   0.000000
  104        7.924141   0.000000
  105        8.270221   0.000000
  106        8.823207   0.000000
  107        9.098869   0.000000
  108        9.272069   0.000000
  109        9.520044   0.000000
  110        9.583250   0.000000
  111       10.033884   0.000000
  112       10.285588   0.000000
  113       10.543501   0.000000
  114       10.705181   0.000000
  115       10.751054   0.000000
  116       10.898099   0.000000
  117       10.941211   0.000000
  118       11.128979   0.000000
  119       11.202246   0.000000
  120       11.285364   0.000000
  121       11.568402   0.000000
  122       11.603704   0.000000
  123       11.663147   0.000000
  124       11.831300   0.000000
  125       11.977117   0.000000
  126       12.072141   0.000000
  127       12.206930   0.000000
  128       12.301533   0.000000
 
  0.3333333E+00  0.2000000E+00  0.9090909E-01  0.6060606E-02
    1      -11.931166   1.000000
    2      -11.171549   1.000000
    3      -10.883907   1.000000
    4      -10.835543   1.000000
    5      -10.509198   1.000000
    6      -10.095209   1.000000
    7       -8.914345   1.000000
    8       -8.769357   1.000000
    9       -8.692286   1.000000
   10       -8.526847   1.000000
   11       -8.280767   1.000000
   12       -8.139696   1.000000
   13       -7.942372   1.000000
   14       -6.933693   1.000000
   15       -6.723334   1.000000
   16       -6.006024   1.000000
   17       -5.801065   1.000000
   18       -5.474221   1.000000
   19       -5.271390   1.000000
   20       -5.039707   1.000000
   21       -4.987779   1.000000
   22       -4.887789   1.000000
   23       -4.490287   1.000000
   24       -4.414204   1.000000
   25       -4.187472   1.000000
   26       -3.754356   1.000000
   27       -3.425050   1.000000
   28       -3.375836   1.000000
   29       -3.077898   1.000000
   30       -2.906100   1.000000
   31       -2.789344   1.000000
   32       -2.567626   1.000000
   33       -2.451128   1.000000
   34       -2.315389   1.000000
   35       -2.230104   1.000000
   36       -2.066857   1.000000
   37       -1.805514   1.000000
   38       -1.764402   1.000000
   39       -1.659736   1.000000
   40       -1.400542   1.000000
   41       -1.300443   1.000000
   42       -1.260314   1.000000
   43       -1.072570   1.000000
   44       -0.991033   1.000000
   45       -0.889232   1.000000
   46       -0.748491   1.000000
   47       -0.729594   1.000000
   48       -0.655578   1.000000
   49       -0.545860   1.000000
   50       -0.481132   1.000000
   51       -0.417933   1.000000
   52       -0.309983   1.000000
   53       -0.203884   1.000000
   54       -0.042716   1.000000
   55        0.075958   1.000000
   56        0.232804   1.000000
   57        0.277235   1.000000
   58        0.368151   1.000000
   59        0.505120   1.000000
   60        0.715018   1.000000
   61        0.812645   1.000000
   62        0.952411   1.000000
   63        1.097666   1.000000
   64        1.225234   1.000000
   65        1.437025   1.000000
   66        1.525849   1.000000
   67        1.745957   1.000000
   68        1.826334   1.000000
   69        1.969129   1.000000
   70        2.036213   1.000000
   71        2.192191   1.000000
   72        2.355027   1.000000
   73        2.404964   1.000000
   74        2.476622   1.000000
   75        2.545495   1.000000
   76        2.693194   1.000000
   77        2.740415   1.000000
   78        2.759095   1.000000
   79        2.901840   1.000000
   80        3.031069   1.000000
   81        3.098467   1.000000
   82        3.226493   1.000000
   83        3.344549   1.000000
   84        3.420791   1.000000
   85        3.518557   1.000000
   86        3.646447   1.000000
   87        3.780776   1.000000
   88        3.877235   1.000000
   89        4.021308   1.000000
   90        4.050311   1.000000
   91        4.148888   1.000000
   92        4.238046   1.000000
   93        4.438466   1.000000
   94        4.589554   1.000000
   95        4.791806   1.000000
   96        5.044326   1.000000
   97        6.531922   1.000000
   98        6.702825   1.000000
   99        7.063087   0.000000
  100        7.223892   0.000000
  101        7.420274   0.000000
  102        7.652917   0.000000
  103        7.713896   0.000000
  104        7.838255   0.000000
  105        8.293130   0.000000
  106        8.971671   0.000000
  107        9.243175   0.000000
  108        9.399120   0.000000
  109        9.645254   0.000000
  110        9.755113   0.000000
  111       10.004433   0.000000
  112       10.323130   0.000000
  113       10.487587   0.000000
  114       10.641185   0.000000
  115       10.717931   0.000000
  116       10.869660   0.000000
  117       10.976196   0.000000
  118       11.158170   0.000000
  119       11.181234   0.000000
  120       11.286671   0.000000
  121       11.361912   0.000000
  122       11.486117   0.000000
  123       11.622501   0.000000
  124       11.682075   0.000000
  125       12.031292   0.000000
  126       12.118837   0.000000
  127       12.223526   0.000000
  128       12.272810   0.000000
 
  0.5000000E+00  0.2000000E+00  0.9090909E-01  0.6060606E-02
    1      -11.917355   1.000000
    2      -11.183844   1.000000
    3      -10.940275   1.000000
    4      -10.827716   1.000000
    5      -10.506241   1.000000
    6      -10.030174   1.000000
    7       -8.943683   1.000000
    8       -8.757962   1.000000
    9       -8.641864   1.000000
   10       -8.489756   1.000000
   11       -8.262714   1.000000
   12       -8.230305   1.000000
   13       -7.973575   1.000000
   14       -6.941371   1.000000
   15       -6.708314   1.000000
   16       -6.006452   1.000000
   17       -5.787505   1.000000
   18       -5.509501   1.000000
   19       -5.298255   1.000000
   20       -5.064934   1.000000
   21       -4.987435   1.000000
   22       -4.924288   1.000000
   23       -4.483966   1.000000
   24       -4.422244   1.000000
   25       -4.157439   1.000000
   26       -3.704707   1.000000
   27       -3.423991   1.000000
   28       -3.259995   1.000000
   29       -3.017748   1.000000
   30       -2.822536   1.000000
   31       -2.608252   1.000000
   32       -2.544243   1.000000
   33       -2.374490   1.000000
   34       -2.321820   1.000000
   35       -2.210159   1.000000
   36       -2.127004   1.000000
   37       -1.974811   1.000000
   38       -1.835507   1.000000
   39       -1.684968   1.000000
   40       -1.516541   1.000000
   41       -1.468484   1.000000
   42       -1.364394   1.000000
   43       -1.249371   1.000000
   44       -1.193750   1.000000
   45       -0.967133   1.000000
   46       -0.861604   1.000000
   47       -0.654655   1.000000
   48       -0.613589   1.000000
   49       -0.481501   1.000000
   50       -0.371193   1.000000
   51       -0.297556   1.000000
   52       -0.237720   1.000000
   53       -0.118941   1.000000
   54       -0.015018   1.000000
   55        0.054359   1.000000
   56        0.195384   1.000000
   57        0.268814   1.000000
   58        0.484041   1.000000
   59        0.617834   1.000000
   60        0.744912   1.000000
   61        0.916062   1.000000
   62        0.985831   1.000000
   63        1.092431   1.000000
   64        1.196277   1.000000
   65        1.391708   1.000000
   66        1.448830   1.000000
   67        1.764103   1.000000
   68        1.855273   1.000000
   69        2.015537   1.000000
   70        2.126956   1.000000
   71        2.163303   1.000000
   72        2.306311   1.000000
   73        2.424722   1.000000
   74        2.614325   1.000000
   75        2.666550   1.000000
   76        2.729285   1.000000
   77        2.778759   1.000000
   78        2.886802   1.000000
   79        2.944768   1.000000
   80        3.039807   1.000000
   81        3.118719   1.000000
   82        3.233768   1.000000
   83        3.284613   1.000000
   84        3.342842   1.000000
   85        3.486793   1.000000
   86        3.660653   1.000000
   87        3.742781   1.000000
   88        3.826364   1.000000
   89        3.867589   1.000000
   90        3.996056   1.000000
   91        4.041847   1.000000
   92        4.155721   1.000000
   93        4.224589   1.000000
   94        4.480304   1.000000
   95        4.756432   1.000000
   96        5.051270   1.000000
   97        6.687053   1.000000
   98        6.853738   0.627414
   99        6.951581   0.000000
  100        7.167019   0.000000
  101        7.501430   0.000000
  102        7.621922   0.000000
  103        7.649950   0.000000
  104        7.729106   0.000000
  105        8.253753   0.000000
  106        9.172719   0.000000
  107        9.367504   0.000000
  108        9.446829   0.000000
  109        9.764010   0.000000
  110        9.919942   0.000000
  111       10.071985   0.000000
  112       10.325375   0.000000
  113       10.441166   0.000000
  114       10.515845   0.000000
  115       10.726278   0.000000
  116       10.830507   0.000000
  117       10.985827   0.000000
  118       11.078646   0.000000
  119       11.154895   0.000000
  120       11.207295   0.000000
  121       11.453414   0.000000
  122       11.552985   0.000000
  123       11.637988   0.000000
  124       11.805585   0.000000
  125       12.014187   0.000000
  126       12.156215   0.000000
  127       12.277584   0.000000
  128       12.397084   0.000000
 
 -0.3333333E+00  0.2000000E+00  0.9090909E-01  0.6060606E-02
    1      -11.913593   1.000000
    2      -11.190959   1.000000
    3      -10.971594   1.000000
    4      -10.804683   1.000000
    5      -10.496806   1.000000
    6      -10.009454   1.000000
    7       -8.985348   1.000000
    8       -8.726613   1.000000
    9       -8.681606   1.000000
   10       -8.442678   1.000000
   11       -8.322783   1.000000
   12       -8.144223   1.000000
   13       -8.011906   1.000000
   14       -6.971015   1.000000
   15       -6.706595   1.000000
   16       -6.004991   1.000000
   17       -5.809763   1.000000
   18       -5.508560   1.000000
   19       -5.253090   1.000000
   20       -5.083103   1.000000
   21       -5.019139   1.000000
   22       -4.893645   1.000000
   23       -4.514633   1.000000
   24       -4.388446   1.000000
   25       -4.080045   1.000000
   26       -3.657800   1.000000
   27       -3.434995   1.000000
   28       -3.089891   1.000000
   29       -2.910964   1.000000
   30       -2.807394   1.000000
   31       -2.777983   1.000000
   32       -2.605167   1.000000
   33       -2.405921   1.000000
   34       -2.272936   1.000000
   35       -2.204313   1.000000
   36       -2.153275   1.000000
   37       -2.019965   1.000000
   38       -1.953631   1.000000
   39       -1.753688   1.000000
   40       -1.669623   1.000000
   41       -1.608195   1.000000
   42       -1.479270   1.000000
   43       -1.303935   1.000000
   44       -1.158598   1.000000
   45       -1.018643   1.000000
   46       -0.910240   1.000000
   47       -0.617250   1.000000
   48       -0.586534   1.000000
   49       -0.398685   1.000000
   50       -0.336332   1.000000
   51       -0.272431   1.000000
   52       -0.217451   1.000000
   53       -0.080349   1.000000
   54        0.157182   1.000000
   55        0.262460   1.000000
   56        0.305924   1.000000
   57        0.403851   1.000000
   58        0.519499   1.000000
   59        0.601869   1.000000
   60        0.687812   1.000000
   61        0.891354   1.000000
   62        1.083307   1.000000
   63        1.217519   1.000000
   64        1.289158   1.000000
   65        1.383068   1.000000
   66        1.415515   1.000000
   67        1.708716   1.000000
   68        1.864618   1.000000
   69        1.923296   1.000000
   70        2.078689   1.000000
   71        2.205662   1.000000
   72        2.256674   1.000000
   73        2.336164   1.000000
   74        2.486257   1.000000
   75        2.582445   1.000000
   76        2.707717   1.000000
   77        2.823716   1.000000
   78        2.855240   1.000000
   79        2.909041   1.000000
   80        3.017854   1.000000
   81        3.077017   1.000000
   82        3.160173   1.000000
   83        3.324240   1.000000
   84        3.384864   1.000000
   85        3.480333   1.000000
   86        3.604201   1.000000
   87        3.733019   1.000000
   88        3.787191   1.000000
   89        3.875979   1.000000
   90        3.945007   1.000000
   91        4.114279   1.000000
   92        4.172641   1.000000
   93        4.295768   1.000000
   94        4.468185   1.000000
   95        4.766877   1.000000
   96        5.056814   1.000000
   97        6.666160   1.000000
   98        6.997440  -0.033648
   99        7.135649   0.000000
  100        7.220275   0.000000
  101        7.334823   0.000000
  102        7.540761   0.000000
  103        7.592776   0.000000
  104        7.706912   0.000000
  105        8.188353   0.000000
  106        9.178226   0.000000
  107        9.380213   0.000000
  108        9.444070   0.000000
  109        9.678095   0.000000
  110        9.830782   0.000000
  111       10.019609   0.000000
  112       10.307239   0.000000
  113       10.468336   0.000000
  114       10.601368   0.000000
  115       10.770100   0.000000
  116       10.895013   0.000000
  117       10.976588   0.000000
  118       11.081383   0.000000
  119       11.213733   0.000000
  120       11.312012   0.000000
  121       11.460074   0.000000
  122       11.591038   0.000000
  123       11.801538   0.000000
  124       11.877428   0.000000
  125       12.096997   0.000000
  126       12.147225   0.000000
  127       12.364960   0.000000
  128       12.404896   0.000000
 
 -0.1666667E+00  0.2000000E+00  0.9090909E-01  0.6060606E-02
    1      -11.924025   1.000000
    2      -11.189371   1.000000
    3      -10.941218   1.000000
    4      -10.796885   1.000000
    5      -10.487713   1.000000
    6      -10.050624   1.000000
    7       -9.000469   1.000000
    8       -8.756139   1.000000
    9       -8.669199   1.000000
   10       -8.545264   1.000000
   11       -8.209777   1.000000
   12       -8.117016   1.000000
   13       -7.998583   1.000000
   14       -6.992268   1.000000
   15       -6.718044   1.000000
   16       -6.004990   1.000000
   17       -5.832989   1.000000
   18       -5.487860   1.000000
   19       -5.199055   1.000000
   20       -5.057123   1.000000
   21       -5.049828   1.000000
   22       -4.824043   1.000000
   23       -4.511245   1.000000
   24       -4.340439   1.000000
   25       -4.081437   1.000000
   26       -3.675506   1.000000
   27       -3.431056   1.000000
   28       -3.155182   1.000000
   29       -3.058464   1.000000
   30       -2.850837   1.000000
   31       -2.726868   1.000000
   32       -2.618426   1.000000
   33       -2.492068   1.000000
   34       -2.410269   1.000000
   35       -2.248749   1.000000
   36       -2.052766   1.000000
   37       -2.022794   1.000000
   38       -1.921506   1.000000
   39       -1.901500   1.000000
   40       -1.640291   1.000000
   41       -1.551792   1.000000
   42       -1.409145   1.000000
   43       -1.199360   1.000000
   44       -1.074779   1.000000
   45       -0.967960   1.000000
   46       -0.889656   1.000000
   47       -0.780995   1.000000
   48       -0.616354   1.000000
   49       -0.436889   1.000000
   50       -0.371051   1.000000
   51       -0.279789   1.000000
   52       -0.096827   1.000000
   53        0.010880   1.000000
   54        0.224378   1.000000
   55        0.271507   1.000000
   56        0.462981   1.000000
   57        0.494922   1.000000
   58        0.611664   1.000000
   59        0.739513   1.000000
   60        0.785390   1.000000
   61        0.897126   1.000000
   62        1.024404   1.000000
   63        1.097518   1.000000
   64        1.213548   1.000000
   65        1.402578   1.000000
   66        1.488605   1.000000
   67        1.586104   1.000000
   68        1.766421   1.000000
   69        1.866459   1.000000
   70        2.014396   1.000000
   71        2.103150   1.000000
   72        2.168734   1.000000
   73        2.255866   1.000000
   74        2.427484   1.000000
   75        2.533687   1.000000
   76        2.634783   1.000000
   77        2.693398   1.000000
   78        2.774596   1.000000
   79        2.893377   1.000000
   80        2.974021   1.000000
   81        3.016123   1.000000
   82        3.159840   1.000000
   83        3.285570   1.000000
   84        3.401349   1.000000
   85        3.514246   1.000000
   86        3.564345   1.000000
   87        3.716177   1.000000
   88        3.842135   1.000000
   89        4.045816   1.000000
   90        4.091258   1.000000
   91        4.239372   1.000000
   92        4.316244   1.000000
   93        4.457737   1.000000
   94        4.553350   1.000000
   95        4.811741   1.000000
   96        5.056617   1.000000
   97        6.586110   1.000000
   98        6.928676   0.157209
   99        7.215088   0.000000
  100        7.276918   0.000000
  101        7.412065   0.000000
  102        7.532065   0.000000
  103        7.583344   0.000000
  104        7.690274   0.000000
  105        8.154090   0.000000
  106        8.960635   0.000000
  107        9.222986   0.000000
  108        9.385232   0.000000
  109        9.560423   0.000000
  110        9.659035   0.000000
  111        9.953712   0.000000
  112       10.331498   0.000000
  113       10.541682   0.000000
  114       10.709208   0.000000
  115       10.825069   0.000000
  116       10.849121   0.000000
  117       10.982323   0.000000
  118       11.124002   0.000000
  119       11.246993   0.000000
  120       11.390305   0.000000
  121       11.624753   0.000000
  122       11.702771   0.000000
  123       11.800131   0.000000
  124       11.867771   0.000000
  125       12.063414   0.000000
  126       12.120021   0.000000
  127       12.354804   0.000000
  128       12.434707   0.000000
 
  0.0000000E+00  0.4000000E+00  0.9090909E-01  0.6060606E-02
    1      -11.910704   1.000000
    2      -11.288011   1.000000
    3      -10.882821   1.000000
    4      -10.750638   1.000000
    5      -10.451983   1.000000
    6      -10.097379   1.000000
    7       -8.924091   1.000000
    8       -8.819117   1.000000
    9       -8.676771   1.000000
   10       -8.595649   1.000000
   11       -8.252740   1.000000
   12       -8.094099   1.000000
   13       -7.958422   1.000000
   14       -7.009469   1.000000
   15       -6.705440   1.000000
   16       -5.999813   1.000000
   17       -5.872188   1.000000
   18       -5.315688   1.000000
   19       -5.254643   1.000000
   20       -5.084778   1.000000
   21       -5.014491   1.000000
   22       -4.814685   1.000000
   23       -4.541530   1.000000
   24       -4.369358   1.000000
   25       -4.104254   1.000000
   26       -3.631795   1.000000
   27       -3.263780   1.000000
   28       -3.195095   1.000000
   29       -3.113164   1.000000
   30       -2.903246   1.000000
   31       -2.748874   1.000000
   32       -2.671818   1.000000
   33       -2.575167   1.000000
   34       -2.439483   1.000000
   35       -2.281049   1.000000
   36       -2.154350   1.000000
   37       -2.128758   1.000000
   38       -1.866008   1.000000
   39       -1.824056   1.000000
   40       -1.601060   1.000000
   41       -1.527285   1.000000
   42       -1.305485   1.000000
   43       -1.234715   1.000000
   44       -0.984408   1.000000
   45       -0.850708   1.000000
   46       -0.833894   1.000000
   47       -0.730454   1.000000
   48       -0.515464   1.000000
   49       -0.445090   1.000000
   50       -0.382302   1.000000
   51       -0.252030   1.000000
   52       -0.104719   1.000000
   53        0.087250   1.000000
   54        0.149978   1.000000
   55        0.219435   1.000000
   56        0.364034   1.000000
   57        0.443757   1.000000
   58        0.540112   1.000000
   59        0.636127   1.000000
   60        0.744525   1.000000
   61        0.941707   1.000000
   62        1.008927   1.000000
   63        1.092626   1.000000
   64        1.215264   1.000000
   65        1.351984   1.000000
   66        1.538475   1.000000
   67        1.563445   1.000000
   68        1.763290   1.000000
   69        1.859784   1.000000
   70        1.919384   1.000000
   71        2.037707   1.000000
   72        2.170669   1.000000
   73        2.238693   1.000000
   74        2.318108   1.000000
   75        2.511837   1.000000
   76        2.583333   1.000000
   77        2.723211   1.000000
   78        2.890747   1.000000
   79        2.992680   1.000000
   80        3.016340   1.000000
   81        3.102653   1.000000
   82        3.178110   1.000000
   83        3.365245   1.000000
   84        3.433994   1.000000
   85        3.464912   1.000000
   86        3.552364   1.000000
   87        3.710004   1.000000
   88        3.914407   1.000000
   89        3.997370   1.000000
   90        4.115362   1.000000
   91        4.194227   1.000000
   92        4.406312   1.000000
   93        4.490452   1.000000
   94        4.620613   1.000000
   95        4.853540   1.000000
   96        4.904656   1.000000
   97        6.700180   1.000255
   98        6.949245   0.085257
   99        7.118033   0.000000
  100        7.241962   0.000000
  101        7.375797   0.000000
  102        7.444183   0.000000
  103        7.640455   0.000000
  104        7.806201   0.000000
  105        8.432469   0.000000
  106        8.909958   0.000000
  107        9.100979   0.000000
  108        9.284078   0.000000
  109        9.443654   0.000000
  110        9.630462   0.000000
  111       10.027977   0.000000
  112       10.417714   0.000000
  113       10.499266   0.000000
  114       10.696623   0.000000
  115       10.819143   0.000000
  116       10.970395   0.000000
  117       11.105212   0.000000
  118       11.238959   0.000000
  119       11.256467   0.000000
  120       11.350032   0.000000
  121       11.453250   0.000000
  122       11.607678   0.000000
  123       11.712858   0.000000
  124       11.890940   0.000000
  125       12.030672   0.000000
  126       12.086640   0.000000
  127       12.117511   0.000000
  128       12.261189   0.000000
 
  0.1666667E+00  0.4000000E+00  0.9090909E-01  0.6060606E-02
    1      -11.915106   1.000000
    2      -11.278577   1.000000
    3      -10.865783   1.000000
    4      -10.756609   1.000000
    5      -10.457185   1.000000
    6      -10.125112   1.000000
    7       -8.945174   1.000000
    8       -8.797461   1.000000
    9       -8.668589   1.000000
   10       -8.533165   1.000000
   11       -8.329647   1.000000
   12       -8.102730   1.000000
   13       -7.924035   1.000000
   14       -6.980620   1.000000
   15       -6.709930   1.000000
   16       -6.008111   1.000000
   17       -5.857554   1.000000
   18       -5.312172   1.000000
   19       -5.224896   1.000000
   20       -5.130715   1.000000
   21       -5.013288   1.000000
   22       -4.869519   1.000000
   23       -4.556964   1.000000
   24       -4.327399   1.000000
   25       -4.178416   1.000000
   26       -3.630954   1.000000
   27       -3.308232   1.000000
   28       -3.178383   1.000000
   29       -3.125573   1.000000
   30       -2.913814   1.000000
   31       -2.868622   1.000000
   32       -2.690533   1.000000
   33       -2.515643   1.000000
   34       -2.360813   1.000000
   35       -2.227297   1.000000
   36       -2.185592   1.000000
   37       -2.088236   1.000000
   38       -1.861919   1.000000
   39       -1.677110   1.000000
   40       -1.594610   1.000000
   41       -1.450914   1.000000
   42       -1.187020   1.000000
   43       -1.125075   1.000000
   44       -1.002665   1.000000
   45       -0.795873   1.000000
   46       -0.680715   1.000000
   47       -0.619921   1.000000
   48       -0.588258   1.000000
   49       -0.539110   1.000000
   50       -0.415902   1.000000
   51       -0.329103   1.000000
   52       -0.210056   1.000000
   53       -0.085624   1.000000
   54        0.039770   1.000000
   55        0.169398   1.000000
   56        0.300321   1.000000
   57        0.451037   1.000000
   58        0.529874   1.000000
   59        0.626598   1.000000
   60        0.712614   1.000000
   61        0.816125   1.000000
   62        0.963046   1.000000
   63        1.071843   1.000000
   64        1.271041   1.000000
   65        1.292920   1.000000
   66        1.522184   1.000000
   67        1.612781   1.000000
   68        1.765704   1.000000
   69        1.815291   1.000000
   70        1.943926   1.000000
   71        2.093823   1.000000
   72        2.136118   1.000000
   73        2.197335   1.000000
   74        2.378802   1.000000
   75        2.490770   1.000000
   76        2.636546   1.000000
   77        2.704984   1.000000
   78        2.933213   1.000000
   79        2.958047   1.000000
   80        3.016220   1.000000
   81        3.136966   1.000000
   82        3.295105   1.000000
   83        3.391230   1.000000
   84        3.413978   1.000000
   85        3.530679   1.000000
   86        3.659403   1.000000
   87        3.781749   1.000000
   88        3.935663   1.000000
   89        4.031575   1.000000
   90        4.111456   1.000000
   91        4.179412   1.000000
   92        4.326326   1.000000
   93        4.532916   1.000000
   94        4.615337   1.000000
   95        4.826623   1.000000
   96        4.885792   1.000000
   97        6.646945   1.000000
   98        6.788919   0.935420
   99        7.120997   0.000000
  100        7.249458   0.000000
  101        7.423959   0.000000
  102        7.516182   0.000000
  103        7.633067   0.000000
  104        7.867168   0.000000
  105        8.537366   0.000000
  106        8.922680   0.000000
  107        9.123963   0.000000
  108        9.295450   0.000000
  109        9.436206   0.000000
  110        9.631146   0.000000
  111       10.010349   0.000000
  112       10.377803   0.000000
  113       10.519424   0.000000
  114       10.704415   0.000000
  115       10.805561   0.000000
  116       10.957418   0.000000
  117       11.073225   0.000000
  118       11.108408   0.000000
  119       11.238616   0.000000
  120       11.339160   0.000000
  121       11.369780   0.000000
  122       11.483366   0.000000
  123       11.649216   0.000000
  124       11.756376   0.000000
  125       11.907560   0.000000
  126       12.023237   0.000000
  127       12.124132   0.000000
  128       12.290372   0.000000
 
  0.3333333E+00  0.4000000E+00  0.9090909E-01  0.6060606E-02
    1      -11.909970   1.000000
    2      -11.266045   1.000000
    3      -10.877436   1.000000
    4      -10.793136   1.000000
    5      -10.454725   1.000000
    6      -10.113543   1.000000
    7       -8.925751   1.000000
    8       -8.787168   1.000000
    9       -8.630520   1.000000
   10       -8.453296   1.000000
   11       -8.385113   1.000000
   12       -8.176426   1.000000
   13       -7.926326   1.000000
   14       -6.953099   1.000000
   15       -6.706266   1.000000
   16       -6.011726   1.000000
   17       -5.825025   1.000000
   18       -5.363723   1.000000
   19       -5.243667   1.000000
   20       -5.151648   1.000000
   21       -5.011690   1.000000
   22       -4.945864   1.000000
   23       -4.556752   1.000000
   24       -4.343454   1.000000
   25       -4.237898   1.000000
   26       -3.635011   1.000000
   27       -3.363910   1.000000
   28       -3.191542   1.000000
   29       -3.088293   1.000000
   30       -2.926656   1.000000
   31       -2.793082   1.000000
   32       -2.592724   1.000000
   33       -2.465914   1.000000
   34       -2.313629   1.000000
   35       -2.117981   1.000000
   36       -2.070611   1.000000
   37       -1.903175   1.000000
   38       -1.839246   1.000000
   39       -1.689678   1.000000
   40       -1.501807   1.000000
   41       -1.364753   1.000000
   42       -1.192206   1.000000
   43       -1.130306   1.000000
   44       -1.043132   1.000000
   45       -0.948327   1.000000
   46       -0.769977   1.000000
   47       -0.760881   1.000000
   48       -0.600783   1.000000
   49       -0.537871   1.000000
   50       -0.422286   1.000000
   51       -0.327689   1.000000
   52       -0.284611   1.000000
   53       -0.197447   1.000000
   54       -0.162918   1.000000
   55       -0.059640   1.000000
   56        0.289277   1.000000
   57        0.383079   1.000000
   58        0.455374   1.000000
   59        0.555702   1.000000
   60        0.812255   1.000000
   61        0.896521   1.000000
   62        0.973618   1.000000
   63        1.119773   1.000000
   64        1.217217   1.000000
   65        1.367993   1.000000
   66        1.605478   1.000000
   67        1.648373   1.000000
   68        1.742547   1.000000
   69        1.874330   1.000000
   70        1.971014   1.000000
   71        2.096386   1.000000
   72        2.232577   1.000000
   73        2.393542   1.000000
   74        2.498687   1.000000
   75        2.569144   1.000000
   76        2.684698   1.000000
   77        2.805514   1.000000
   78        2.860696   1.000000
   79        2.909237   1.000000
   80        3.035488   1.000000
   81        3.200680   1.000000
   82        3.298545   1.000000
   83        3.329129   1.000000
   84        3.434555   1.000000
   85        3.598420   1.000000
   86        3.709495   1.000000
   87        3.789263   1.000000
   88        3.864942   1.000000
   89        3.918845   1.000000
   90        4.038515   1.000000
   91        4.088569   1.000000
   92        4.219339   1.000000
   93        4.490341   1.000000
   94        4.528985   1.000000
   95        4.808912   1.000000
   96        4.857999   1.000000
   97        6.612755   1.000000
   98        6.740872   1.070215
   99        7.053373   0.000000
  100        7.341698   0.000000
  101        7.392289   0.000000
  102        7.546399   0.000000
  103        7.683646   0.000000
  104        7.873485   0.000000
  105        8.638659   0.000000
  106        9.113685   0.000000
  107        9.253428   0.000000
  108        9.457977   0.000000
  109        9.551295   0.000000
  110        9.712514   0.000000
  111        9.999366   0.000000
  112       10.334076   0.000000
  113       10.512644   0.000000
  114       10.631802   0.000000
  115       10.721568   0.000000
  116       10.781374   0.000000
  117       10.925245   0.000000
  118       11.025355   0.000000
  119       11.149878   0.000000
  120       11.303312   0.000000
  121       11.400583   0.000000
  122       11.479724   0.000000
  123       11.516728   0.000000
  124       11.659237   0.000000
  125       11.801539   0.000000
  126       12.006934   0.000000
  127       12.144377   0.000000
  128       12.284779   0.000000
 
  0.5000000E+00  0.4000000E+00  0.9090909E-01  0.6060606E-02
    1      -11.900072   1.000000
    2      -11.264295   1.000000
    3      -10.902656   1.000000
    4      -10.821385   1.000000
    5      -10.450335   1.000000
    6      -10.076172   1.000000
    7       -8.880869   1.000000
    8       -8.797920   1.000000
    9       -8.628529   1.000000
   10       -8.426983   1.000000
   11       -8.322130   1.000000
   12       -8.271363   1.000000
   13       -7.960217   1.000000
   14       -6.955127   1.000000
   15       -6.698352   1.000000
   16       -6.008778   1.000000
   17       -5.813002   1.000000
   18       -5.404236   1.000000
   19       -5.263721   1.000000
   20       -5.156306   1.000000
   21       -5.020337   1.000000
   22       -4.961996   1.000000
   23       -4.517302   1.000000
   24       -4.411432   1.000000
   25       -4.251615   1.000000
   26       -3.627933   1.000000
   27       -3.356897   1.000000
   28       -3.227315   1.000000
   29       -3.114363   1.000000
   30       -2.875490   1.000000
   31       -2.635634   1.000000
   32       -2.415531   1.000000
   33       -2.363001   1.000000
   34       -2.257782   1.000000
   35       -2.098723   1.000000
   36       -2.009179   1.000000
   37       -1.924643   1.000000
   38       -1.773582   1.000000
   39       -1.657739   1.000000
   40       -1.506495   1.000000
   41       -1.443890   1.000000
   42       -1.359339   1.000000
   43       -1.219729   1.000000
   44       -1.105007   1.000000
   45       -1.000478   1.000000
   46       -0.955924   1.000000
   47       -0.829891   1.000000
   48       -0.774186   1.000000
   49       -0.626171   1.000000
   50       -0.497469   1.000000
   51       -0.434086   1.000000
   52       -0.305688   1.000000
   53       -0.103349   1.000000
   54       -0.009078   1.000000
   55        0.110879   1.000000
   56        0.261680   1.000000
   57        0.343081   1.000000
   58        0.393228   1.000000
   59        0.627233   1.000000
   60        0.793931   1.000000
   61        0.872620   1.000000
   62        1.073571   1.000000
   63        1.151077   1.000000
   64        1.241691   1.000000
   65        1.355671   1.000000
   66        1.610212   1.000000
   67        1.701602   1.000000
   68        1.806524   1.000000
   69        2.019427   1.000000
   70        2.125633   1.000000
   71        2.170870   1.000000
   72        2.336332   1.000000
   73        2.468711   1.000000
   74        2.531659   1.000000
   75        2.616432   1.000000
   76        2.715953   1.000000
   77        2.755553   1.000000
   78        2.822053   1.000000
   79        2.911395   1.000000
   80        3.054812   1.000000
   81        3.157059   1.000000
   82        3.262308   1.000000
   83        3.325225   1.000000
   84        3.439371   1.000000
   85        3.542278   1.000000
   86        3.630958   1.000000
   87        3.695371   1.000000
   88        3.838562   1.000000
   89        3.878666   1.000000
   90        3.977523   1.000000
   91        4.035718   1.000000
   92        4.154504   1.000000
   93        4.358835   1.000000
   94        4.426735   1.000000
   95        4.802953   1.000000
   96        4.851433   1.000000
   97        6.641942   1.000000
   98        6.823548   1.041337
   99        6.976215   0.000000
  100        7.304666   0.000000
  101        7.431667   0.000000
  102        7.555025   0.000000
  103        7.753954   0.000000
  104        7.790195   0.000000
  105        8.639774   0.000000
  106        9.317481   0.000000
  107        9.374891   0.000000
  108        9.568233   0.000000
  109        9.751882   0.000000
  110        9.888753   0.000000
  111        9.976203   0.000000
  112       10.297776   0.000000
  113       10.414909   0.000000
  114       10.565101   0.000000
  115       10.681930   0.000000
  116       10.694543   0.000000
  117       10.790243   0.000000
  118       10.871003   0.000000
  119       11.058733   0.000000
  120       11.297906   0.000000
  121       11.368867   0.000000
  122       11.572580   0.000000
  123       11.607778   0.000000
  124       11.681020   0.000000
  125       11.826891   0.000000
  126       12.041168   0.000000
  127       12.243409   0.000000
  128       12.277137   0.000000
 
 -0.3333333E+00  0.4000000E+00  0.9090909E-01  0.6060606E-02
    1      -11.895465   1.000000
    2      -11.270537   1.000000
    3      -10.955260   1.000000
    4      -10.768553   1.000000
    5      -10.459568   1.000000
    6      -10.049290   1.000000
    7       -8.845792   1.000000
    8       -8.811337   1.000000
    9       -8.689759   1.000000
   10       -8.473276   1.000000
   11       -8.305253   1.000000
   12       -8.161798   1.000000
   13       -8.019858   1.000000
   14       -6.985881   1.000000
   15       -6.694787   1.000000
   16       -6.001905   1.000000
   17       -5.837287   1.000000
   18       -5.368130   1.000000
   19       -5.239243   1.000000
   20       -5.203878   1.000000
   21       -5.016096   1.000000
   22       -4.902761   1.000000
   23       -4.504669   1.000000
   24       -4.450353   1.000000
   25       -4.202190   1.000000
   26       -3.626148   1.000000
   27       -3.279108   1.000000
   28       -3.222819   1.000000
   29       -3.081013   1.000000
   30       -2.795012   1.000000
   31       -2.589150   1.000000
   32       -2.512530   1.000000
   33       -2.356242   1.000000
   34       -2.266572   1.000000
   35       -2.191327   1.000000
   36       -2.033313   1.000000
   37       -1.914312   1.000000
   38       -1.856180   1.000000
   39       -1.738907   1.000000
   40       -1.663054   1.000000
   41       -1.607424   1.000000
   42       -1.346719   1.000000
   43       -1.233267   1.000000
   44       -1.186744   1.000000
   45       -1.107197   1.000000
   46       -0.978931   1.000000
   47       -0.862801   1.000000
   48       -0.712844   1.000000
   49       -0.490965   1.000000
   50       -0.460890   1.000000
   51       -0.242482   1.000000
   52       -0.059042   1.000000
   53       -0.002332   1.000000
   54        0.029222   1.000000
   55        0.125196   1.000000
   56        0.221052   1.000000
   57        0.272271   1.000000
   58        0.394257   1.000000
   59        0.549487   1.000000
   60        0.760018   1.000000
   61        0.859710   1.000000
   62        1.097129   1.000000
   63        1.285276   1.000000
   64        1.379455   1.000000
   65        1.472885   1.000000
   66        1.537611   1.000000
   67        1.775350   1.000000
   68        1.851588   1.000000
   69        1.988339   1.000000
   70        2.063533   1.000000
   71        2.161203   1.000000
   72        2.366755   1.000000
   73        2.405929   1.000000
   74        2.551291   1.000000
   75        2.621746   1.000000
   76        2.690594   1.000000
   77        2.770292   1.000000
   78        2.876257   1.000000
   79        2.941406   1.000000
   80        2.985173   1.000000
   81        3.074965   1.000000
   82        3.162778   1.000000
   83        3.292442   1.000000
   84        3.384538   1.000000
   85        3.474145   1.000000
   86        3.533317   1.000000
   87        3.683087   1.000000
   88        3.776041   1.000000
   89        3.857838   1.000000
   90        3.980282   1.000000
   91        4.134671   1.000000
   92        4.199413   1.000000
   93        4.265936   1.000000
   94        4.462830   1.000000
   95        4.801995   1.000000
   96        4.876964   1.000000
   97        6.723385   1.000000
   98        6.878063   0.128472
   99        7.059955   0.000000
  100        7.292430   0.000000
  101        7.385586   0.000000
  102        7.525840   0.000000
  103        7.637895   0.000000
  104        7.813112   0.000000
  105        8.550051   0.000000
  106        9.297328   0.000000
  107        9.345832   0.000000
  108        9.552537   0.000000
  109        9.764668   0.000000
  110        9.837666   0.000000
  111        9.986725   0.000000
  112       10.301447   0.000000
  113       10.438095   0.000000
  114       10.579030   0.000000
  115       10.681178   0.000000
  116       10.746363   0.000000
  117       10.889270   0.000000
  118       10.977042   0.000000
  119       11.112922   0.000000
  120       11.264392   0.000000
  121       11.344647   0.000000
  122       11.631377   0.000000
  123       11.697147   0.000000
  124       11.779745   0.000000
  125       11.921720   0.000000
  126       12.125161   0.000000
  127       12.286996   0.000000
  128       12.350549   0.000000
 
 -0.1666667E+00  0.4000000E+00  0.9090909E-01  0.6060606E-02
    1      -11.900969   1.000000
    2      -11.282328   1.000000
    3      -10.941768   1.000000
    4      -10.736573   1.000000
    5      -10.461428   1.000000
    6      -10.058729   1.000000
    7       -8.871666   1.000000
    8       -8.823589   1.000000
    9       -8.695500   1.000000
   10       -8.575243   1.000000
   11       -8.229013   1.000000
   12       -8.095382   1.000000
   13       -8.033331   1.000000
   14       -7.012719   1.000000
   15       -6.698130   1.000000
   16       -5.996554   1.000000
   17       -5.862815   1.000000
   18       -5.332513   1.000000
   19       -5.270003   1.000000
   20       -5.116970   1.000000
   21       -5.022273   1.000000
   22       -4.836566   1.000000
   23       -4.528925   1.000000
   24       -4.423060   1.000000
   25       -4.116126   1.000000
   26       -3.630456   1.000000
   27       -3.274507   1.000000
   28       -3.083634   1.000000
   29       -3.025616   1.000000
   30       -2.947861   1.000000
   31       -2.699268   1.000000
   32       -2.623766   1.000000
   33       -2.477222   1.000000
   34       -2.386280   1.000000
   35       -2.275718   1.000000
   36       -2.097796   1.000000
   37       -1.985656   1.000000
   38       -1.865836   1.000000
   39       -1.794299   1.000000
   40       -1.686567   1.000000
   41       -1.585100   1.000000
   42       -1.435376   1.000000
   43       -1.402315   1.000000
   44       -1.061407   1.000000
   45       -0.936621   1.000000
   46       -0.846589   1.000000
   47       -0.736068   1.000000
   48       -0.603846   1.000000
   49       -0.430908   1.000000
   50       -0.334735   1.000000
   51       -0.190154   1.000000
   52       -0.142295   1.000000
   53       -0.062257   1.000000
   54        0.092968   1.000000
   55        0.211797   1.000000
   56        0.323927   1.000000
   57        0.435993   1.000000
   58        0.503451   1.000000
   59        0.620111   1.000000
   60        0.744519   1.000000
   61        0.821674   1.000000
   62        1.121131   1.000000
   63        1.174392   1.000000
   64        1.361719   1.000000
   65        1.430540   1.000000
   66        1.518866   1.000000
   67        1.689621   1.000000
   68        1.852059   1.000000
   69        1.881941   1.000000
   70        2.049494   1.000000
   71        2.152291   1.000000
   72        2.205533   1.000000
   73        2.320290   1.000000
   74        2.378643   1.000000
   75        2.541793   1.000000
   76        2.664301   1.000000
   77        2.784834   1.000000
   78        2.896684   1.000000
   79        2.942539   1.000000
   80        3.017735   1.000000
   81        3.068731   1.000000
   82        3.140197   1.000000
   83        3.268050   1.000000
   84        3.362544   1.000000
   85        3.451753   1.000000
   86        3.556367   1.000000
   87        3.666940   1.000000
   88        3.774353   1.000000
   89        3.924727   1.000000
   90        3.970273   1.000000
   91        4.198400   1.000000
   92        4.350394   1.000000
   93        4.385068   1.000000
   94        4.570920   1.000000
   95        4.827846   1.000000
   96        4.902535   1.000000
   97        6.739169   1.000118
   98        6.969516  -0.005523
   99        7.161668   0.000000
  100        7.280198   0.000000
  101        7.344189   0.000000
  102        7.422473   0.000000
  103        7.579292   0.000000
  104        7.817579   0.000000
  105        8.444990   0.000000
  106        9.079687   0.000000
  107        9.204946   0.000000
  108        9.406865   0.000000
  109        9.577762   0.000000
  110        9.697268   0.000000
  111       10.034226   0.000000
  112       10.370700   0.000000
  113       10.518136   0.000000
  114       10.614964   0.000000
  115       10.752658   0.000000
  116       10.926896   0.000000
  117       11.000207   0.000000
  118       11.153888   0.000000
  119       11.254093   0.000000
  120       11.345632   0.000000
  121       11.452097   0.000000
  122       11.600680   0.000000
  123       11.709075   0.000000
  124       11.864815   0.000000
  125       11.930096   0.000000
  126       12.172140   0.000000
  127       12.267867   0.000000
  128       12.322533   0.000000
 
  0.0000000E+00 -0.4000000E+00  0.9090909E-01  0.6060606E-02
    1      -11.901157   1.000000
    2      -11.320409   1.000000
    3      -10.867295   1.000000
    4      -10.750047   1.000000
    5      -10.434779   1.000000
    6      -10.107722   1.000000
    7       -8.951393   1.000000
    8       -8.793786   1.000000
    9       -8.632244   1.000000
   10       -8.540061   1.000000
   11       -8.370724   1.000000
   12       -8.072615   1.000000
   13       -7.969993   1.000000
   14       -7.024789   1.000000
   15       -6.696757   1.000000
   16       -5.952775   1.000000
   17       -5.909025   1.000000
   18       -5.405891   1.000000
   19       -5.146385   1.000000
   20       -5.052906   1.000000
   21       -4.985874   1.000000
   22       -4.846252   1.000000
   23       -4.505663   1.000000
   24       -4.435413   1.000000
   25       -4.140052   1.000000
   26       -3.619854   1.000000
   27       -3.229327   1.000000
   28       -3.118082   1.000000
   29       -3.031397   1.000000
   30       -2.992073   1.000000
   31       -2.870577   1.000000
   32       -2.720416   1.000000
   33       -2.595875   1.000000
   34       -2.445364   1.000000
   35       -2.265209   1.000000
   36       -2.192453   1.000000
   37       -2.107122   1.000000
   38       -1.888320   1.000000
   39       -1.757559   1.000000
   40       -1.655505   1.000000
   41       -1.489672   1.000000
   42       -1.340011   1.000000
   43       -1.164639   1.000000
   44       -1.018352   1.000000
   45       -0.835990   1.000000
   46       -0.651312   1.000000
   47       -0.574954   1.000000
   48       -0.501714   1.000000
   49       -0.331165   1.000000
   50       -0.293845   1.000000
   51       -0.183244   1.000000
   52       -0.121772   1.000000
   53       -0.078155   1.000000
   54       -0.033530   1.000000
   55        0.100440   1.000000
   56        0.211446   1.000000
   57        0.394548   1.000000
   58        0.541951   1.000000
   59        0.677720   1.000000
   60        0.787344   1.000000
   61        0.802554   1.000000
   62        1.047603   1.000000
   63        1.112566   1.000000
   64        1.241324   1.000000
   65        1.328258   1.000000
   66        1.459675   1.000000
   67        1.570772   1.000000
   68        1.713515   1.000000
   69        1.883899   1.000000
   70        1.962672   1.000000
   71        2.063014   1.000000
   72        2.162131   1.000000
   73        2.287517   1.000000
   74        2.384687   1.000000
   75        2.524415   1.000000
   76        2.697645   1.000000
   77        2.759358   1.000000
   78        2.917522   1.000000
   79        2.978376   1.000000
   80        3.091466   1.000000
   81        3.141831   1.000000
   82        3.235527   1.000000
   83        3.344178   1.000000
   84        3.383390   1.000000
   85        3.444550   1.000000
   86        3.496268   1.000000
   87        3.623985   1.000000
   88        3.749032   1.000000
   89        3.955150   1.000000
   90        4.052947   1.000000
   91        4.266616   1.000000
   92        4.383731   1.000000
   93        4.511324   1.000000
   94        4.686359   1.000000
   95        4.860492   1.000000
   96        4.908212   1.000000
   97        6.812856   0.999925
   98        6.976065  -0.031952
   99        7.099988   0.000000
  100        7.196893   0.000000
  101        7.260039   0.000000
  102        7.393082   0.000000
  103        7.596175   0.000000
  104        7.891546   0.000000
  105        8.606133   0.000000
  106        8.895475   0.000000
  107        9.008482   0.000000
  108        9.274481   0.000000
  109        9.505191   0.000000
  110        9.752670   0.000000
  111       10.132131   0.000000
  112       10.416448   0.000000
  113       10.579784   0.000000
  114       10.685680   0.000000
  115       10.858147   0.000000
  116       11.011483   0.000000
  117       11.128176   0.000000
  118       11.248096   0.000000
  119       11.331233   0.000000
  120       11.379842   0.000000
  121       11.435683   0.000000
  122       11.547072   0.000000
  123       11.720735   0.000000
  124       11.786528   0.000000
  125       11.946227   0.000000
  126       12.097870   0.000000
  127       12.176786   0.000000
  128       12.258068   0.000000
 
  0.1666667E+00 -0.4000000E+00  0.9090909E-01  0.6060606E-02
    1      -11.900208   1.000000
    2      -11.322741   1.000000
    3      -10.873024   1.000000
    4      -10.746232   1.000000
    5      -10.431611   1.000000
    6      -10.102026   1.000000
    7       -8.957227   1.000000
    8       -8.795169   1.000000
    9       -8.629680   1.000000
   10       -8.501731   1.000000
   11       -8.435244   1.000000
   12       -8.092395   1.000000
   13       -7.933398   1.000000
   14       -7.000956   1.000000
   15       -6.691233   1.000000
   16       -5.962378   1.000000
   17       -5.891017   1.000000
   18       -5.372964   1.000000
   19       -5.175063   1.000000
   20       -5.084397   1.000000
   21       -4.976255   1.000000
   22       -4.932056   1.000000
   23       -4.536537   1.000000
   24       -4.406334   1.000000
   25       -4.091558   1.000000
   26       -3.636453   1.000000
   27       -3.203482   1.000000
   28       -3.100204   1.000000
   29       -3.017305   1.000000
   30       -2.935448   1.000000
   31       -2.842133   1.000000
   32       -2.684149   1.000000
   33       -2.616224   1.000000
   34       -2.520152   1.000000
   35       -2.286576   1.000000
   36       -2.221346   1.000000
   37       -2.040895   1.000000
   38       -1.910853   1.000000
   39       -1.835992   1.000000
   40       -1.708801   1.000000
   41       -1.547111   1.000000
   42       -1.210170   1.000000
   43       -1.061001   1.000000
   44       -1.018154   1.000000
   45       -0.769364   1.000000
   46       -0.650802   1.000000
   47       -0.593269   1.000000
   48       -0.504380   1.000000
   49       -0.427992   1.000000
   50       -0.279151   1.000000
   51       -0.242369   1.000000
   52       -0.190202   1.000000
   53       -0.064035   1.000000
   54       -0.014421   1.000000
   55        0.174923   1.000000
   56        0.352494   1.000000
   57        0.422066   1.000000
   58        0.509264   1.000000
   59        0.643672   1.000000
   60        0.706084   1.000000
   61        0.819392   1.000000
   62        0.944300   1.000000
   63        1.071806   1.000000
   64        1.252786   1.000000
   65        1.342045   1.000000
   66        1.444061   1.000000
   67        1.518191   1.000000
   68        1.773037   1.000000
   69        1.889401   1.000000
   70        1.951975   1.000000
   71        2.019760   1.000000
   72        2.194700   1.000000
   73        2.272213   1.000000
   74        2.411530   1.000000
   75        2.546244   1.000000
   76        2.669065   1.000000
   77        2.766060   1.000000
   78        2.902580   1.000000
   79        2.946605   1.000000
   80        3.062032   1.000000
   81        3.133863   1.000000
   82        3.225127   1.000000
   83        3.279261   1.000000
   84        3.432713   1.000000
   85        3.498102   1.000000
   86        3.589271   1.000000
   87        3.674402   1.000000
   88        3.807413   1.000000
   89        3.963611   1.000000
   90        4.075665   1.000000
   91        4.266834   1.000000
   92        4.332275   1.000000
   93        4.563025   1.000000
   94        4.654907   1.000000
   95        4.796182   1.000000
   96        4.910332   1.000000
   97        6.863192   0.989905
   98        6.957264  -0.050806
   99        7.064094   0.000000
  100        7.166008   0.000000
  101        7.273586   0.000000
  102        7.464547   0.000000
  103        7.631386   0.000000
  104        7.815907   0.000000
  105        8.568005   0.000000
  106        8.978732   0.000000
  107        9.028875   0.000000
  108        9.366692   0.000000
  109        9.510559   0.000000
  110        9.765983   0.000000
  111       10.085136   0.000000
  112       10.398458   0.000000
  113       10.531907   0.000000
  114       10.664549   0.000000
  115       10.775048   0.000000
  116       10.974877   0.000000
  117       11.082027   0.000000
  118       11.249526   0.000000
  119       11.279070   0.000000
  120       11.373207   0.000000
  121       11.447359   0.000000
  122       11.579437   0.000000
  123       11.672369   0.000000
  124       11.715942   0.000000
  125       11.798044   0.000000
  126       11.992893   0.000000
  127       12.194053   0.000000
  128       12.295145   0.000000
 
  0.3333333E+00 -0.4000000E+00  0.9090909E-01  0.6060606E-02
    1      -11.894293   1.000000
    2      -11.310157   1.000000
    3      -10.919811   1.000000
    4      -10.743821   1.000000
    5      -10.431349   1.000000
    6      -10.088038   1.000000
    7       -8.947541   1.000000
    8       -8.772738   1.000000
    9       -8.594476   1.000000
   10       -8.521807   1.000000
   11       -8.392073   1.000000
   12       -8.157910   1.000000
   13       -7.944131   1.000000
   14       -6.974574   1.000000
   15       -6.685010   1.000000
   16       -5.971652   1.000000
   17       -5.860107   1.000000
   18       -5.351151   1.000000
   19       -5.220681   1.000000
   20       -5.185955   1.000000
   21       -5.044405   1.000000
   22       -4.953771   1.000000
   23       -4.530417   1.000000
   24       -4.370277   1.000000
   25       -4.153227   1.000000
   26       -3.650059   1.000000
   27       -3.214596   1.000000
   28       -3.165010   1.000000
   29       -3.024369   1.000000
   30       -2.834412   1.000000
   31       -2.758366   1.000000
   32       -2.566640   1.000000
   33       -2.490365   1.000000
   34       -2.451242   1.000000
   35       -2.239073   1.000000
   36       -2.148520   1.000000
   37       -1.997218   1.000000
   38       -1.864311   1.000000
   39       -1.736705   1.000000
   40       -1.678663   1.000000
   41       -1.475917   1.000000
   42       -1.316774   1.000000
   43       -1.143898   1.000000
   44       -1.088903   1.000000
   45       -0.903153   1.000000
   46       -0.815578   1.000000
   47       -0.740403   1.000000
   48       -0.595137   1.000000
   49       -0.537400   1.000000
   50       -0.417484   1.000000
   51       -0.225438   1.000000
   52       -0.169236   1.000000
   53       -0.059854   1.000000
   54        0.072348   1.000000
   55        0.157846   1.000000
   56        0.322792   1.000000
   57        0.479843   1.000000
   58        0.518992   1.000000
   59        0.613489   1.000000
   60        0.651031   1.000000
   61        0.813366   1.000000
   62        0.994371   1.000000
   63        1.182835   1.000000
   64        1.262203   1.000000
   65        1.371469   1.000000
   66        1.477774   1.000000
   67        1.625207   1.000000
   68        1.719447   1.000000
   69        1.821436   1.000000
   70        1.974100   1.000000
   71        2.130240   1.000000
   72        2.226176   1.000000
   73        2.363515   1.000000
   74        2.509633   1.000000
   75        2.598182   1.000000
   76        2.674175   1.000000
   77        2.741275   1.000000
   78        2.871554   1.000000
   79        2.908229   1.000000
   80        3.036717   1.000000
   81        3.115634   1.000000
   82        3.244764   1.000000
   83        3.274991   1.000000
   84        3.474207   1.000000
   85        3.515286   1.000000
   86        3.568076   1.000000
   87        3.781912   1.000000
   88        3.856321   1.000000
   89        3.891509   1.000000
   90        3.964783   1.000000
   91        4.185247   1.000000
   92        4.282790   1.000000
   93        4.525651   1.000000
   94        4.568687   1.000000
   95        4.720159   1.000000
   96        4.913894   1.000000
   97        6.809903   1.003672
   98        6.916972   0.113968
   99        7.013651   0.000000
  100        7.223983   0.000000
  101        7.372493   0.000000
  102        7.536699   0.000000
  103        7.632702   0.000000
  104        7.783963   0.000000
  105        8.663087   0.000000
  106        9.146658   0.000000
  107        9.224941   0.000000
  108        9.507235   0.000000
  109        9.651025   0.000000
  110        9.825904   0.000000
  111       10.064213   0.000000
  112       10.299585   0.000000
  113       10.450995   0.000000
  114       10.654940   0.000000
  115       10.712816   0.000000
  116       10.807613   0.000000
  117       10.882589   0.000000
  118       11.041854   0.000000
  119       11.230591   0.000000
  120       11.292101   0.000000
  121       11.357214   0.000000
  122       11.453248   0.000000
  123       11.612918   0.000000
  124       11.726238   0.000000
  125       11.813016   0.000000
  126       12.008701   0.000000
  127       12.168108   0.000000
  128       12.299270   0.000000
 
  0.5000000E+00 -0.4000000E+00  0.9090909E-01  0.6060606E-02
    1      -11.889022   1.000000
    2      -11.298891   1.000000
    3      -10.917916   1.000000
    4      -10.800405   1.000000
    5      -10.413663   1.000000
    6      -10.084424   1.000000
    7       -8.931320   1.000000
    8       -8.757959   1.000000
    9       -8.581375   1.000000
   10       -8.468541   1.000000
   11       -8.372538   1.000000
   12       -8.200569   1.000000
   13       -7.990609   1.000000
   14       -6.971871   1.000000
   15       -6.684386   1.000000
   16       -5.969823   1.000000
   17       -5.851072   1.000000
   18       -5.384590   1.000000
   19       -5.274049   1.000000
   20       -5.167951   1.000000
   21       -5.068439   1.000000
   22       -4.970626   1.000000
   23       -4.499892   1.000000
   24       -4.363091   1.000000
   25       -4.240520   1.000000
   26       -3.650155   1.000000
   27       -3.303976   1.000000
   28       -3.200938   1.000000
   29       -3.023691   1.000000
   30       -2.855693   1.000000
   31       -2.604378   1.000000
   32       -2.516667   1.000000
   33       -2.416196   1.000000
   34       -2.325042   1.000000
   35       -2.116064   1.000000
   36       -1.937944   1.000000
   37       -1.854399   1.000000
   38       -1.807136   1.000000
   39       -1.665784   1.000000
   40       -1.566052   1.000000
   41       -1.429692   1.000000
   42       -1.409126   1.000000
   43       -1.348718   1.000000
   44       -1.211380   1.000000
   45       -1.146384   1.000000
   46       -0.943495   1.000000
   47       -0.864692   1.000000
   48       -0.736420   1.000000
   49       -0.694126   1.000000
   50       -0.415826   1.000000
   51       -0.265566   1.000000
   52       -0.198166   1.000000
   53       -0.134320   1.000000
   54       -0.033608   1.000000
   55        0.252561   1.000000
   56        0.371934   1.000000
   57        0.440587   1.000000
   58        0.556839   1.000000
   59        0.665626   1.000000
   60        0.721430   1.000000
   61        0.874397   1.000000
   62        1.068697   1.000000
   63        1.168692   1.000000
   64        1.289245   1.000000
   65        1.399469   1.000000
   66        1.572540   1.000000
   67        1.734263   1.000000
   68        1.746991   1.000000
   69        1.913973   1.000000
   70        2.010207   1.000000
   71        2.168500   1.000000
   72        2.223034   1.000000
   73        2.414636   1.000000
   74        2.514586   1.000000
   75        2.610370   1.000000
   76        2.661509   1.000000
   77        2.721057   1.000000
   78        2.812837   1.000000
   79        2.879490   1.000000
   80        3.018281   1.000000
   81        3.166082   1.000000
   82        3.233067   1.000000
   83        3.311363   1.000000
   84        3.385456   1.000000
   85        3.518768   1.000000
   86        3.554904   1.000000
   87        3.777293   1.000000
   88        3.810287   1.000000
   89        3.900188   1.000000
   90        4.022969   1.000000
   91        4.077503   1.000000
   92        4.250628   1.000000
   93        4.414402   1.000000
   94        4.467661   1.000000
   95        4.728302   1.000000
   96        4.914395   1.000000
   97        6.732029   1.000000
   98        6.840565   0.722560
   99        7.075892   0.000000
  100        7.243378   0.000000
  101        7.420216   0.000000
  102        7.509006   0.000000
  103        7.717924   0.000000
  104        7.792235   0.000000
  105        8.774617   0.000000
  106        9.266293   0.000000
  107        9.400371   0.000000
  108        9.620798   0.000000
  109        9.818572   0.000000
  110        9.898240   0.000000
  111       10.035669   0.000000
  112       10.310347   0.000000
  113       10.408150   0.000000
  114       10.456667   0.000000
  115       10.570655   0.000000
  116       10.728597   0.000000
  117       10.793338   0.000000
  118       10.931707   0.000000
  119       11.086876   0.000000
  120       11.236487   0.000000
  121       11.363005   0.000000
  122       11.441003   0.000000
  123       11.598422   0.000000
  124       11.819714   0.000000
  125       11.872113   0.000000
  126       12.032931   0.000000
  127       12.168948   0.000000
  128       12.305047   0.000000
 
 -0.3333333E+00 -0.4000000E+00  0.9090909E-01  0.6060606E-02
    1      -11.889974   1.000000
    2      -11.297511   1.000000
    3      -10.893122   1.000000
    4      -10.827049   1.000000
    5      -10.410562   1.000000
    6      -10.091447   1.000000
    7       -8.927524   1.000000
    8       -8.737429   1.000000
    9       -8.633135   1.000000
   10       -8.460621   1.000000
   11       -8.328879   1.000000
   12       -8.146165   1.000000
   13       -8.055476   1.000000
   14       -6.997895   1.000000
   15       -6.689438   1.000000
   16       -5.961226   1.000000
   17       -5.874228   1.000000
   18       -5.418079   1.000000
   19       -5.221732   1.000000
   20       -5.136878   1.000000
   21       -5.023864   1.000000
   22       -4.962134   1.000000
   23       -4.489162   1.000000
   24       -4.367456   1.000000
   25       -4.298089   1.000000
   26       -3.635517   1.000000
   27       -3.333050   1.000000
   28       -3.211228   1.000000
   29       -3.033914   1.000000
   30       -2.841787   1.000000
   31       -2.549631   1.000000
   32       -2.542449   1.000000
   33       -2.427524   1.000000
   34       -2.324620   1.000000
   35       -2.134433   1.000000
   36       -1.931357   1.000000
   37       -1.875002   1.000000
   38       -1.812354   1.000000
   39       -1.713449   1.000000
   40       -1.598833   1.000000
   41       -1.527987   1.000000
   42       -1.380402   1.000000
   43       -1.295196   1.000000
   44       -1.191284   1.000000
   45       -1.029308   1.000000
   46       -0.935769   1.000000
   47       -0.849180   1.000000
   48       -0.767408   1.000000
   49       -0.610807   1.000000
   50       -0.410276   1.000000
   51       -0.319297   1.000000
   52       -0.229790   1.000000
   53       -0.085094   1.000000
   54       -0.031874   1.000000
   55        0.138864   1.000000
   56        0.313138   1.000000
   57        0.433776   1.000000
   58        0.492880   1.000000
   59        0.635813   1.000000
   60        0.766353   1.000000
   61        0.882437   1.000000
   62        1.122795   1.000000
   63        1.237943   1.000000
   64        1.323326   1.000000
   65        1.401647   1.000000
   66        1.559359   1.000000
   67        1.748914   1.000000
   68        1.836829   1.000000
   69        2.002865   1.000000
   70        2.040429   1.000000
   71        2.141738   1.000000
   72        2.321164   1.000000
   73        2.419909   1.000000
   74        2.510356   1.000000
   75        2.580868   1.000000
   76        2.619230   1.000000
   77        2.755743   1.000000
   78        2.797903   1.000000
   79        2.889840   1.000000
   80        2.965715   1.000000
   81        3.078118   1.000000
   82        3.135700   1.000000
   83        3.262600   1.000000
   84        3.348646   1.000000
   85        3.467277   1.000000
   86        3.563194   1.000000
   87        3.744144   1.000000
   88        3.809930   1.000000
   89        3.970218   1.000000
   90        4.064169   1.000000
   91        4.156703   1.000000
   92        4.201350   1.000000
   93        4.336218   1.000000
   94        4.503850   1.000000
   95        4.786563   1.000000
   96        4.905318   1.000000
   97        6.690022   1.000000
   98        6.856853   0.629355
   99        7.095195   0.000000
  100        7.223505   0.000000
  101        7.415024   0.000000
  102        7.462544   0.000000
  103        7.763145   0.000000
  104        7.830573   0.000000
  105        8.795013   0.000000
  106        9.178054   0.000000
  107        9.329122   0.000000
  108        9.581948   0.000000
  109        9.787735   0.000000
  110        9.821366   0.000000
  111       10.064910   0.000000
  112       10.308844   0.000000
  113       10.446785   0.000000
  114       10.540506   0.000000
  115       10.697216   0.000000
  116       10.739066   0.000000
  117       10.879622   0.000000
  118       10.996033   0.000000
  119       11.055815   0.000000
  120       11.245434   0.000000
  121       11.349095   0.000000
  122       11.468031   0.000000
  123       11.637094   0.000000
  124       11.829302   0.000000
  125       11.951968   0.000000
  126       12.101086   0.000000
  127       12.191598   0.000000
  128       12.338178   0.000000
 
 -0.1666667E+00 -0.4000000E+00  0.9090909E-01  0.6060606E-02
    1      -11.896194   1.000000
    2      -11.306263   1.000000
    3      -10.900471   1.000000
    4      -10.764330   1.000000
    5      -10.430322   1.000000
    6      -10.100799   1.000000
    7       -8.938017   1.000000
    8       -8.751494   1.000000
    9       -8.648907   1.000000
   10       -8.533246   1.000000
   11       -8.287960   1.000000
   12       -8.098228   1.000000
   13       -8.045171   1.000000
   14       -7.024273   1.000000
   15       -6.695630   1.000000
   16       -5.955225   1.000000
   17       -5.898652   1.000000
   18       -5.423815   1.000000
   19       -5.137716   1.000000
   20       -5.105156   1.000000
   21       -5.023981   1.000000
   22       -4.858690   1.000000
   23       -4.488267   1.000000
   24       -4.414384   1.000000
   25       -4.252005   1.000000
   26       -3.620280   1.000000
   27       -3.260337   1.000000
   28       -3.207785   1.000000
   29       -3.043469   1.000000
   30       -2.822648   1.000000
   31       -2.768644   1.000000
   32       -2.682598   1.000000
   33       -2.559450   1.000000
   34       -2.306432   1.000000
   35       -2.145519   1.000000
   36       -2.103347   1.000000
   37       -2.046621   1.000000
   38       -1.885322   1.000000
   39       -1.721542   1.000000
   40       -1.621981   1.000000
   41       -1.555232   1.000000
   42       -1.360339   1.000000
   43       -1.165939   1.000000
   44       -1.072952   1.000000
   45       -0.946900   1.000000
   46       -0.833245   1.000000
   47       -0.683545   1.000000
   48       -0.649669   1.000000
   49       -0.461830   1.000000
   50       -0.327802   1.000000
   51       -0.210623   1.000000
   52       -0.163272   1.000000
   53       -0.031713   1.000000
   54        0.044036   1.000000
   55        0.102966   1.000000
   56        0.249022   1.000000
   57        0.352807   1.000000
   58        0.461232   1.000000
   59        0.534488   1.000000
   60        0.694421   1.000000
   61        0.850809   1.000000
   62        1.106705   1.000000
   63        1.229243   1.000000
   64        1.332078   1.000000
   65        1.452818   1.000000
   66        1.502254   1.000000
   67        1.702709   1.000000
   68        1.722279   1.000000
   69        1.976421   1.000000
   70        2.056961   1.000000
   71        2.144853   1.000000
   72        2.218789   1.000000
   73        2.344469   1.000000
   74        2.394545   1.000000
   75        2.583761   1.000000
   76        2.638978   1.000000
   77        2.747097   1.000000
   78        2.892506   1.000000
   79        2.930558   1.000000
   80        2.993939   1.000000
   81        3.087517   1.000000
   82        3.235056   1.000000
   83        3.299913   1.000000
   84        3.329908   1.000000
   85        3.476951   1.000000
   86        3.515736   1.000000
   87        3.650842   1.000000
   88        3.765953   1.000000
   89        3.909455   1.000000
   90        4.022203   1.000000
   91        4.198074   1.000000
   92        4.359030   1.000000
   93        4.403842   1.000000
   94        4.624922   1.000000
   95        4.849926   1.000000
   96        4.899661   1.000000
   97        6.728348   1.000131
   98        6.931028   0.082214
   99        7.086497   0.000000
  100        7.203450   0.000000
  101        7.354112   0.000000
  102        7.433635   0.000000
  103        7.645115   0.000000
  104        7.905508   0.000000
  105        8.721962   0.000000
  106        8.987135   0.000000
  107        9.137363   0.000000
  108        9.366748   0.000000
  109        9.611714   0.000000
  110        9.762526   0.000000
  111       10.148483   0.000000
  112       10.351002   0.000000
  113       10.542347   0.000000
  114       10.658146   0.000000
  115       10.858426   0.000000
  116       10.931869   0.000000
  117       11.017325   0.000000
  118       11.132175   0.000000
  119       11.240823   0.000000
  120       11.315369   0.000000
  121       11.363206   0.000000
  122       11.467377   0.000000
  123       11.702586   0.000000
  124       11.749711   0.000000
  125       11.953867   0.000000
  126       12.150577   0.000000
  127       12.214765   0.000000
  128       12.305994   0.000000
 
  0.0000000E+00 -0.2000000E+00  0.9090909E-01  0.6060606E-02
    1      -11.924244   1.000000
    2      -11.244487   1.000000
    3      -10.864431   1.000000
    4      -10.772117   1.000000
    5      -10.469528   1.000000
    6      -10.136516   1.000000
    7       -9.006557   1.000000
    8       -8.719579   1.000000
    9       -8.646264   1.000000
   10       -8.512322   1.000000
   11       -8.370698   1.000000
   12       -8.045658   1.000000
   13       -7.977534   1.000000
   14       -7.006574   1.000000
   15       -6.718328   1.000000
   16       -5.966675   1.000000
   17       -5.872393   1.000000
   18       -5.505414   1.000000
   19       -5.117139   1.000000
   20       -5.017852   1.000000
   21       -4.914750   1.000000
   22       -4.852091   1.000000
   23       -4.468197   1.000000
   24       -4.362646   1.000000
   25       -4.230634   1.000000
   26       -3.717168   1.000000
   27       -3.339518   1.000000
   28       -3.295244   1.000000
   29       -3.192495   1.000000
   30       -2.957497   1.000000
   31       -2.902635   1.000000
   32       -2.738560   1.000000
   33       -2.546117   1.000000
   34       -2.361762   1.000000
   35       -2.236857   1.000000
   36       -2.086212   1.000000
   37       -1.926777   1.000000
   38       -1.847696   1.000000
   39       -1.688404   1.000000
   40       -1.530398   1.000000
   41       -1.486928   1.000000
   42       -1.258478   1.000000
   43       -1.011252   1.000000
   44       -0.894780   1.000000
   45       -0.846576   1.000000
   46       -0.686366   1.000000
   47       -0.655883   1.000000
   48       -0.630135   1.000000
   49       -0.567420   1.000000
   50       -0.411134   1.000000
   51       -0.292584   1.000000
   52       -0.132419   1.000000
   53       -0.060114   1.000000
   54        0.083015   1.000000
   55        0.199422   1.000000
   56        0.305727   1.000000
   57        0.418710   1.000000
   58        0.537073   1.000000
   59        0.670474   1.000000
   60        0.710343   1.000000
   61        0.816754   1.000000
   62        0.991316   1.000000
   63        1.033482   1.000000
   64        1.140417   1.000000
   65        1.282677   1.000000
   66        1.442251   1.000000
   67        1.676720   1.000000
   68        1.734100   1.000000
   69        1.866515   1.000000
   70        2.019792   1.000000
   71        2.091371   1.000000
   72        2.158636   1.000000
   73        2.280115   1.000000
   74        2.423431   1.000000
   75        2.484849   1.000000
   76        2.571894   1.000000
   77        2.768344   1.000000
   78        2.830532   1.000000
   79        2.933678   1.000000
   80        3.008410   1.000000
   81        3.083112   1.000000
   82        3.175200   1.000000
   83        3.211357   1.000000
   84        3.475941   1.000000
   85        3.521254   1.000000
   86        3.642084   1.000000
   87        3.718670   1.000000
   88        3.802239   1.000000
   89        3.867101   1.000000
   90        4.065576   1.000000
   91        4.353690   1.000000
   92        4.470350   1.000000
   93        4.605172   1.000000
   94        4.712947   1.000000
   95        4.850502   1.000000
   96        5.057598   1.000000
   97        6.638487   1.000000
   98        6.736685   1.047104
   99        7.205050   0.000000
  100        7.264509   0.000000
  101        7.311594   0.000000
  102        7.407139   0.000000
  103        7.634677   0.000000
  104        7.934463   0.000000
  105        8.348222   0.000000
  106        8.808905   0.000000
  107        9.151582   0.000000
  108        9.357059   0.000000
  109        9.392245   0.000000
  110        9.718528   0.000000
  111       10.114810   0.000000
  112       10.355391   0.000000
  113       10.607919   0.000000
  114       10.766433   0.000000
  115       10.859326   0.000000
  116       10.969902   0.000000
  117       11.115516   0.000000
  118       11.224689   0.000000
  119       11.275942   0.000000
  120       11.415538   0.000000
  121       11.495551   0.000000
  122       11.638004   0.000000
  123       11.687267   0.000000
  124       11.817783   0.000000
  125       11.966123   0.000000
  126       12.117097   0.000000
  127       12.176158   0.000000
  128       12.282942   0.000000
 
  0.1666667E+00 -0.2000000E+00  0.9090909E-01  0.6060606E-02
    1      -11.919895   1.000000
    2      -11.255184   1.000000
    3      -10.882165   1.000000
    4      -10.766186   1.000000
    5      -10.461724   1.000000
    6      -10.108906   1.000000
    7       -8.959235   1.000000
    8       -8.747080   1.000000
    9       -8.673492   1.000000
   10       -8.576435   1.000000
   11       -8.354517   1.000000
   12       -8.052067   1.000000
   13       -7.955035   1.000000
   14       -6.985922   1.000000
   15       -6.705285   1.000000
   16       -5.949331   1.000000
   17       -5.876632   1.000000
   18       -5.476341   1.000000
   19       -5.154829   1.000000
   20       -5.006620   1.000000
   21       -4.948076   1.000000
   22       -4.907674   1.000000
   23       -4.482981   1.000000
   24       -4.380738   1.000000
   25       -4.137588   1.000000
   26       -3.780150   1.000000
   27       -3.293904   1.000000
   28       -3.265052   1.000000
   29       -3.116184   1.000000
   30       -2.940252   1.000000
   31       -2.838946   1.000000
   32       -2.748691   1.000000
   33       -2.453362   1.000000
   34       -2.374361   1.000000
   35       -2.301155   1.000000
   36       -2.183372   1.000000
   37       -1.970657   1.000000
   38       -1.882882   1.000000
   39       -1.808767   1.000000
   40       -1.648789   1.000000
   41       -1.391900   1.000000
   42       -1.201558   1.000000
   43       -1.086008   1.000000
   44       -0.901935   1.000000
   45       -0.839697   1.000000
   46       -0.729452   1.000000
   47       -0.608542   1.000000
   48       -0.542319   1.000000
   49       -0.429950   1.000000
   50       -0.369463   1.000000
   51       -0.251278   1.000000
   52       -0.146020   1.000000
   53       -0.086691   1.000000
   54       -0.044287   1.000000
   55        0.133981   1.000000
   56        0.289477   1.000000
   57        0.451399   1.000000
   58        0.554314   1.000000
   59        0.645996   1.000000
   60        0.711378   1.000000
   61        0.838990   1.000000
   62        0.971899   1.000000
   63        1.089243   1.000000
   64        1.142707   1.000000
   65        1.236860   1.000000
   66        1.444971   1.000000
   67        1.636097   1.000000
   68        1.723434   1.000000
   69        1.979152   1.000000
   70        2.018702   1.000000
   71        2.140037   1.000000
   72        2.225188   1.000000
   73        2.309782   1.000000
   74        2.390935   1.000000
   75        2.522752   1.000000
   76        2.584006   1.000000
   77        2.711979   1.000000
   78        2.882824   1.000000
   79        2.964363   1.000000
   80        3.019761   1.000000
   81        3.119762   1.000000
   82        3.141017   1.000000
   83        3.211814   1.000000
   84        3.366765   1.000000
   85        3.449045   1.000000
   86        3.581726   1.000000
   87        3.698424   1.000000
   88        3.798391   1.000000
   89        3.918291   1.000000
   90        4.106133   1.000000
   91        4.289585   1.000000
   92        4.448116   1.000000
   93        4.630891   1.000000
   94        4.728396   1.000000
   95        4.801549   1.000000
   96        5.055714   1.000000
   97        6.698019   1.006824
   98        6.779041   0.909432
   99        7.202632   0.000000
  100        7.301257   0.000000
  101        7.315017   0.000000
  102        7.420747   0.000000
  103        7.575552   0.000000
  104        7.862336   0.000000
  105        8.301016   0.000000
  106        8.797753   0.000000
  107        9.223704   0.000000
  108        9.424640   0.000000
  109        9.473581   0.000000
  110        9.728771   0.000000
  111       10.067761   0.000000
  112       10.358991   0.000000
  113       10.603470   0.000000
  114       10.740781   0.000000
  115       10.803884   0.000000
  116       10.950570   0.000000
  117       11.056344   0.000000
  118       11.197374   0.000000
  119       11.258141   0.000000
  120       11.389543   0.000000
  121       11.499313   0.000000
  122       11.646534   0.000000
  123       11.711759   0.000000
  124       11.845103   0.000000
  125       11.883866   0.000000
  126       12.038279   0.000000
  127       12.207320   0.000000
  128       12.300412   0.000000
 
  0.3333333E+00 -0.2000000E+00  0.9090909E-01  0.6060606E-02
    1      -11.908465   1.000000
    2      -11.254567   1.000000
    3      -10.946144   1.000000
    4      -10.752933   1.000000
    5      -10.461932   1.000000
    6      -10.058624   1.000000
    7       -8.949636   1.000000
    8       -8.730991   1.000000
    9       -8.685341   1.000000
   10       -8.570166   1.000000
   11       -8.323435   1.000000
   12       -8.099495   1.000000
   13       -7.981770   1.000000
   14       -6.966937   1.000000
   15       -6.688159   1.000000
   16       -5.948070   1.000000
   17       -5.855044   1.000000
   18       -5.478561   1.000000
   19       -5.221719   1.000000
   20       -5.072862   1.000000
   21       -5.016315   1.000000
   22       -4.934902   1.000000
   23       -4.486676   1.000000
   24       -4.389542   1.000000
   25       -4.068262   1.000000
   26       -3.788247   1.000000
   27       -3.278502   1.000000
   28       -3.135945   1.000000
   29       -2.979674   1.000000
   30       -2.898554   1.000000
   31       -2.775115   1.000000
   32       -2.648456   1.000000
   33       -2.511531   1.000000
   34       -2.412529   1.000000
   35       -2.249269   1.000000
   36       -2.065314   1.000000
   37       -2.010044   1.000000
   38       -1.898286   1.000000
   39       -1.845133   1.000000
   40       -1.706523   1.000000
   41       -1.466185   1.000000
   42       -1.352310   1.000000
   43       -1.167610   1.000000
   44       -1.023436   1.000000
   45       -0.876120   1.000000
   46       -0.742967   1.000000
   47       -0.665236   1.000000
   48       -0.587984   1.000000
   49       -0.538724   1.000000
   50       -0.413880   1.000000
   51       -0.258716   1.000000
   52       -0.214006   1.000000
   53        0.022620   1.000000
   54        0.065581   1.000000
   55        0.244602   1.000000
   56        0.418829   1.000000
   57        0.473025   1.000000
   58        0.511308   1.000000
   59        0.609228   1.000000
   60        0.763217   1.000000
   61        0.835818   1.000000
   62        0.929477   1.000000
   63        1.067437   1.000000
   64        1.175216   1.000000
   65        1.379213   1.000000
   66        1.454388   1.000000
   67        1.648102   1.000000
   68        1.782752   1.000000
   69        1.902381   1.000000
   70        2.044318   1.000000
   71        2.146214   1.000000
   72        2.247930   1.000000
   73        2.393732   1.000000
   74        2.487503   1.000000
   75        2.595485   1.000000
   76        2.619737   1.000000
   77        2.694718   1.000000
   78        2.887469   1.000000
   79        2.932539   1.000000
   80        3.013763   1.000000
   81        3.081015   1.000000
   82        3.221896   1.000000
   83        3.246390   1.000000
   84        3.313152   1.000000
   85        3.375281   1.000000
   86        3.492045   1.000000
   87        3.698681   1.000000
   88        3.851846   1.000000
   89        3.913670   1.000000
   90        4.037333   1.000000
   91        4.189889   1.000000
   92        4.337291   1.000000
   93        4.568135   1.000000
   94        4.645801   1.000000
   95        4.726464   1.000000
   96        5.061898   1.000000
   97        6.833105   1.000166
   98        6.887168   0.202590
   99        7.055911   0.000000
  100        7.254078   0.000000
  101        7.351181   0.000000
  102        7.522179   0.000000
  103        7.562539   0.000000
  104        7.757223   0.000000
  105        8.297284   0.000000
  106        8.956039   0.000000
  107        9.386253   0.000000
  108        9.567644   0.000000
  109        9.692271   0.000000
  110        9.791134   0.000000
  111        9.965536   0.000000
  112       10.385313   0.000000
  113       10.580780   0.000000
  114       10.711745   0.000000
  115       10.772599   0.000000
  116       10.865941   0.000000
  117       10.926576   0.000000
  118       11.090973   0.000000
  119       11.167263   0.000000
  120       11.237086   0.000000
  121       11.405514   0.000000
  122       11.499643   0.000000
  123       11.719409   0.000000
  124       11.817764   0.000000
  125       11.971179   0.000000
  126       12.093050   0.000000
  127       12.232503   0.000000
  128       12.397105   0.000000
 
  0.5000000E+00 -0.2000000E+00  0.9090909E-01  0.6060606E-02
    1      -11.901163   1.000000
    2      -11.245937   1.000000
    3      -10.972566   1.000000
    4      -10.769240   1.000000
    5      -10.463471   1.000000
    6      -10.036169   1.000000
    7       -8.992535   1.000000
    8       -8.719571   1.000000
    9       -8.587992   1.000000
   10       -8.537154   1.000000
   11       -8.308593   1.000000
   12       -8.141690   1.000000
   13       -8.037243   1.000000
   14       -6.967331   1.000000
   15       -6.685588   1.000000
   16       -5.954717   1.000000
   17       -5.841285   1.000000
   18       -5.520865   1.000000
   19       -5.212091   1.000000
   20       -5.127877   1.000000
   21       -5.074726   1.000000
   22       -4.936245   1.000000
   23       -4.448682   1.000000
   24       -4.395404   1.000000
   25       -4.098042   1.000000
   26       -3.737051   1.000000
   27       -3.272121   1.000000
   28       -3.161719   1.000000
   29       -2.942900   1.000000
   30       -2.919708   1.000000
   31       -2.715113   1.000000
   32       -2.499582   1.000000
   33       -2.423554   1.000000
   34       -2.371602   1.000000
   35       -2.160255   1.000000
   36       -2.102794   1.000000
   37       -1.969954   1.000000
   38       -1.865689   1.000000
   39       -1.734685   1.000000
   40       -1.613548   1.000000
   41       -1.517813   1.000000
   42       -1.451058   1.000000
   43       -1.300504   1.000000
   44       -1.236871   1.000000
   45       -1.146314   1.000000
   46       -0.909538   1.000000
   47       -0.824517   1.000000
   48       -0.636945   1.000000
   49       -0.436474   1.000000
   50       -0.313165   1.000000
   51       -0.255164   1.000000
   52       -0.081203   1.000000
   53        0.023103   1.000000
   54        0.101285   1.000000
   55        0.219287   1.000000
   56        0.432013   1.000000
   57        0.457277   1.000000
   58        0.551463   1.000000
   59        0.643633   1.000000
   60        0.740644   1.000000
   61        0.840780   1.000000
   62        1.071321   1.000000
   63        1.134130   1.000000
   64        1.255346   1.000000
   65        1.353549   1.000000
   66        1.478514   1.000000
   67        1.613696   1.000000
   68        1.820552   1.000000
   69        1.952607   1.000000
   70        1.966012   1.000000
   71        2.139207   1.000000
   72        2.332504   1.000000
   73        2.385996   1.000000
   74        2.458052   1.000000
   75        2.562749   1.000000
   76        2.648160   1.000000
   77        2.746339   1.000000
   78        2.786695   1.000000
   79        2.835879   1.000000
   80        3.017371   1.000000
   81        3.064168   1.000000
   82        3.220003   1.000000
   83        3.292295   1.000000
   84        3.419422   1.000000
   85        3.435902   1.000000
   86        3.538515   1.000000
   87        3.729705   1.000000
   88        3.839451   1.000000
   89        3.907703   1.000000
   90        4.019196   1.000000
   91        4.095137   1.000000
   92        4.230941   1.000000
   93        4.456879   1.000000
   94        4.532549   1.000000
   95        4.719415   1.000000
   96        5.069309   1.000000
   97        6.823455   1.000000
   98        6.972640  -0.055718
   99        7.045827   0.000000
  100        7.151897   0.000000
  101        7.376316   0.000000
  102        7.525705   0.000000
  103        7.647250   0.000000
  104        7.709852   0.000000
  105        8.338931   0.000000
  106        9.180083   0.000000
  107        9.485124   0.000000
  108        9.618812   0.000000
  109        9.729101   0.000000
  110        9.884521   0.000000
  111       10.064651   0.000000
  112       10.427123   0.000000
  113       10.507346   0.000000
  114       10.567466   0.000000
  115       10.675729   0.000000
  116       10.819189   0.000000
  117       10.936693   0.000000
  118       11.001639   0.000000
  119       11.059273   0.000000
  120       11.178269   0.000000
  121       11.364731   0.000000
  122       11.469099   0.000000
  123       11.680071   0.000000
  124       11.849466   0.000000
  125       12.035337   0.000000
  126       12.154644   0.000000
  127       12.250387   0.000000
  128       12.407467   0.000000
 
 -0.3333333E+00 -0.2000000E+00  0.9090909E-01  0.6060606E-02
    1      -11.905800   1.000000
    2      -11.239288   1.000000
    3      -10.928290   1.000000
    4      -10.810840   1.000000
    5      -10.460144   1.000000
    6      -10.061252   1.000000
    7       -9.023793   1.000000
    8       -8.705345   1.000000
    9       -8.604614   1.000000
   10       -8.392935   1.000000
   11       -8.334922   1.000000
   12       -8.174414   1.000000
   13       -8.050112   1.000000
   14       -6.989700   1.000000
   15       -6.697920   1.000000
   16       -5.963904   1.000000
   17       -5.845909   1.000000
   18       -5.551080   1.000000
   19       -5.164027   1.000000
   20       -5.078794   1.000000
   21       -5.056264   1.000000
   22       -4.951966   1.000000
   23       -4.428791   1.000000
   24       -4.391559   1.000000
   25       -4.171099   1.000000
   26       -3.696164   1.000000
   27       -3.308979   1.000000
   28       -3.258159   1.000000
   29       -3.008191   1.000000
   30       -2.889900   1.000000
   31       -2.647405   1.000000
   32       -2.551415   1.000000
   33       -2.375759   1.000000
   34       -2.285795   1.000000
   35       -2.184207   1.000000
   36       -2.035087   1.000000
   37       -2.007303   1.000000
   38       -1.896910   1.000000
   39       -1.869317   1.000000
   40       -1.655165   1.000000
   41       -1.561866   1.000000
   42       -1.351308   1.000000
   43       -1.186530   1.000000
   44       -1.075829   1.000000
   45       -0.966453   1.000000
   46       -0.934822   1.000000
   47       -0.781922   1.000000
   48       -0.637539   1.000000
   49       -0.522634   1.000000
   50       -0.370128   1.000000
   51       -0.289975   1.000000
   52       -0.198850   1.000000
   53       -0.148230   1.000000
   54        0.060707   1.000000
   55        0.146716   1.000000
   56        0.400853   1.000000
   57        0.538779   1.000000
   58        0.660138   1.000000
   59        0.704959   1.000000
   60        0.806695   1.000000
   61        0.863268   1.000000
   62        1.019813   1.000000
   63        1.144614   1.000000
   64        1.233850   1.000000
   65        1.418060   1.000000
   66        1.512573   1.000000
   67        1.689364   1.000000
   68        1.766987   1.000000
   69        1.913403   1.000000
   70        2.014433   1.000000
   71        2.085252   1.000000
   72        2.249629   1.000000
   73        2.370713   1.000000
   74        2.427515   1.000000
   75        2.547881   1.000000
   76        2.586087   1.000000
   77        2.653456   1.000000
   78        2.798375   1.000000
   79        2.890333   1.000000
   80        2.992460   1.000000
   81        3.061372   1.000000
   82        3.152533   1.000000
   83        3.321784   1.000000
   84        3.391389   1.000000
   85        3.494512   1.000000
   86        3.551628   1.000000
   87        3.762744   1.000000
   88        3.890738   1.000000
   89        3.937254   1.000000
   90        4.064579   1.000000
   91        4.123338   1.000000
   92        4.283839   1.000000
   93        4.427417   1.000000
   94        4.531839   1.000000
   95        4.752032   1.000000
   96        5.071624   1.000000
   97        6.719310   1.000000
   98        6.824527   0.751383
   99        7.076683   0.000000
  100        7.253080   0.000000
  101        7.384979   0.000000
  102        7.500262   0.000000
  103        7.716096   0.000000
  104        7.757948   0.000000
  105        8.370521   0.000000
  106        9.168457   0.000000
  107        9.464017   0.000000
  108        9.571064   0.000000
  109        9.656850   0.000000
  110        9.793538   0.000000
  111        9.990780   0.000000
  112       10.337466   0.000000
  113       10.522392   0.000000
  114       10.637880   0.000000
  115       10.770651   0.000000
  116       10.892006   0.000000
  117       11.012929   0.000000
  118       11.050167   0.000000
  119       11.135978   0.000000
  120       11.200357   0.000000
  121       11.367640   0.000000
  122       11.523787   0.000000
  123       11.642847   0.000000
  124       11.830193   0.000000
  125       12.080073   0.000000
  126       12.143797   0.000000
  127       12.221995   0.000000
  128       12.354549   0.000000
 
 -0.1666667E+00 -0.2000000E+00  0.9090909E-01  0.6060606E-02
    1      -11.917431   1.000000
    2      -11.236562   1.000000
    3      -10.874344   1.000000
    4      -10.813427   1.000000
    5      -10.463770   1.000000
    6      -10.111450   1.000000
    7       -9.029596   1.000000
    8       -8.697026   1.000000
    9       -8.638931   1.000000
   10       -8.399835   1.000000
   11       -8.360150   1.000000
   12       -8.122916   1.000000
   13       -8.014476   1.000000
   14       -7.009809   1.000000
   15       -6.713555   1.000000
   16       -5.973222   1.000000
   17       -5.856685   1.000000
   18       -5.540203   1.000000
   19       -5.140270   1.000000
   20       -5.017183   1.000000
   21       -4.955667   1.000000
   22       -4.917696   1.000000
   23       -4.457185   1.000000
   24       -4.372624   1.000000
   25       -4.223527   1.000000
   26       -3.683638   1.000000
   27       -3.362187   1.000000
   28       -3.285906   1.000000
   29       -3.090418   1.000000
   30       -2.920650   1.000000
   31       -2.826565   1.000000
   32       -2.597929   1.000000
   33       -2.467267   1.000000
   34       -2.351814   1.000000
   35       -2.218798   1.000000
   36       -2.156661   1.000000
   37       -1.990654   1.000000
   38       -1.832111   1.000000
   39       -1.770855   1.000000
   40       -1.504491   1.000000
   41       -1.385829   1.000000
   42       -1.247560   1.000000
   43       -1.205537   1.000000
   44       -0.975892   1.000000
   45       -0.889650   1.000000
   46       -0.791458   1.000000
   47       -0.734528   1.000000
   48       -0.564526   1.000000
   49       -0.555603   1.000000
   50       -0.366365   1.000000
   51       -0.323382   1.000000
   52       -0.229334   1.000000
   53       -0.118936   1.000000
   54       -0.027720   1.000000
   55        0.140502   1.000000
   56        0.375567   1.000000
   57        0.473294   1.000000
   58        0.601049   1.000000
   59        0.664793   1.000000
   60        0.809590   1.000000
   61        0.904355   1.000000
   62        0.934697   1.000000
   63        1.110231   1.000000
   64        1.219518   1.000000
   65        1.330284   1.000000
   66        1.537555   1.000000
   67        1.650732   1.000000
   68        1.782789   1.000000
   69        1.938458   1.000000
   70        2.005694   1.000000
   71        2.094637   1.000000
   72        2.212763   1.000000
   73        2.239868   1.000000
   74        2.376988   1.000000
   75        2.426079   1.000000
   76        2.619277   1.000000
   77        2.735623   1.000000
   78        2.806012   1.000000
   79        2.864356   1.000000
   80        2.990434   1.000000
   81        3.095461   1.000000
   82        3.164908   1.000000
   83        3.344321   1.000000
   84        3.433563   1.000000
   85        3.485523   1.000000
   86        3.596297   1.000000
   87        3.703907   1.000000
   88        3.850601   1.000000
   89        3.944262   1.000000
   90        4.048849   1.000000
   91        4.292303   1.000000
   92        4.394460   1.000000
   93        4.498290   1.000000
   94        4.638589   1.000000
   95        4.817474   1.000000
   96        5.065910   1.000000
   97        6.648959   1.000000
   98        6.742286   1.100883
   99        7.134346   0.000000
  100        7.273248   0.000000
  101        7.354373   0.000000
  102        7.419612   0.000000
  103        7.725627   0.000000
  104        7.885060   0.000000
  105        8.373847   0.000000
  106        8.974037   0.000000
  107        9.253414   0.000000
  108        9.430444   0.000000
  109        9.490634   0.000000
  110        9.742432   0.000000
  111       10.045831   0.000000
  112       10.343196   0.000000
  113       10.559985   0.000000
  114       10.723889   0.000000
  115       10.847633   0.000000
  116       10.962248   0.000000
  117       11.086264   0.000000
  118       11.174060   0.000000
  119       11.277311   0.000000
  120       11.326279   0.000000
  121       11.421463   0.000000
  122       11.575542   0.000000
  123       11.678069   0.000000
  124       11.791724   0.000000
  125       11.994715   0.000000
  126       12.113854   0.000000
  127       12.216100   0.000000
  128       12.270609   0.000000
 
  0.0000000E+00  0.0000000E+00  0.1818182E+00  0.6060606E-02
    1      -11.871452   1.000000
    2      -11.114303   1.000000
    3      -10.846982   1.000000
    4      -10.782201   1.000000
    5      -10.509055   1.000000
    6      -10.143841   1.000000
    7       -9.171123   1.000000
    8       -8.795887   1.000000
    9       -8.672705   1.000000
   10       -8.453172   1.000000
   11       -8.348145   1.000000
   12       -8.120480   1.000000
   13       -7.999824   1.000000
   14       -7.029917   1.000000
   15       -6.803216   1.000000
   16       -5.987754   1.000000
   17       -5.819347   1.000000
   18       -5.558590   1.000000
   19       -5.344510   1.000000
   20       -5.044390   1.000000
   21       -4.913712   1.000000
   22       -4.832583   1.000000
   23       -4.500946   1.000000
   24       -4.378934   1.000000
   25       -4.085487   1.000000
   26       -3.725043   1.000000
   27       -3.322672   1.000000
   28       -3.253424   1.000000
   29       -3.083545   1.000000
   30       -2.961290   1.000000
   31       -2.783666   1.000000
   32       -2.653142   1.000000
   33       -2.510212   1.000000
   34       -2.430624   1.000000
   35       -2.298616   1.000000
   36       -2.216044   1.000000
   37       -2.066444   1.000000
   38       -1.985031   1.000000
   39       -1.771863   1.000000
   40       -1.440889   1.000000
   41       -1.202516   1.000000
   42       -1.078982   1.000000
   43       -0.982538   1.000000
   44       -0.954353   1.000000
   45       -0.858726   1.000000
   46       -0.748868   1.000000
   47       -0.648455   1.000000
   48       -0.601685   1.000000
   49       -0.446383   1.000000
   50       -0.287097   1.000000
   51       -0.135187   1.000000
   52       -0.044202   1.000000
   53        0.040913   1.000000
   54        0.169753   1.000000
   55        0.304169   1.000000
   56        0.393468   1.000000
   57        0.558372   1.000000
   58        0.619204   1.000000
   59        0.718717   1.000000
   60        0.821155   1.000000
   61        0.895740   1.000000
   62        0.999556   1.000000
   63        1.114560   1.000000
   64        1.174904   1.000000
   65        1.277472   1.000000
   66        1.379240   1.000000
   67        1.587195   1.000000
   68        1.758353   1.000000
   69        1.864685   1.000000
   70        1.940259   1.000000
   71        2.070961   1.000000
   72        2.113230   1.000000
   73        2.219250   1.000000
   74        2.323701   1.000000
   75        2.504282   1.000000
   76        2.579601   1.000000
   77        2.728991   1.000000
   78        2.786627   1.000000
   79        2.919443   1.000000
   80        2.998128   1.000000
   81        3.128696   1.000000
   82        3.164930   1.000000
   83        3.367306   1.000000
   84        3.417468   1.000000
   85        3.532388   1.000000
   86        3.600769   1.000000
   87        3.818213   1.000000
   88        3.873315   1.000000
   89        3.993218   1.000000
   90        4.060606   1.000000
   91        4.274188   1.000000
   92        4.407835   1.000000
   93        4.459000   1.000000
   94        4.552505   1.000000
   95        4.602178   1.000000
   96        4.942973   1.000000
   97        6.634224   1.000000
   98        6.793323   0.987923
   99        7.096989   0.000000
  100        7.228246   0.000000
  101        7.279420   0.000000
  102        7.364016   0.000000
  103        7.595183   0.000000
  104        7.884101   0.000000
  105        8.286297   0.000000
  106        8.775021   0.000000
  107        9.027697   0.000000
  108        9.174452   0.000000
  109        9.402224   0.000000
  110        9.630841   0.000000
  111        9.975919   0.000000
  112       10.259863   0.000000
  113       10.474325   0.000000
  114       10.508200   0.000000
  115       10.759960   0.000000
  116       10.799485   0.000000
  117       10.998420   0.000000
  118       11.115638   0.000000
  119       11.199017   0.000000
  120       11.266810   0.000000
  121       11.410822   0.000000
  122       11.592531   0.000000
  123       11.752668   0.000000
  124       11.832227   0.000000
  125       11.969738   0.000000
  126       12.017541   0.000000
  127       12.153320   0.000000
  128       12.348950   0.000000
 
  0.1666667E+00  0.0000000E+00  0.1818182E+00  0.6060606E-02
    1      -11.875685   1.000000
    2      -11.115996   1.000000
    3      -10.842420   1.000000
    4      -10.758581   1.000000
    5      -10.514995   1.000000
    6      -10.165995   1.000000
    7       -9.126872   1.000000
    8       -8.792946   1.000000
    9       -8.637387   1.000000
   10       -8.563813   1.000000
   11       -8.404473   1.000000
   12       -8.067063   1.000000
   13       -7.994169   1.000000
   14       -7.001296   1.000000
   15       -6.792913   1.000000
   16       -5.942917   1.000000
   17       -5.822496   1.000000
   18       -5.536988   1.000000
   19       -5.299610   1.000000
   20       -5.060806   1.000000
   21       -4.942181   1.000000
   22       -4.899589   1.000000
   23       -4.503477   1.000000
   24       -4.438261   1.000000
   25       -4.110155   1.000000
   26       -3.757520   1.000000
   27       -3.336393   1.000000
   28       -3.206447   1.000000
   29       -3.064965   1.000000
   30       -3.034718   1.000000
   31       -2.748142   1.000000
   32       -2.650486   1.000000
   33       -2.501376   1.000000
   34       -2.366143   1.000000
   35       -2.200276   1.000000
   36       -2.105396   1.000000
   37       -2.034373   1.000000
   38       -1.900341   1.000000
   39       -1.630570   1.000000
   40       -1.569392   1.000000
   41       -1.312368   1.000000
   42       -1.234579   1.000000
   43       -1.112156   1.000000
   44       -0.986106   1.000000
   45       -0.825034   1.000000
   46       -0.690944   1.000000
   47       -0.566477   1.000000
   48       -0.484938   1.000000
   49       -0.341112   1.000000
   50       -0.289994   1.000000
   51       -0.237283   1.000000
   52       -0.140114   1.000000
   53       -0.041543   1.000000
   54        0.115033   1.000000
   55        0.178810   1.000000
   56        0.341194   1.000000
   57        0.518353   1.000000
   58        0.582503   1.000000
   59        0.666025   1.000000
   60        0.728111   1.000000
   61        0.892482   1.000000
   62        0.957821   1.000000
   63        1.092974   1.000000
   64        1.199565   1.000000
   65        1.323141   1.000000
   66        1.472927   1.000000
   67        1.695272   1.000000
   68        1.754505   1.000000
   69        1.898733   1.000000
   70        2.044093   1.000000
   71        2.122160   1.000000
   72        2.263285   1.000000
   73        2.293734   1.000000
   74        2.440590   1.000000
   75        2.512364   1.000000
   76        2.607890   1.000000
   77        2.687450   1.000000
   78        2.760789   1.000000
   79        2.859276   1.000000
   80        3.062870   1.000000
   81        3.079938   1.000000
   82        3.153609   1.000000
   83        3.317562   1.000000
   84        3.466636   1.000000
   85        3.506553   1.000000
   86        3.632722   1.000000
   87        3.793313   1.000000
   88        3.889191   1.000000
   89        3.913915   1.000000
   90        3.945824   1.000000
   91        4.232237   1.000000
   92        4.370818   1.000000
   93        4.510116   1.000000
   94        4.597379   1.000000
   95        4.653314   1.000000
   96        4.938329   1.000000
   97        6.621012   1.000000
   98        6.706675   1.119529
   99        7.150044   0.000000
  100        7.214561   0.000000
  101        7.311925   0.000000
  102        7.374886   0.000000
  103        7.581592   0.000000
  104        7.922494   0.000000
  105        8.278408   0.000000
  106        8.773910   0.000000
  107        9.023734   0.000000
  108        9.188333   0.000000
  109        9.427224   0.000000
  110        9.640721   0.000000
  111        9.977824   0.000000
  112       10.246062   0.000000
  113       10.478516   0.000000
  114       10.594192   0.000000
  115       10.727144   0.000000
  116       10.790790   0.000000
  117       10.890765   0.000000
  118       11.087146   0.000000
  119       11.144495   0.000000
  120       11.225292   0.000000
  121       11.344772   0.000000
  122       11.540313   0.000000
  123       11.659678   0.000000
  124       11.786605   0.000000
  125       11.906438   0.000000
  126       11.948380   0.000000
  127       12.110619   0.000000
  128       12.315213   0.000000
 
  0.3333333E+00 -0.2775558E-16  0.1818182E+00  0.6060606E-02
    1      -11.867557   1.000000
    2      -11.124405   1.000000
    3      -10.862291   1.000000
    4      -10.771802   1.000000
    5      -10.513604   1.000000
    6      -10.130743   1.000000
    7       -9.046687   1.000000
    8       -8.800949   1.000000
    9       -8.685819   1.000000
   10       -8.603345   1.000000
   11       -8.401183   1.000000
   12       -8.075048   1.000000
   13       -8.002656   1.000000
   14       -6.985845   1.000000
   15       -6.765285   1.000000
   16       -5.946861   1.000000
   17       -5.786695   1.000000
   18       -5.506198   1.000000
   19       -5.275679   1.000000
   20       -5.070518   1.000000
   21       -5.013496   1.000000
   22       -4.989840   1.000000
   23       -4.528593   1.000000
   24       -4.476175   1.000000
   25       -4.062864   1.000000
   26       -3.861024   1.000000
   27       -3.355869   1.000000
   28       -3.191436   1.000000
   29       -3.009825   1.000000
   30       -2.929396   1.000000
   31       -2.683209   1.000000
   32       -2.557413   1.000000
   33       -2.427814   1.000000
   34       -2.290215   1.000000
   35       -2.202909   1.000000
   36       -2.112701   1.000000
   37       -1.944784   1.000000
   38       -1.858047   1.000000
   39       -1.717364   1.000000
   40       -1.597778   1.000000
   41       -1.417435   1.000000
   42       -1.239241   1.000000
   43       -1.051762   1.000000
   44       -0.987072   1.000000
   45       -0.894362   1.000000
   46       -0.752878   1.000000
   47       -0.656863   1.000000
   48       -0.595717   1.000000
   49       -0.498341   1.000000
   50       -0.286799   1.000000
   51       -0.208559   1.000000
   52       -0.147191   1.000000
   53       -0.004360   1.000000
   54        0.040258   1.000000
   55        0.101683   1.000000
   56        0.350130   1.000000
   57        0.523990   1.000000
   58        0.570993   1.000000
   59        0.708127   1.000000
   60        0.784375   1.000000
   61        0.867832   1.000000
   62        1.019752   1.000000
   63        1.056263   1.000000
   64        1.194658   1.000000
   65        1.354690   1.000000
   66        1.479386   1.000000
   67        1.683001   1.000000
   68        1.831025   1.000000
   69        2.041267   1.000000
   70        2.089395   1.000000
   71        2.235771   1.000000
   72        2.338730   1.000000
   73        2.446409   1.000000
   74        2.464752   1.000000
   75        2.568485   1.000000
   76        2.613562   1.000000
   77        2.657149   1.000000
   78        2.761245   1.000000
   79        2.845062   1.000000
   80        3.027645   1.000000
   81        3.101325   1.000000
   82        3.183980   1.000000
   83        3.236114   1.000000
   84        3.396358   1.000000
   85        3.514327   1.000000
   86        3.647412   1.000000
   87        3.738607   1.000000
   88        3.764486   1.000000
   89        3.902516   1.000000
   90        3.922017   1.000000
   91        4.100146   1.000000
   92        4.238076   1.000000
   93        4.443407   1.000000
   94        4.595055   1.000000
   95        4.705901   1.000000
   96        4.945015   1.000000
   97        6.682075   1.000000
   98        6.743651   1.085183
   99        7.083743   0.000000
  100        7.177561   0.000000
  101        7.365367   0.000000
  102        7.466746   0.000000
  103        7.618972   0.000000
  104        7.859766   0.000000
  105        8.253666   0.000000
  106        8.787373   0.000000
  107        9.125999   0.000000
  108        9.370600   0.000000
  109        9.570578   0.000000
  110        9.748862   0.000000
  111        9.874943   0.000000
  112       10.258116   0.000000
  113       10.447417   0.000000
  114       10.604025   0.000000
  115       10.712539   0.000000
  116       10.784665   0.000000
  117       10.811258   0.000000
  118       10.957960   0.000000
  119       11.067311   0.000000
  120       11.169524   0.000000
  121       11.268670   0.000000
  122       11.471594   0.000000
  123       11.518140   0.000000
  124       11.695759   0.000000
  125       11.903877   0.000000
  126       11.937051   0.000000
  127       12.091771   0.000000
  128       12.316286   0.000000
 
  0.5000000E+00  0.0000000E+00  0.1818182E+00  0.6060606E-02
    1      -11.854566   1.000000
    2      -11.129747   1.000000
    3      -10.910758   1.000000
    4      -10.776363   1.000000
    5      -10.509587   1.000000
    6      -10.080482   1.000000
    7       -9.022020   1.000000
    8       -8.821527   1.000000
    9       -8.690599   1.000000
   10       -8.616269   1.000000
   11       -8.317367   1.000000
   12       -8.116481   1.000000
   13       -8.035340   1.000000
   14       -6.991190   1.000000
   15       -6.756162   1.000000
   16       -5.987174   1.000000
   17       -5.775925   1.000000
   18       -5.505632   1.000000
   19       -5.217513   1.000000
   20       -5.123674   1.000000
   21       -5.078573   1.000000
   22       -4.983219   1.000000
   23       -4.533516   1.000000
   24       -4.460596   1.000000
   25       -4.039413   1.000000
   26       -3.862225   1.000000
   27       -3.358385   1.000000
   28       -3.168962   1.000000
   29       -2.980750   1.000000
   30       -2.906826   1.000000
   31       -2.610746   1.000000
   32       -2.560387   1.000000
   33       -2.404188   1.000000
   34       -2.304231   1.000000
   35       -2.233905   1.000000
   36       -2.069601   1.000000
   37       -1.940818   1.000000
   38       -1.858417   1.000000
   39       -1.701182   1.000000
   40       -1.569052   1.000000
   41       -1.378779   1.000000
   42       -1.269424   1.000000
   43       -1.177606   1.000000
   44       -1.069577   1.000000
   45       -0.982929   1.000000
   46       -0.786284   1.000000
   47       -0.702790   1.000000
   48       -0.600233   1.000000
   49       -0.481162   1.000000
   50       -0.324785   1.000000
   51       -0.279209   1.000000
   52       -0.200215   1.000000
   53       -0.055745   1.000000
   54        0.188921   1.000000
   55        0.312625   1.000000
   56        0.407628   1.000000
   57        0.505721   1.000000
   58        0.576587   1.000000
   59        0.712774   1.000000
   60        0.812222   1.000000
   61        0.885493   1.000000
   62        1.056810   1.000000
   63        1.079835   1.000000
   64        1.273417   1.000000
   65        1.379488   1.000000
   66        1.523013   1.000000
   67        1.610963   1.000000
   68        1.790958   1.000000
   69        1.966397   1.000000
   70        2.189338   1.000000
   71        2.231262   1.000000
   72        2.349700   1.000000
   73        2.413943   1.000000
   74        2.476115   1.000000
   75        2.515258   1.000000
   76        2.597140   1.000000
   77        2.689654   1.000000
   78        2.785275   1.000000
   79        2.879975   1.000000
   80        2.970646   1.000000
   81        3.027895   1.000000
   82        3.199144   1.000000
   83        3.259953   1.000000
   84        3.422573   1.000000
   85        3.513973   1.000000
   86        3.638090   1.000000
   87        3.697748   1.000000
   88        3.801319   1.000000
   89        3.880005   1.000000
   90        3.968213   1.000000
   91        3.979126   1.000000
   92        4.218799   1.000000
   93        4.373561   1.000000
   94        4.500861   1.000000
   95        4.640364   1.000000
   96        4.951520   1.000000
   97        6.818243   1.000000
   98        6.878549   0.234046
   99        6.939826   0.000000
  100        7.185980   0.000000
  101        7.306470   0.000000
  102        7.558049   0.000000
  103        7.652602   0.000000
  104        7.761662   0.000000
  105        8.227642   0.000000
  106        8.842746   0.000000
  107        9.241544   0.000000
  108        9.422299   0.000000
  109        9.666783   0.000000
  110        9.900036   0.000000
  111        9.959357   0.000000
  112       10.329476   0.000000
  113       10.381417   0.000000
  114       10.495651   0.000000
  115       10.699276   0.000000
  116       10.738966   0.000000
  117       10.819962   0.000000
  118       10.883721   0.000000
  119       10.966811   0.000000
  120       11.086713   0.000000
  121       11.264440   0.000000
  122       11.464638   0.000000
  123       11.552044   0.000000
  124       11.731170   0.000000
  125       11.898959   0.000000
  126       12.042976   0.000000
  127       12.143379   0.000000
  128       12.318292   0.000000
 
 -0.3333333E+00  0.2775558E-16  0.1818182E+00  0.6060606E-02
    1      -11.849884   1.000000
    2      -11.130327   1.000000
    3      -10.917449   1.000000
    4      -10.790965   1.000000
    5      -10.505133   1.000000
    6      -10.061704   1.000000
    7       -9.099983   1.000000
    8       -8.787973   1.000000
    9       -8.691508   1.000000
   10       -8.553867   1.000000
   11       -8.244244   1.000000
   12       -8.133745   1.000000
   13       -8.082504   1.000000
   14       -7.018575   1.000000
   15       -6.771534   1.000000
   16       -6.016894   1.000000
   17       -5.802361   1.000000
   18       -5.526440   1.000000
   19       -5.248906   1.000000
   20       -5.100043   1.000000
   21       -5.026013   1.000000
   22       -4.956206   1.000000
   23       -4.485758   1.000000
   24       -4.450236   1.000000
   25       -4.016993   1.000000
   26       -3.806607   1.000000
   27       -3.316680   1.000000
   28       -3.186467   1.000000
   29       -3.077253   1.000000
   30       -2.891554   1.000000
   31       -2.692003   1.000000
   32       -2.558506   1.000000
   33       -2.439616   1.000000
   34       -2.354652   1.000000
   35       -2.216228   1.000000
   36       -2.113008   1.000000
   37       -1.940981   1.000000
   38       -1.883415   1.000000
   39       -1.644112   1.000000
   40       -1.613904   1.000000
   41       -1.477215   1.000000
   42       -1.290645   1.000000
   43       -1.195248   1.000000
   44       -1.063224   1.000000
   45       -1.028444   1.000000
   46       -0.815851   1.000000
   47       -0.580736   1.000000
   48       -0.501601   1.000000
   49       -0.360651   1.000000
   50       -0.300934   1.000000
   51       -0.259932   1.000000
   52       -0.017897   1.000000
   53        0.042034   1.000000
   54        0.106259   1.000000
   55        0.300389   1.000000
   56        0.397597   1.000000
   57        0.534080   1.000000
   58        0.588435   1.000000
   59        0.642788   1.000000
   60        0.824671   1.000000
   61        0.947478   1.000000
   62        1.107789   1.000000
   63        1.178924   1.000000
   64        1.249154   1.000000
   65        1.362417   1.000000
   66        1.504537   1.000000
   67        1.577282   1.000000
   68        1.812830   1.000000
   69        1.985926   1.000000
   70        2.014725   1.000000
   71        2.117605   1.000000
   72        2.230531   1.000000
   73        2.326965   1.000000
   74        2.429862   1.000000
   75        2.513877   1.000000
   76        2.592262   1.000000
   77        2.644833   1.000000
   78        2.765679   1.000000
   79        2.802798   1.000000
   80        2.904755   1.000000
   81        3.029547   1.000000
   82        3.214148   1.000000
   83        3.345570   1.000000
   84        3.477598   1.000000
   85        3.521130   1.000000
   86        3.689328   1.000000
   87        3.726754   1.000000
   88        3.795661   1.000000
   89        3.987134   1.000000
   90        4.035191   1.000000
   91        4.077137   1.000000
   92        4.231436   1.000000
   93        4.330578   1.000000
   94        4.459456   1.000000
   95        4.546227   1.000000
   96        4.951261   1.000000
   97        6.750724   1.000000
   98        6.932544  -0.026795
   99        7.055230   0.000000
  100        7.149137   0.000000
  101        7.318143   0.000000
  102        7.564461   0.000000
  103        7.625317   0.000000
  104        7.695391   0.000000
  105        8.219098   0.000000
  106        8.881284   0.000000
  107        9.261103   0.000000
  108        9.380569   0.000000
  109        9.628732   0.000000
  110        9.852045   0.000000
  111        9.934911   0.000000
  112       10.240527   0.000000
  113       10.453082   0.000000
  114       10.518107   0.000000
  115       10.654018   0.000000
  116       10.764863   0.000000
  117       10.918421   0.000000
  118       10.953533   0.000000
  119       11.018808   0.000000
  120       11.186491   0.000000
  121       11.339933   0.000000
  122       11.456084   0.000000
  123       11.606861   0.000000
  124       11.853915   0.000000
  125       11.994549   0.000000
  126       12.100272   0.000000
  127       12.227092   0.000000
  128       12.269603   0.000000
 
 -0.1666667E+00  0.0000000E+00  0.1818182E+00  0.6060606E-02
    1      -11.858668   1.000000
    2      -11.123260   1.000000
    3      -10.873334   1.000000
    4      -10.808928   1.000000
    5      -10.503987   1.000000
    6      -10.090352   1.000000
    7       -9.161159   1.000000
    8       -8.788013   1.000000
    9       -8.694440   1.000000
   10       -8.447537   1.000000
   11       -8.279553   1.000000
   12       -8.150163   1.000000
   13       -8.043629   1.000000
   14       -7.041555   1.000000
   15       -6.791222   1.000000
   16       -6.017563   1.000000
   17       -5.814880   1.000000
   18       -5.552124   1.000000
   19       -5.332274   1.000000
   20       -5.041879   1.000000
   21       -4.955893   1.000000
   22       -4.876309   1.000000
   23       -4.498167   1.000000
   24       -4.387947   1.000000
   25       -4.018898   1.000000
   26       -3.768749   1.000000
   27       -3.295461   1.000000
   28       -3.244563   1.000000
   29       -3.090996   1.000000
   30       -2.879052   1.000000
   31       -2.771917   1.000000
   32       -2.586093   1.000000
   33       -2.548166   1.000000
   34       -2.386535   1.000000
   35       -2.289947   1.000000
   36       -2.139611   1.000000
   37       -2.025806   1.000000
   38       -1.989639   1.000000
   39       -1.834907   1.000000
   40       -1.499428   1.000000
   41       -1.421816   1.000000
   42       -1.158659   1.000000
   43       -1.032865   1.000000
   44       -0.963281   1.000000
   45       -0.810132   1.000000
   46       -0.718920   1.000000
   47       -0.662237   1.000000
   48       -0.558510   1.000000
   49       -0.448101   1.000000
   50       -0.251391   1.000000
   51       -0.152512   1.000000
   52       -0.108854   1.000000
   53        0.033046   1.000000
   54        0.223221   1.000000
   55        0.354244   1.000000
   56        0.442841   1.000000
   57        0.539438   1.000000
   58        0.631943   1.000000
   59        0.741032   1.000000
   60        0.768440   1.000000
   61        0.926123   1.000000
   62        1.017023   1.000000
   63        1.144332   1.000000
   64        1.235483   1.000000
   65        1.364425   1.000000
   66        1.478871   1.000000
   67        1.551919   1.000000
   68        1.759108   1.000000
   69        1.775205   1.000000
   70        1.949949   1.000000
   71        2.085676   1.000000
   72        2.123379   1.000000
   73        2.292389   1.000000
   74        2.347737   1.000000
   75        2.465998   1.000000
   76        2.562207   1.000000
   77        2.686950   1.000000
   78        2.793365   1.000000
   79        2.833009   1.000000
   80        2.943496   1.000000
   81        3.085602   1.000000
   82        3.199477   1.000000
   83        3.349407   1.000000
   84        3.485261   1.000000
   85        3.574724   1.000000
   86        3.637511   1.000000
   87        3.773521   1.000000
   88        3.814586   1.000000
   89        3.963263   1.000000
   90        4.115172   1.000000
   91        4.201758   1.000000
   92        4.329727   1.000000
   93        4.387683   1.000000
   94        4.505240   1.000000
   95        4.552336   1.000000
   96        4.948235   1.000000
   97        6.674379   1.000000
   98        6.905189   0.132123
   99        7.031250   0.000000
  100        7.204406   0.000000
  101        7.360635   0.000000
  102        7.425230   0.000000
  103        7.616262   0.000000
  104        7.761475   0.000000
  105        8.251687   0.000000
  106        8.821628   0.000000
  107        9.139765   0.000000
  108        9.357687   0.000000
  109        9.464970   0.000000
  110        9.702041   0.000000
  111        9.860957   0.000000
  112       10.248226   0.000000
  113       10.478679   0.000000
  114       10.517688   0.000000
  115       10.704641   0.000000
  116       10.844492   0.000000
  117       10.972048   0.000000
  118       11.072982   0.000000
  119       11.128741   0.000000
  120       11.272723   0.000000
  121       11.456265   0.000000
  122       11.528575   0.000000
  123       11.687779   0.000000
  124       11.884483   0.000000
  125       11.962338   0.000000
  126       12.096047   0.000000
  127       12.265897   0.000000
  128       12.326192   0.000000
 
  0.0000000E+00  0.2000000E+00  0.1818182E+00  0.6060606E-02
    1      -11.872145   1.000000
    2      -11.100800   1.000000
    3      -10.874590   1.000000
    4      -10.773736   1.000000
    5      -10.519296   1.000000
    6      -10.119408   1.000000
    7       -9.121809   1.000000
    8       -8.837273   1.000000
    9       -8.723338   1.000000
   10       -8.485520   1.000000
   11       -8.241517   1.000000
   12       -8.192256   1.000000
   13       -7.977688   1.000000
   14       -7.025370   1.000000
   15       -6.795776   1.000000
   16       -5.997144   1.000000
   17       -5.838852   1.000000
   18       -5.453105   1.000000
   19       -5.382291   1.000000
   20       -5.099647   1.000000
   21       -4.934492   1.000000
   22       -4.801457   1.000000
   23       -4.593012   1.000000
   24       -4.383026   1.000000
   25       -4.032783   1.000000
   26       -3.668691   1.000000
   27       -3.415928   1.000000
   28       -3.176838   1.000000
   29       -3.049047   1.000000
   30       -2.835538   1.000000
   31       -2.717543   1.000000
   32       -2.628568   1.000000
   33       -2.476082   1.000000
   34       -2.450742   1.000000
   35       -2.242671   1.000000
   36       -2.161334   1.000000
   37       -2.055707   1.000000
   38       -1.946623   1.000000
   39       -1.731150   1.000000
   40       -1.657767   1.000000
   41       -1.443973   1.000000
   42       -1.254618   1.000000
   43       -1.122271   1.000000
   44       -1.043302   1.000000
   45       -0.950936   1.000000
   46       -0.837384   1.000000
   47       -0.789834   1.000000
   48       -0.458909   1.000000
   49       -0.351676   1.000000
   50       -0.280659   1.000000
   51       -0.209841   1.000000
   52       -0.048982   1.000000
   53        0.128065   1.000000
   54        0.284197   1.000000
   55        0.370212   1.000000
   56        0.458953   1.000000
   57        0.541408   1.000000
   58        0.689992   1.000000
   59        0.805483   1.000000
   60        0.920606   1.000000
   61        0.983847   1.000000
   62        1.097427   1.000000
   63        1.145590   1.000000
   64        1.202321   1.000000
   65        1.290313   1.000000
   66        1.453662   1.000000
   67        1.591280   1.000000
   68        1.648654   1.000000
   69        1.856698   1.000000
   70        1.935361   1.000000
   71        2.037858   1.000000
   72        2.131697   1.000000
   73        2.236512   1.000000
   74        2.344866   1.000000
   75        2.476007   1.000000
   76        2.612734   1.000000
   77        2.717087   1.000000
   78        2.786102   1.000000
   79        2.893919   1.000000
   80        2.945304   1.000000
   81        3.090457   1.000000
   82        3.138249   1.000000
   83        3.363074   1.000000
   84        3.476958   1.000000
   85        3.546292   1.000000
   86        3.581081   1.000000
   87        3.782876   1.000000
   88        3.951944   1.000000
   89        4.031464   1.000000
   90        4.108629   1.000000
   91        4.216582   1.000000
   92        4.337275   1.000000
   93        4.419447   1.000000
   94        4.451230   1.000000
   95        4.597144   1.000000
   96        4.815695   1.000000
   97        6.530879   1.000000
   98        6.900412   0.278462
   99        7.165759   0.000000
  100        7.210216   0.000000
  101        7.380167   0.000000
  102        7.454401   0.000000
  103        7.633216   0.000000
  104        7.786860   0.000000
  105        8.278548   0.000000
  106        8.814017   0.000000
  107        9.007449   0.000000
  108        9.193093   0.000000
  109        9.374933   0.000000
  110        9.495266   0.000000
  111        9.914197   0.000000
  112       10.185935   0.000000
  113       10.430447   0.000000
  114       10.565207   0.000000
  115       10.664750   0.000000
  116       10.788399   0.000000
  117       10.889753   0.000000
  118       11.038668   0.000000
  119       11.155909   0.000000
  120       11.249002   0.000000
  121       11.401224   0.000000
  122       11.647249   0.000000
  123       11.709837   0.000000
  124       11.918975   0.000000
  125       11.982897   0.000000
  126       12.043524   0.000000
  127       12.078320   0.000000
  128       12.333567   0.000000
 
  0.1666667E+00  0.2000000E+00  0.1818182E+00  0.6060606E-02
    1      -11.880477   1.000000
    2      -11.087878   1.000000
    3      -10.863733   1.000000
    4      -10.750583   1.000000
    5      -10.529006   1.000000
    6      -10.162493   1.000000
    7       -9.106566   1.000000
    8       -8.847788   1.000000
    9       -8.672664   1.000000
   10       -8.554347   1.000000
   11       -8.313557   1.000000
   12       -8.143290   1.000000
   13       -7.937708   1.000000
   14       -6.983527   1.000000
   15       -6.799010   1.000000
   16       -5.971956   1.000000
   17       -5.839851   1.000000
   18       -5.461851   1.000000
   19       -5.356526   1.000000
   20       -5.096163   1.000000
   21       -4.986629   1.000000
   22       -4.837706   1.000000
   23       -4.569375   1.000000
   24       -4.378036   1.000000
   25       -4.123826   1.000000
   26       -3.692118   1.000000
   27       -3.390079   1.000000
   28       -3.139726   1.000000
   29       -3.047249   1.000000
   30       -2.960259   1.000000
   31       -2.778334   1.000000
   32       -2.643086   1.000000
   33       -2.562905   1.000000
   34       -2.354079   1.000000
   35       -2.239188   1.000000
   36       -2.105063   1.000000
   37       -2.025201   1.000000
   38       -1.982854   1.000000
   39       -1.672166   1.000000
   40       -1.473429   1.000000
   41       -1.250846   1.000000
   42       -1.158149   1.000000
   43       -1.098532   1.000000
   44       -0.915424   1.000000
   45       -0.797089   1.000000
   46       -0.748256   1.000000
   47       -0.670817   1.000000
   48       -0.639365   1.000000
   49       -0.409095   1.000000
   50       -0.343429   1.000000
   51       -0.274039   1.000000
   52       -0.135232   1.000000
   53        0.025992   1.000000
   54        0.126905   1.000000
   55        0.260429   1.000000
   56        0.340777   1.000000
   57        0.471419   1.000000
   58        0.515306   1.000000
   59        0.724958   1.000000
   60        0.827936   1.000000
   61        0.879354   1.000000
   62        1.002678   1.000000
   63        1.102993   1.000000
   64        1.230728   1.000000
   65        1.316216   1.000000
   66        1.510092   1.000000
   67        1.642053   1.000000
   68        1.706350   1.000000
   69        1.943653   1.000000
   70        2.011153   1.000000
   71        2.092954   1.000000
   72        2.143587   1.000000
   73        2.242693   1.000000
   74        2.465430   1.000000
   75        2.508522   1.000000
   76        2.620765   1.000000
   77        2.713768   1.000000
   78        2.779799   1.000000
   79        2.878766   1.000000
   80        3.004159   1.000000
   81        3.082038   1.000000
   82        3.259478   1.000000
   83        3.344541   1.000000
   84        3.486679   1.000000
   85        3.584133   1.000000
   86        3.597280   1.000000
   87        3.892614   1.000000
   88        3.920508   1.000000
   89        3.967156   1.000000
   90        4.159329   1.000000
   91        4.200549   1.000000
   92        4.324076   1.000000
   93        4.434460   1.000000
   94        4.501858   1.000000
   95        4.622345   1.000000
   96        4.799450   1.000000
   97        6.494945   1.000000
   98        6.743971   0.992182
   99        7.170472   0.000000
  100        7.238047   0.000000
  101        7.333581   0.000000
  102        7.497721   0.000000
  103        7.603395   0.000000
  104        7.896549   0.000000
  105        8.316258   0.000000
  106        8.817978   0.000000
  107        8.977294   0.000000
  108        9.183771   0.000000
  109        9.376530   0.000000
  110        9.497075   0.000000
  111        9.933752   0.000000
  112       10.161989   0.000000
  113       10.428949   0.000000
  114       10.626212   0.000000
  115       10.740987   0.000000
  116       10.795470   0.000000
  117       10.831273   0.000000
  118       10.949766   0.000000
  119       11.081168   0.000000
  120       11.237482   0.000000
  121       11.275581   0.000000
  122       11.416691   0.000000
  123       11.696363   0.000000
  124       11.743705   0.000000
  125       11.911879   0.000000
  126       12.018596   0.000000
  127       12.049277   0.000000
  128       12.307663   0.000000
 
  0.3333333E+00  0.2000000E+00  0.1818182E+00  0.6060606E-02
    1      -11.875907   1.000000
    2      -11.087016   1.000000
    3      -10.854285   1.000000
    4      -10.783122   1.000000
    5      -10.537791   1.000000
    6      -10.143052   1.000000
    7       -9.057860   1.000000
    8       -8.836581   1.000000
    9       -8.676335   1.000000
   10       -8.569347   1.000000
   11       -8.370992   1.000000
   12       -8.138528   1.000000
   13       -7.933361   1.000000
   14       -6.962869   1.000000
   15       -6.780086   1.000000
   16       -5.987922   1.000000
   17       -5.788317   1.000000
   18       -5.456161   1.000000
   19       -5.361592   1.000000
   20       -5.088827   1.000000
   21       -5.026086   1.000000
   22       -4.909151   1.000000
   23       -4.553294   1.000000
   24       -4.450744   1.000000
   25       -4.143134   1.000000
   26       -3.762158   1.000000
   27       -3.370339   1.000000
   28       -3.149443   1.000000
   29       -3.054396   1.000000
   30       -2.926097   1.000000
   31       -2.754522   1.000000
   32       -2.620894   1.000000
   33       -2.506993   1.000000
   34       -2.398366   1.000000
   35       -2.206086   1.000000
   36       -2.033855   1.000000
   37       -1.951178   1.000000
   38       -1.812786   1.000000
   39       -1.586706   1.000000
   40       -1.432739   1.000000
   41       -1.329792   1.000000
   42       -1.176399   1.000000
   43       -1.011144   1.000000
   44       -0.959743   1.000000
   45       -0.862723   1.000000
   46       -0.634827   1.000000
   47       -0.566953   1.000000
   48       -0.500344   1.000000
   49       -0.408719   1.000000
   50       -0.339131   1.000000
   51       -0.279254   1.000000
   52       -0.191362   1.000000
   53       -0.129884   1.000000
   54       -0.044598   1.000000
   55        0.066628   1.000000
   56        0.103078   1.000000
   57        0.283697   1.000000
   58        0.448204   1.000000
   59        0.596369   1.000000
   60        0.761099   1.000000
   61        0.842283   1.000000
   62        0.997840   1.000000
   63        1.153732   1.000000
   64        1.223367   1.000000
   65        1.409104   1.000000
   66        1.471711   1.000000
   67        1.668553   1.000000
   68        1.828046   1.000000
   69        1.992841   1.000000
   70        2.052983   1.000000
   71        2.167684   1.000000
   72        2.282861   1.000000
   73        2.431216   1.000000
   74        2.517482   1.000000
   75        2.627999   1.000000
   76        2.662644   1.000000
   77        2.713913   1.000000
   78        2.873882   1.000000
   79        2.918900   1.000000
   80        3.078014   1.000000
   81        3.144455   1.000000
   82        3.216765   1.000000
   83        3.332662   1.000000
   84        3.463205   1.000000
   85        3.561296   1.000000
   86        3.655217   1.000000
   87        3.817452   1.000000
   88        3.876490   1.000000
   89        3.913385   1.000000
   90        4.008229   1.000000
   91        4.076106   1.000000
   92        4.151374   1.000000
   93        4.442335   1.000000
   94        4.484636   1.000000
   95        4.686342   1.000000
   96        4.795308   1.000000
   97        6.532701   1.000000
   98        6.722357   1.015252
   99        7.035212   0.000000
  100        7.223999   0.000000
  101        7.375337   0.000000
  102        7.548987   0.000000
  103        7.631161   0.000000
  104        7.888932   0.000000
  105        8.310397   0.000000
  106        8.885303   0.000000
  107        9.073948   0.000000
  108        9.332166   0.000000
  109        9.503545   0.000000
  110        9.614796   0.000000
  111        9.876912   0.000000
  112       10.169929   0.000000
  113       10.467694   0.000000
  114       10.577929   0.000000
  115       10.670100   0.000000
  116       10.760999   0.000000
  117       10.799698   0.000000
  118       10.985827   0.000000
  119       11.054158   0.000000
  120       11.149074   0.000000
  121       11.188435   0.000000
  122       11.334540   0.000000
  123       11.426894   0.000000
  124       11.712022   0.000000
  125       11.820248   0.000000
  126       12.044924   0.000000
  127       12.099120   0.000000
  128       12.194523   0.000000
 
  0.5000000E+00  0.2000000E+00  0.1818182E+00  0.6060606E-02
    1      -11.862558   1.000000
    2      -11.100060   1.000000
    3      -10.863754   1.000000
    4      -10.823095   1.000000
    5      -10.538259   1.000000
    6      -10.086641   1.000000
    7       -9.010500   1.000000
    8       -8.846014   1.000000
    9       -8.703696   1.000000
   10       -8.557261   1.000000
   11       -8.325987   1.000000
   12       -8.185474   1.000000
   13       -7.965046   1.000000
   14       -6.974789   1.000000
   15       -6.767341   1.000000
   16       -6.025078   1.000000
   17       -5.759629   1.000000
   18       -5.463387   1.000000
   19       -5.313818   1.000000
   20       -5.087595   1.000000
   21       -5.046879   1.000000
   22       -4.934373   1.000000
   23       -4.573723   1.000000
   24       -4.525391   1.000000
   25       -4.072406   1.000000
   26       -3.797994   1.000000
   27       -3.398577   1.000000
   28       -3.176468   1.000000
   29       -3.017752   1.000000
   30       -2.862048   1.000000
   31       -2.646236   1.000000
   32       -2.571072   1.000000
   33       -2.460069   1.000000
   34       -2.360263   1.000000
   35       -2.141860   1.000000
   36       -2.050011   1.000000
   37       -2.003017   1.000000
   38       -1.711221   1.000000
   39       -1.594137   1.000000
   40       -1.515954   1.000000
   41       -1.408682   1.000000
   42       -1.214490   1.000000
   43       -1.145252   1.000000
   44       -0.914784   1.000000
   45       -0.797868   1.000000
   46       -0.729386   1.000000
   47       -0.659674   1.000000
   48       -0.628100   1.000000
   49       -0.538199   1.000000
   50       -0.422049   1.000000
   51       -0.361652   1.000000
   52       -0.188576   1.000000
   53       -0.025009   1.000000
   54        0.045280   1.000000
   55        0.113427   1.000000
   56        0.188573   1.000000
   57        0.409064   1.000000
   58        0.496488   1.000000
   59        0.648480   1.000000
   60        0.804465   1.000000
   61        0.906845   1.000000
   62        0.953247   1.000000
   63        1.064875   1.000000
   64        1.163966   1.000000
   65        1.315856   1.000000
   66        1.517154   1.000000
   67        1.680826   1.000000
   68        1.849643   1.000000
   69        2.020430   1.000000
   70        2.205795   1.000000
   71        2.233176   1.000000
   72        2.441313   1.000000
   73        2.491266   1.000000
   74        2.564683   1.000000
   75        2.599518   1.000000
   76        2.702139   1.000000
   77        2.738530   1.000000
   78        2.759454   1.000000
   79        2.940913   1.000000
   80        3.123145   1.000000
   81        3.161955   1.000000
   82        3.214849   1.000000
   83        3.404500   1.000000
   84        3.445552   1.000000
   85        3.481337   1.000000
   86        3.664130   1.000000
   87        3.717671   1.000000
   88        3.792355   1.000000
   89        3.831977   1.000000
   90        3.938877   1.000000
   91        3.960242   1.000000
   92        4.106944   1.000000
   93        4.360951   1.000000
   94        4.403004   1.000000
   95        4.634046   1.000000
   96        4.802063   1.000000
   97        6.690376   1.000000
   98        6.823347   0.891960
   99        6.883811   0.000000
  100        7.133799   0.000000
  101        7.466277   0.000000
  102        7.542940   0.000000
  103        7.707711   0.000000
  104        7.780567   0.000000
  105        8.278585   0.000000
  106        8.957779   0.000000
  107        9.196593   0.000000
  108        9.427911   0.000000
  109        9.653151   0.000000
  110        9.807762   0.000000
  111        9.875063   0.000000
  112       10.239095   0.000000
  113       10.400739   0.000000
  114       10.464546   0.000000
  115       10.670267   0.000000
  116       10.725860   0.000000
  117       10.804466   0.000000
  118       10.839979   0.000000
  119       10.976432   0.000000
  120       11.079961   0.000000
  121       11.243983   0.000000
  122       11.400595   0.000000
  123       11.548522   0.000000
  124       11.732142   0.000000
  125       11.871607   0.000000
  126       11.990171   0.000000
  127       12.122315   0.000000
  128       12.234793   0.000000
 
 -0.3333333E+00  0.2000000E+00  0.1818182E+00  0.6060606E-02
    1      -11.853503   1.000000
    2      -11.112228   1.000000
    3      -10.907652   1.000000
    4      -10.804945   1.000000
    5      -10.531079   1.000000
    6      -10.050983   1.000000
    7       -9.031925   1.000000
    8       -8.835407   1.000000
    9       -8.740846   1.000000
   10       -8.500145   1.000000
   11       -8.260544   1.000000
   12       -8.203176   1.000000
   13       -8.024642   1.000000
   14       -7.011254   1.000000
   15       -6.772754   1.000000
   16       -6.044858   1.000000
   17       -5.793051   1.000000
   18       -5.458371   1.000000
   19       -5.201958   1.000000
   20       -5.128949   1.000000
   21       -5.067271   1.000000
   22       -4.898263   1.000000
   23       -4.608565   1.000000
   24       -4.522884   1.000000
   25       -3.982448   1.000000
   26       -3.752423   1.000000
   27       -3.439608   1.000000
   28       -3.147401   1.000000
   29       -2.939204   1.000000
   30       -2.837516   1.000000
   31       -2.726215   1.000000
   32       -2.543340   1.000000
   33       -2.387652   1.000000
   34       -2.260985   1.000000
   35       -2.206317   1.000000
   36       -2.110846   1.000000
   37       -1.984636   1.000000
   38       -1.882928   1.000000
   39       -1.654169   1.000000
   40       -1.590776   1.000000
   41       -1.464569   1.000000
   42       -1.318206   1.000000
   43       -1.238907   1.000000
   44       -1.112828   1.000000
   45       -1.015654   1.000000
   46       -0.761741   1.000000
   47       -0.695889   1.000000
   48       -0.592911   1.000000
   49       -0.453482   1.000000
   50       -0.303086   1.000000
   51       -0.212866   1.000000
   52       -0.076263   1.000000
   53        0.016021   1.000000
   54        0.146730   1.000000
   55        0.238957   1.000000
   56        0.329152   1.000000
   57        0.471600   1.000000
   58        0.593201   1.000000
   59        0.677087   1.000000
   60        0.755870   1.000000
   61        0.950142   1.000000
   62        1.071403   1.000000
   63        1.146524   1.000000
   64        1.279740   1.000000
   65        1.377966   1.000000
   66        1.479637   1.000000
   67        1.647936   1.000000
   68        1.850942   1.000000
   69        1.982931   1.000000
   70        2.111820   1.000000
   71        2.201388   1.000000
   72        2.282435   1.000000
   73        2.380184   1.000000
   74        2.541306   1.000000
   75        2.605412   1.000000
   76        2.632142   1.000000
   77        2.780384   1.000000
   78        2.798991   1.000000
   79        2.921814   1.000000
   80        3.020774   1.000000
   81        3.121568   1.000000
   82        3.185340   1.000000
   83        3.354109   1.000000
   84        3.394514   1.000000
   85        3.539387   1.000000
   86        3.608710   1.000000
   87        3.651223   1.000000
   88        3.763229   1.000000
   89        3.885737   1.000000
   90        3.987695   1.000000
   91        4.055360   1.000000
   92        4.194518   1.000000
   93        4.268759   1.000000
   94        4.350217   1.000000
   95        4.549202   1.000000
   96        4.811631   1.000000
   97        6.643068   1.000000
   98        6.976845  -0.079693
   99        7.075492   0.000000
  100        7.120224   0.000000
  101        7.373344   0.000000
  102        7.548896   0.000000
  103        7.622300   0.000000
  104        7.751617   0.000000
  105        8.236766   0.000000
  106        8.989786   0.000000
  107        9.233524   0.000000
  108        9.417768   0.000000
  109        9.610969   0.000000
  110        9.778744   0.000000
  111        9.912653   0.000000
  112       10.254707   0.000000
  113       10.310867   0.000000
  114       10.419834   0.000000
  115       10.702664   0.000000
  116       10.751506   0.000000
  117       10.859164   0.000000
  118       10.924170   0.000000
  119       11.014245   0.000000
  120       11.121940   0.000000
  121       11.340402   0.000000
  122       11.419187   0.000000
  123       11.752854   0.000000
  124       11.853144   0.000000
  125       11.925594   0.000000
  126       12.051463   0.000000
  127       12.140844   0.000000
  128       12.365346   0.000000
 
 -0.1666667E+00  0.2000000E+00  0.1818182E+00  0.6060606E-02
    1      -11.858556   1.000000
    2      -11.112053   1.000000
    3      -10.903753   1.000000
    4      -10.792152   1.000000
    5      -10.521356   1.000000
    6      -10.065148   1.000000
    7       -9.091840   1.000000
    8       -8.799859   1.000000
    9       -8.778044   1.000000
   10       -8.439200   1.000000
   11       -8.292315   1.000000
   12       -8.139743   1.000000
   13       -8.048202   1.000000
   14       -7.040196   1.000000
   15       -6.783155   1.000000
   16       -6.029737   1.000000
   17       -5.822882   1.000000
   18       -5.460869   1.000000
   19       -5.303547   1.000000
   20       -5.086791   1.000000
   21       -4.996651   1.000000
   22       -4.834953   1.000000
   23       -4.615975   1.000000
   24       -4.450523   1.000000
   25       -3.966138   1.000000
   26       -3.686365   1.000000
   27       -3.436872   1.000000
   28       -3.098001   1.000000
   29       -3.055713   1.000000
   30       -2.822976   1.000000
   31       -2.682853   1.000000
   32       -2.576752   1.000000
   33       -2.446612   1.000000
   34       -2.379820   1.000000
   35       -2.177494   1.000000
   36       -2.098731   1.000000
   37       -1.996615   1.000000
   38       -1.930363   1.000000
   39       -1.740227   1.000000
   40       -1.713957   1.000000
   41       -1.594809   1.000000
   42       -1.478367   1.000000
   43       -1.238248   1.000000
   44       -1.051776   1.000000
   45       -0.978182   1.000000
   46       -0.824211   1.000000
   47       -0.625111   1.000000
   48       -0.472812   1.000000
   49       -0.442868   1.000000
   50       -0.232216   1.000000
   51       -0.174325   1.000000
   52       -0.048144   1.000000
   53        0.015616   1.000000
   54        0.257789   1.000000
   55        0.383951   1.000000
   56        0.515568   1.000000
   57        0.555759   1.000000
   58        0.658560   1.000000
   59        0.731963   1.000000
   60        0.794659   1.000000
   61        0.976325   1.000000
   62        1.156887   1.000000
   63        1.232280   1.000000
   64        1.265053   1.000000
   65        1.408997   1.000000
   66        1.478352   1.000000
   67        1.538713   1.000000
   68        1.711181   1.000000
   69        1.931163   1.000000
   70        2.026419   1.000000
   71        2.063886   1.000000
   72        2.233491   1.000000
   73        2.297380   1.000000
   74        2.390479   1.000000
   75        2.445780   1.000000
   76        2.590058   1.000000
   77        2.700147   1.000000
   78        2.794950   1.000000
   79        2.835588   1.000000
   80        3.018705   1.000000
   81        3.099576   1.000000
   82        3.223285   1.000000
   83        3.374439   1.000000
   84        3.440855   1.000000
   85        3.534492   1.000000
   86        3.589406   1.000000
   87        3.638194   1.000000
   88        3.829265   1.000000
   89        3.912866   1.000000
   90        4.050906   1.000000
   91        4.164607   1.000000
   92        4.253897   1.000000
   93        4.343333   1.000000
   94        4.429447   1.000000
   95        4.562479   1.000000
   96        4.819388   1.000000
   97        6.570551   1.000000
   98        7.063265  -0.032430
   99        7.152997   0.000000
  100        7.200033   0.000000
  101        7.360552   0.000000
  102        7.442536   0.000000
  103        7.616816   0.000000
  104        7.719152   0.000000
  105        8.228452   0.000000
  106        8.901902   0.000000
  107        9.147824   0.000000
  108        9.355557   0.000000
  109        9.462881   0.000000
  110        9.620493   0.000000
  111        9.813857   0.000000
  112       10.219669   0.000000
  113       10.408235   0.000000
  114       10.509183   0.000000
  115       10.628052   0.000000
  116       10.792237   0.000000
  117       10.880559   0.000000
  118       11.056731   0.000000
  119       11.119867   0.000000
  120       11.271964   0.000000
  121       11.369835   0.000000
  122       11.652495   0.000000
  123       11.741632   0.000000
  124       11.837384   0.000000
  125       11.995506   0.000000
  126       12.110289   0.000000
  127       12.184147   0.000000
  128       12.395162   0.000000
 
  0.0000000E+00  0.4000000E+00  0.1818182E+00  0.6060606E-02
    1      -11.850874   1.000000
    2      -11.197134   1.000000
    3      -10.874007   1.000000
    4      -10.714167   1.000000
    5      -10.503303   1.000000
    6      -10.111834   1.000000
    7       -8.980015   1.000000
    8       -8.895634   1.000000
    9       -8.774690   1.000000
   10       -8.533780   1.000000
   11       -8.282126   1.000000
   12       -8.155252   1.000000
   13       -7.983131   1.000000
   14       -7.051317   1.000000
   15       -6.789856   1.000000
   16       -5.983131   1.000000
   17       -5.845435   1.000000
   18       -5.368331   1.000000
   19       -5.267022   1.000000
   20       -5.189275   1.000000
   21       -5.000117   1.000000
   22       -4.868188   1.000000
   23       -4.586968   1.000000
   24       -4.494740   1.000000
   25       -3.951806   1.000000
   26       -3.700206   1.000000
   27       -3.335244   1.000000
   28       -3.182222   1.000000
   29       -3.013643   1.000000
   30       -2.781664   1.000000
   31       -2.647688   1.000000
   32       -2.574788   1.000000
   33       -2.413180   1.000000
   34       -2.311487   1.000000
   35       -2.191169   1.000000
   36       -2.141747   1.000000
   37       -2.010651   1.000000
   38       -1.872882   1.000000
   39       -1.779588   1.000000
   40       -1.712194   1.000000
   41       -1.625644   1.000000
   42       -1.399512   1.000000
   43       -1.344346   1.000000
   44       -1.039210   1.000000
   45       -0.960805   1.000000
   46       -0.830116   1.000000
   47       -0.716551   1.000000
   48       -0.648259   1.000000
   49       -0.509885   1.000000
   50       -0.399340   1.000000
   51       -0.202473   1.000000
   52        0.022629   1.000000
   53        0.058590   1.000000
   54        0.272882   1.000000
   55        0.356621   1.000000
   56        0.478091   1.000000
   57        0.513905   1.000000
   58        0.694638   1.000000
   59        0.841062   1.000000
   60        0.891783   1.000000
   61        0.991957   1.000000
   62        1.100356   1.000000
   63        1.207591   1.000000
   64        1.352603   1.000000
   65        1.462307   1.000000
   66        1.516093   1.000000
   67        1.637995   1.000000
   68        1.780193   1.000000
   69        1.872574   1.000000
   70        1.962487   1.000000
   71        2.065981   1.000000
   72        2.195349   1.000000
   73        2.272152   1.000000
   74        2.415258   1.000000
   75        2.452967   1.000000
   76        2.616973   1.000000
   77        2.651505   1.000000
   78        2.773900   1.000000
   79        2.895695   1.000000
   80        3.060399   1.000000
   81        3.148426   1.000000
   82        3.166408   1.000000
   83        3.382317   1.000000
   84        3.409943   1.000000
   85        3.559317   1.000000
   86        3.688872   1.000000
   87        3.748523   1.000000
   88        3.805872   1.000000
   89        3.956175   1.000000
   90        3.977478   1.000000
   91        4.106630   1.000000
   92        4.220097   1.000000
   93        4.380349   1.000000
   94        4.444769   1.000000
   95        4.607205   1.000000
   96        4.641126   1.000000
   97        6.583528   1.000000
   98        7.049611  -0.027327
   99        7.137480   0.000000
  100        7.225724   0.000000
  101        7.387645   0.000000
  102        7.468436   0.000000
  103        7.589423   0.000000
  104        7.817465   0.000000
  105        8.443548   0.000000
  106        8.920205   0.000000
  107        9.088123   0.000000
  108        9.215157   0.000000
  109        9.274562   0.000000
  110        9.440625   0.000000
  111        9.946508   0.000000
  112       10.231574   0.000000
  113       10.312059   0.000000
  114       10.459705   0.000000
  115       10.710386   0.000000
  116       10.817148   0.000000
  117       10.926751   0.000000
  118       11.078047   0.000000
  119       11.151530   0.000000
  120       11.218716   0.000000
  121       11.334120   0.000000
  122       11.459396   0.000000
  123       11.626786   0.000000
  124       11.761328   0.000000
  125       11.917284   0.000000
  126       12.018402   0.000000
  127       12.191752   0.000000
  128       12.241039   0.000000
 
  0.1666667E+00  0.4000000E+00  0.1818182E+00  0.6060606E-02
    1      -11.859592   1.000000
    2      -11.192306   1.000000
    3      -10.830741   1.000000
    4      -10.724654   1.000000
    5      -10.501035   1.000000
    6      -10.150319   1.000000
    7       -9.027731   1.000000
    8       -8.892650   1.000000
    9       -8.701978   1.000000
   10       -8.565447   1.000000
   11       -8.302701   1.000000
   12       -8.193087   1.000000
   13       -7.918214   1.000000
   14       -7.004282   1.000000
   15       -6.798020   1.000000
   16       -5.972490   1.000000
   17       -5.844447   1.000000
   18       -5.400315   1.000000
   19       -5.257616   1.000000
   20       -5.192137   1.000000
   21       -5.053525   1.000000
   22       -4.873806   1.000000
   23       -4.578876   1.000000
   24       -4.438866   1.000000
   25       -4.032807   1.000000
   26       -3.664833   1.000000
   27       -3.269396   1.000000
   28       -3.154145   1.000000
   29       -3.029944   1.000000
   30       -2.875419   1.000000
   31       -2.788756   1.000000
   32       -2.616372   1.000000
   33       -2.405611   1.000000
   34       -2.364744   1.000000
   35       -2.291431   1.000000
   36       -2.163664   1.000000
   37       -1.990044   1.000000
   38       -1.864051   1.000000
   39       -1.723214   1.000000
   40       -1.623081   1.000000
   41       -1.396092   1.000000
   42       -1.305831   1.000000
   43       -1.135622   1.000000
   44       -1.069778   1.000000
   45       -0.904089   1.000000
   46       -0.733036   1.000000
   47       -0.674980   1.000000
   48       -0.563549   1.000000
   49       -0.438160   1.000000
   50       -0.344093   1.000000
   51       -0.212574   1.000000
   52       -0.122910   1.000000
   53       -0.033089   1.000000
   54        0.113243   1.000000
   55        0.258284   1.000000
   56        0.376289   1.000000
   57        0.469969   1.000000
   58        0.676932   1.000000
   59        0.752536   1.000000
   60        0.801294   1.000000
   61        0.945120   1.000000
   62        1.024366   1.000000
   63        1.187188   1.000000
   64        1.295829   1.000000
   65        1.425347   1.000000
   66        1.457564   1.000000
   67        1.611465   1.000000
   68        1.730016   1.000000
   69        1.864347   1.000000
   70        1.986317   1.000000
   71        2.122189   1.000000
   72        2.170375   1.000000
   73        2.238600   1.000000
   74        2.382380   1.000000
   75        2.496874   1.000000
   76        2.623639   1.000000
   77        2.686071   1.000000
   78        2.873280   1.000000
   79        2.951873   1.000000
   80        3.078578   1.000000
   81        3.149566   1.000000
   82        3.287717   1.000000
   83        3.435652   1.000000
   84        3.515432   1.000000
   85        3.578088   1.000000
   86        3.683520   1.000000
   87        3.769748   1.000000
   88        3.845233   1.000000
   89        3.987409   1.000000
   90        4.067548   1.000000
   91        4.170264   1.000000
   92        4.241958   1.000000
   93        4.329324   1.000000
   94        4.466691   1.000000
   95        4.582820   1.000000
   96        4.635900   1.000000
   97        6.549709   1.000000
   98        6.922985   0.159425
   99        7.101251   0.000000
  100        7.180937   0.000000
  101        7.423784   0.000000
  102        7.496129   0.000000
  103        7.663989   0.000000
  104        7.810836   0.000000
  105        8.529708   0.000000
  106        8.907029   0.000000
  107        9.036903   0.000000
  108        9.210424   0.000000
  109        9.245161   0.000000
  110        9.431797   0.000000
  111        9.906120   0.000000
  112       10.194023   0.000000
  113       10.322947   0.000000
  114       10.596510   0.000000
  115       10.756719   0.000000
  116       10.815053   0.000000
  117       10.943349   0.000000
  118       11.002684   0.000000
  119       11.066637   0.000000
  120       11.143099   0.000000
  121       11.252577   0.000000
  122       11.344348   0.000000
  123       11.472350   0.000000
  124       11.591508   0.000000
  125       11.860501   0.000000
  126       11.995328   0.000000
  127       12.241222   0.000000
  128       12.262385   0.000000
 
  0.3333333E+00  0.4000000E+00  0.1818182E+00  0.6060606E-02
    1      -11.858874   1.000000
    2      -11.179720   1.000000
    3      -10.832895   1.000000
    4      -10.742903   1.000000
    5      -10.505260   1.000000
    6      -10.151155   1.000000
    7       -9.044324   1.000000
    8       -8.875298   1.000000
    9       -8.624682   1.000000
   10       -8.560352   1.000000
   11       -8.386150   1.000000
   12       -8.212238   1.000000
   13       -7.882059   1.000000
   14       -6.961091   1.000000
   15       -6.798275   1.000000
   16       -5.996560   1.000000
   17       -5.807038   1.000000
   18       -5.404523   1.000000
   19       -5.351460   1.000000
   20       -5.158455   1.000000
   21       -5.058274   1.000000
   22       -4.914323   1.000000
   23       -4.564629   1.000000
   24       -4.441661   1.000000
   25       -4.107273   1.000000
   26       -3.679895   1.000000
   27       -3.252564   1.000000
   28       -3.123885   1.000000
   29       -3.074587   1.000000
   30       -2.976296   1.000000
   31       -2.911246   1.000000
   32       -2.650353   1.000000
   33       -2.454808   1.000000
   34       -2.268215   1.000000
   35       -2.203262   1.000000
   36       -1.958029   1.000000
   37       -1.936270   1.000000
   38       -1.776433   1.000000
   39       -1.681703   1.000000
   40       -1.611347   1.000000
   41       -1.385023   1.000000
   42       -1.069915   1.000000
   43       -0.969909   1.000000
   44       -0.849907   1.000000
   45       -0.756901   1.000000
   46       -0.709985   1.000000
   47       -0.673651   1.000000
   48       -0.602592   1.000000
   49       -0.507085   1.000000
   50       -0.369665   1.000000
   51       -0.272995   1.000000
   52       -0.201177   1.000000
   53       -0.137048   1.000000
   54        0.004877   1.000000
   55        0.149563   1.000000
   56        0.254789   1.000000
   57        0.275777   1.000000
   58        0.399920   1.000000
   59        0.546505   1.000000
   60        0.727197   1.000000
   61        0.861928   1.000000
   62        1.024136   1.000000
   63        1.083877   1.000000
   64        1.231229   1.000000
   65        1.339960   1.000000
   66        1.524655   1.000000
   67        1.630448   1.000000
   68        1.774399   1.000000
   69        1.922765   1.000000
   70        1.960366   1.000000
   71        2.094310   1.000000
   72        2.231455   1.000000
   73        2.375186   1.000000
   74        2.552248   1.000000
   75        2.651115   1.000000
   76        2.762701   1.000000
   77        2.826145   1.000000
   78        2.981587   1.000000
   79        2.996501   1.000000
   80        3.056455   1.000000
   81        3.191353   1.000000
   82        3.396473   1.000000
   83        3.419636   1.000000
   84        3.486944   1.000000
   85        3.588129   1.000000
   86        3.729364   1.000000
   87        3.773482   1.000000
   88        3.828186   1.000000
   89        3.891797   1.000000
   90        3.984109   1.000000
   91        4.094363   1.000000
   92        4.209197   1.000000
   93        4.370012   1.000000
   94        4.442259   1.000000
   95        4.534673   1.000000
   96        4.628475   1.000000
   97        6.545011   1.000000
   98        6.824932   0.964569
   99        6.985383   0.000000
  100        7.282138   0.000000
  101        7.387956   0.000000
  102        7.534495   0.000000
  103        7.630553   0.000000
  104        7.847441   0.000000
  105        8.593902   0.000000
  106        9.011696   0.000000
  107        9.107295   0.000000
  108        9.300695   0.000000
  109        9.403530   0.000000
  110        9.525904   0.000000
  111        9.896465   0.000000
  112       10.148237   0.000000
  113       10.300957   0.000000
  114       10.626859   0.000000
  115       10.681836   0.000000
  116       10.734204   0.000000
  117       10.853883   0.000000
  118       10.927618   0.000000
  119       11.026651   0.000000
  120       11.076759   0.000000
  121       11.209206   0.000000
  122       11.279498   0.000000
  123       11.324879   0.000000
  124       11.493174   0.000000
  125       11.763536   0.000000
  126       11.969974   0.000000
  127       12.181310   0.000000
  128       12.227743   0.000000
 
  0.5000000E+00  0.4000000E+00  0.1818182E+00  0.6060606E-02
    1      -11.849322   1.000000
    2      -11.174836   1.000000
    3      -10.847020   1.000000
    4      -10.787318   1.000000
    5      -10.502589   1.000000
    6      -10.114563   1.000000
    7       -9.019979   1.000000
    8       -8.873607   1.000000
    9       -8.622086   1.000000
   10       -8.496431   1.000000
   11       -8.406349   1.000000
   12       -8.268381   1.000000
   13       -7.885152   1.000000
   14       -6.965490   1.000000
   15       -6.790075   1.000000
   16       -6.028131   1.000000
   17       -5.776559   1.000000
   18       -5.421659   1.000000
   19       -5.371679   1.000000
   20       -5.118139   1.000000
   21       -5.045665   1.000000
   22       -4.932639   1.000000
   23       -4.582717   1.000000
   24       -4.498475   1.000000
   25       -4.115880   1.000000
   26       -3.706067   1.000000
   27       -3.314435   1.000000
   28       -3.239821   1.000000
   29       -3.117077   1.000000
   30       -2.941786   1.000000
   31       -2.802210   1.000000
   32       -2.548671   1.000000
   33       -2.421507   1.000000
   34       -2.204299   1.000000
   35       -2.130382   1.000000
   36       -1.947786   1.000000
   37       -1.808759   1.000000
   38       -1.709902   1.000000
   39       -1.651696   1.000000
   40       -1.513693   1.000000
   41       -1.305645   1.000000
   42       -1.199312   1.000000
   43       -1.081596   1.000000
   44       -0.907479   1.000000
   45       -0.792329   1.000000
   46       -0.717741   1.000000
   47       -0.648039   1.000000
   48       -0.597827   1.000000
   49       -0.483463   1.000000
   50       -0.397070   1.000000
   51       -0.328236   1.000000
   52       -0.201310   1.000000
   53       -0.151184   1.000000
   54       -0.038609   1.000000
   55        0.036884   1.000000
   56        0.091283   1.000000
   57        0.134067   1.000000
   58        0.496981   1.000000
   59        0.578924   1.000000
   60        0.682526   1.000000
   61        0.862268   1.000000
   62        0.994468   1.000000
   63        1.112993   1.000000
   64        1.155144   1.000000
   65        1.323830   1.000000
   66        1.578557   1.000000
   67        1.682018   1.000000
   68        1.817939   1.000000
   69        1.917795   1.000000
   70        2.077171   1.000000
   71        2.139442   1.000000
   72        2.334307   1.000000
   73        2.498461   1.000000
   74        2.587395   1.000000
   75        2.689013   1.000000
   76        2.757553   1.000000
   77        2.844269   1.000000
   78        2.924711   1.000000
   79        3.047102   1.000000
   80        3.168468   1.000000
   81        3.289148   1.000000
   82        3.327632   1.000000
   83        3.419811   1.000000
   84        3.469484   1.000000
   85        3.617733   1.000000
   86        3.712562   1.000000
   87        3.754433   1.000000
   88        3.777097   1.000000
   89        3.822366   1.000000
   90        3.915497   1.000000
   91        3.978093   1.000000
   92        4.132698   1.000000
   93        4.295862   1.000000
   94        4.383458   1.000000
   95        4.523050   1.000000
   96        4.594655   1.000000
   97        6.621062   1.000000
   98        6.802510   1.059331
   99        6.913874   0.000000
  100        7.280143   0.000000
  101        7.391784   0.000000
  102        7.547908   0.000000
  103        7.691504   0.000000
  104        7.789259   0.000000
  105        8.585981   0.000000
  106        9.130402   0.000000
  107        9.185182   0.000000
  108        9.399509   0.000000
  109        9.654061   0.000000
  110        9.734184   0.000000
  111        9.905645   0.000000
  112       10.116010   0.000000
  113       10.312801   0.000000
  114       10.421930   0.000000
  115       10.588579   0.000000
  116       10.696037   0.000000
  117       10.744432   0.000000
  118       10.836567   0.000000
  119       10.992960   0.000000
  120       11.085708   0.000000
  121       11.158811   0.000000
  122       11.345052   0.000000
  123       11.393551   0.000000
  124       11.572622   0.000000
  125       11.709289   0.000000
  126       11.976922   0.000000
  127       12.138452   0.000000
  128       12.243283   0.000000
 
 -0.3333333E+00  0.4000000E+00  0.1818182E+00  0.6060606E-02
    1      -11.840197   1.000000
    2      -11.179348   1.000000
    3      -10.905561   1.000000
    4      -10.756703   1.000000
    5      -10.506635   1.000000
    6      -10.080268   1.000000
    7       -8.966579   1.000000
    8       -8.893791   1.000000
    9       -8.701249   1.000000
   10       -8.458600   1.000000
   11       -8.350021   1.000000
   12       -8.271500   1.000000
   13       -7.932817   1.000000
   14       -7.011254   1.000000
   15       -6.786317   1.000000
   16       -6.040356   1.000000
   17       -5.804830   1.000000
   18       -5.386862   1.000000
   19       -5.253394   1.000000
   20       -5.117968   1.000000
   21       -5.080122   1.000000
   22       -4.929278   1.000000
   23       -4.620447   1.000000
   24       -4.548497   1.000000
   25       -4.041845   1.000000
   26       -3.716989   1.000000
   27       -3.409617   1.000000
   28       -3.267391   1.000000
   29       -3.053808   1.000000
   30       -2.828709   1.000000
   31       -2.618312   1.000000
   32       -2.531396   1.000000
   33       -2.405537   1.000000
   34       -2.185294   1.000000
   35       -2.093200   1.000000
   36       -1.970187   1.000000
   37       -1.897574   1.000000
   38       -1.812746   1.000000
   39       -1.658676   1.000000
   40       -1.475311   1.000000
   41       -1.429209   1.000000
   42       -1.358995   1.000000
   43       -1.155773   1.000000
   44       -1.023478   1.000000
   45       -0.978874   1.000000
   46       -0.850027   1.000000
   47       -0.702075   1.000000
   48       -0.632903   1.000000
   49       -0.520433   1.000000
   50       -0.389972   1.000000
   51       -0.223138   1.000000
   52       -0.168058   1.000000
   53       -0.080884   1.000000
   54        0.006054   1.000000
   55        0.058802   1.000000
   56        0.249272   1.000000
   57        0.438748   1.000000
   58        0.499233   1.000000
   59        0.629471   1.000000
   60        0.760168   1.000000
   61        0.839519   1.000000
   62        1.081262   1.000000
   63        1.160457   1.000000
   64        1.210637   1.000000
   65        1.441623   1.000000
   66        1.535872   1.000000
   67        1.712920   1.000000
   68        1.863683   1.000000
   69        1.978278   1.000000
   70        2.092774   1.000000
   71        2.216583   1.000000
   72        2.364139   1.000000
   73        2.418093   1.000000
   74        2.591054   1.000000
   75        2.619359   1.000000
   76        2.709176   1.000000
   77        2.810534   1.000000
   78        2.861062   1.000000
   79        2.959572   1.000000
   80        3.051651   1.000000
   81        3.246361   1.000000
   82        3.323185   1.000000
   83        3.387739   1.000000
   84        3.466364   1.000000
   85        3.517673   1.000000
   86        3.648553   1.000000
   87        3.711702   1.000000
   88        3.799278   1.000000
   89        3.857210   1.000000
   90        3.933393   1.000000
   91        4.053549   1.000000
   92        4.111578   1.000000
   93        4.151257   1.000000
   94        4.354679   1.000000
   95        4.533758   1.000000
   96        4.561872   1.000000
   97        6.647361   1.000000
   98        6.848925   0.442335
   99        7.070050   0.000000
  100        7.233649   0.000000
  101        7.414424   0.000000
  102        7.483131   0.000000
  103        7.650948   0.000000
  104        7.802369   0.000000
  105        8.524705   0.000000
  106        9.132607   0.000000
  107        9.219245   0.000000
  108        9.398066   0.000000
  109        9.680541   0.000000
  110        9.841011   0.000000
  111        9.913475   0.000000
  112       10.135834   0.000000
  113       10.244892   0.000000
  114       10.352931   0.000000
  115       10.622971   0.000000
  116       10.704400   0.000000
  117       10.815087   0.000000
  118       10.847199   0.000000
  119       10.936249   0.000000
  120       11.112885   0.000000
  121       11.265169   0.000000
  122       11.420589   0.000000
  123       11.473747   0.000000
  124       11.646583   0.000000
  125       11.787274   0.000000
  126       12.038118   0.000000
  127       12.148660   0.000000
  128       12.344994   0.000000
 
 -0.1666667E+00  0.4000000E+00  0.1818182E+00  0.6060606E-02
    1      -11.841039   1.000000
    2      -11.188921   1.000000
    3      -10.919532   1.000000
    4      -10.717700   1.000000
    5      -10.510737   1.000000
    6      -10.078596   1.000000
    7       -8.940189   1.000000
    8       -8.894246   1.000000
    9       -8.786390   1.000000
   10       -8.482158   1.000000
   11       -8.332778   1.000000
   12       -8.150862   1.000000
   13       -8.003842   1.000000
   14       -7.054467   1.000000
   15       -6.785641   1.000000
   16       -6.018417   1.000000
   17       -5.831688   1.000000
   18       -5.362970   1.000000
   19       -5.208128   1.000000
   20       -5.144637   1.000000
   21       -5.069328   1.000000
   22       -4.902667   1.000000
   23       -4.603797   1.000000
   24       -4.552649   1.000000
   25       -3.957993   1.000000
   26       -3.724390   1.000000
   27       -3.419344   1.000000
   28       -3.127992   1.000000
   29       -3.043255   1.000000
   30       -2.799296   1.000000
   31       -2.655455   1.000000
   32       -2.537214   1.000000
   33       -2.318477   1.000000
   34       -2.208492   1.000000
   35       -2.142661   1.000000
   36       -2.060969   1.000000
   37       -1.928516   1.000000
   38       -1.867518   1.000000
   39       -1.734695   1.000000
   40       -1.645900   1.000000
   41       -1.593403   1.000000
   42       -1.522283   1.000000
   43       -1.227828   1.000000
   44       -1.173432   1.000000
   45       -1.017537   1.000000
   46       -0.887923   1.000000
   47       -0.761701   1.000000
   48       -0.622888   1.000000
   49       -0.455788   1.000000
   50       -0.391913   1.000000
   51       -0.117091   1.000000
   52       -0.061237   1.000000
   53        0.033452   1.000000
   54        0.152413   1.000000
   55        0.323720   1.000000
   56        0.409677   1.000000
   57        0.467816   1.000000
   58        0.501113   1.000000
   59        0.737348   1.000000
   60        0.824532   1.000000
   61        0.933535   1.000000
   62        1.118738   1.000000
   63        1.269058   1.000000
   64        1.366064   1.000000
   65        1.456237   1.000000
   66        1.573367   1.000000
   67        1.693484   1.000000
   68        1.838495   1.000000
   69        1.944927   1.000000
   70        2.063055   1.000000
   71        2.172712   1.000000
   72        2.238721   1.000000
   73        2.336051   1.000000
   74        2.458458   1.000000
   75        2.506322   1.000000
   76        2.655058   1.000000
   77        2.738488   1.000000
   78        2.829176   1.000000
   79        2.886373   1.000000
   80        3.082246   1.000000
   81        3.145928   1.000000
   82        3.242537   1.000000
   83        3.316214   1.000000
   84        3.436473   1.000000
   85        3.522689   1.000000
   86        3.662346   1.000000
   87        3.698392   1.000000
   88        3.740873   1.000000
   89        3.812905   1.000000
   90        3.970622   1.000000
   91        4.065343   1.000000
   92        4.118396   1.000000
   93        4.337051   1.000000
   94        4.411173   1.000000
   95        4.573475   1.000000
   96        4.597448   1.000000
   97        6.608465   1.000000
   98        7.000474  -0.007306
   99        7.235212   0.000000
  100        7.269882   0.000000
  101        7.345621   0.000000
  102        7.432754   0.000000
  103        7.520269   0.000000
  104        7.846044   0.000000
  105        8.449274   0.000000
  106        9.031319   0.000000
  107        9.188954   0.000000
  108        9.298004   0.000000
  109        9.447154   0.000000
  110        9.621378   0.000000
  111        9.989620   0.000000
  112       10.162105   0.000000
  113       10.278799   0.000000
  114       10.370456   0.000000
  115       10.645410   0.000000
  116       10.780140   0.000000
  117       10.903939   0.000000
  118       11.018619   0.000000
  119       11.089618   0.000000
  120       11.199501   0.000000
  121       11.341835   0.000000
  122       11.463437   0.000000
  123       11.554503   0.000000
  124       11.737504   0.000000
  125       11.846830   0.000000
  126       12.073663   0.000000
  127       12.174983   0.000000
  128       12.360307   0.000000
 
  0.0000000E+00 -0.4000000E+00  0.1818182E+00  0.6060606E-02
    1      -11.835216   1.000000
    2      -11.254227   1.000000
    3      -10.849887   1.000000
    4      -10.714549   1.000000
    5      -10.465647   1.000000
    6      -10.134090   1.000000
    7       -9.008816   1.000000
    8       -8.813702   1.000000
    9       -8.737327   1.000000
   10       -8.600619   1.000000
   11       -8.307657   1.000000
   12       -8.135440   1.000000
   13       -7.998201   1.000000
   14       -7.075752   1.000000
   15       -6.792998   1.000000
   16       -5.925188   1.000000
   17       -5.864077   1.000000
   18       -5.448962   1.000000
   19       -5.215870   1.000000
   20       -5.093653   1.000000
   21       -5.014976   1.000000
   22       -4.907983   1.000000
   23       -4.592741   1.000000
   24       -4.521288   1.000000
   25       -3.955213   1.000000
   26       -3.725049   1.000000
   27       -3.309921   1.000000
   28       -3.184108   1.000000
   29       -3.069870   1.000000
   30       -2.823715   1.000000
   31       -2.691314   1.000000
   32       -2.611098   1.000000
   33       -2.395481   1.000000
   34       -2.225192   1.000000
   35       -2.158117   1.000000
   36       -2.074741   1.000000
   37       -2.018953   1.000000
   38       -1.928854   1.000000
   39       -1.783205   1.000000
   40       -1.656437   1.000000
   41       -1.557546   1.000000
   42       -1.399904   1.000000
   43       -1.252646   1.000000
   44       -1.066670   1.000000
   45       -0.916429   1.000000
   46       -0.825994   1.000000
   47       -0.655294   1.000000
   48       -0.496664   1.000000
   49       -0.470751   1.000000
   50       -0.379154   1.000000
   51       -0.222067   1.000000
   52       -0.070145   1.000000
   53       -0.004577   1.000000
   54        0.179970   1.000000
   55        0.262906   1.000000
   56        0.390329   1.000000
   57        0.517351   1.000000
   58        0.575434   1.000000
   59        0.716831   1.000000
   60        0.814185   1.000000
   61        0.915474   1.000000
   62        1.080499   1.000000
   63        1.186347   1.000000
   64        1.370805   1.000000
   65        1.478592   1.000000
   66        1.547342   1.000000
   67        1.695609   1.000000
   68        1.826831   1.000000
   69        1.905626   1.000000
   70        1.958853   1.000000
   71        2.051830   1.000000
   72        2.254530   1.000000
   73        2.343691   1.000000
   74        2.465397   1.000000
   75        2.522657   1.000000
   76        2.686130   1.000000
   77        2.764392   1.000000
   78        2.841771   1.000000
   79        2.969415   1.000000
   80        3.013587   1.000000
   81        3.052822   1.000000
   82        3.303701   1.000000
   83        3.357237   1.000000
   84        3.381401   1.000000
   85        3.506766   1.000000
   86        3.565833   1.000000
   87        3.644155   1.000000
   88        3.771422   1.000000
   89        3.813569   1.000000
   90        3.905980   1.000000
   91        4.161139   1.000000
   92        4.276214   1.000000
   93        4.384912   1.000000
   94        4.540411   1.000000
   95        4.599152   1.000000
   96        4.669559   1.000000
   97        6.750810   1.000000
   98        6.933662  -0.001866
   99        7.121887   0.000000
  100        7.221611   0.000000
  101        7.291402   0.000000
  102        7.391634   0.000000
  103        7.572365   0.000000
  104        7.915254   0.000000
  105        8.650860   0.000000
  106        8.864802   0.000000
  107        9.068444   0.000000
  108        9.162680   0.000000
  109        9.410773   0.000000
  110        9.445613   0.000000
  111       10.069113   0.000000
  112       10.247211   0.000000
  113       10.429040   0.000000
  114       10.550739   0.000000
  115       10.763591   0.000000
  116       10.832172   0.000000
  117       10.883447   0.000000
  118       11.081968   0.000000
  119       11.130010   0.000000
  120       11.171177   0.000000
  121       11.308380   0.000000
  122       11.443524   0.000000
  123       11.539526   0.000000
  124       11.741546   0.000000
  125       11.824480   0.000000
  126       12.063786   0.000000
  127       12.140728   0.000000
  128       12.295638   0.000000
 
  0.1666667E+00 -0.4000000E+00  0.1818182E+00  0.6060606E-02
    1      -11.839190   1.000000
    2      -11.261083   1.000000
    3      -10.815462   1.000000
    4      -10.721168   1.000000
    5      -10.465018   1.000000
    6      -10.146473   1.000000
    7       -9.003231   1.000000
    8       -8.870830   1.000000
    9       -8.678380   1.000000
   10       -8.590470   1.000000
   11       -8.380056   1.000000
   12       -8.171336   1.000000
   13       -7.932837   1.000000
   14       -7.039514   1.000000
   15       -6.790193   1.000000
   16       -5.914759   1.000000
   17       -5.853961   1.000000
   18       -5.430731   1.000000
   19       -5.240124   1.000000
   20       -5.115641   1.000000
   21       -5.019917   1.000000
   22       -4.966626   1.000000
   23       -4.584330   1.000000
   24       -4.517705   1.000000
   25       -3.930756   1.000000
   26       -3.692584   1.000000
   27       -3.277439   1.000000
   28       -3.104549   1.000000
   29       -3.031318   1.000000
   30       -2.848262   1.000000
   31       -2.769814   1.000000
   32       -2.591833   1.000000
   33       -2.484115   1.000000
   34       -2.283123   1.000000
   35       -2.246688   1.000000
   36       -2.147789   1.000000
   37       -1.963931   1.000000
   38       -1.901755   1.000000
   39       -1.756590   1.000000
   40       -1.649527   1.000000
   41       -1.544540   1.000000
   42       -1.424222   1.000000
   43       -1.123075   1.000000
   44       -1.031811   1.000000
   45       -0.899673   1.000000
   46       -0.798315   1.000000
   47       -0.607190   1.000000
   48       -0.503112   1.000000
   49       -0.465306   1.000000
   50       -0.324233   1.000000
   51       -0.267356   1.000000
   52       -0.052149   1.000000
   53       -0.006271   1.000000
   54        0.077567   1.000000
   55        0.207847   1.000000
   56        0.331905   1.000000
   57        0.522111   1.000000
   58        0.588339   1.000000
   59        0.707234   1.000000
   60        0.779186   1.000000
   61        1.001525   1.000000
   62        1.124115   1.000000
   63        1.247889   1.000000
   64        1.360416   1.000000
   65        1.422307   1.000000
   66        1.533861   1.000000
   67        1.611859   1.000000
   68        1.788625   1.000000
   69        1.854590   1.000000
   70        1.946327   1.000000
   71        2.084931   1.000000
   72        2.234606   1.000000
   73        2.285498   1.000000
   74        2.408755   1.000000
   75        2.537162   1.000000
   76        2.606612   1.000000
   77        2.716744   1.000000
   78        2.884208   1.000000
   79        3.013064   1.000000
   80        3.086432   1.000000
   81        3.153735   1.000000
   82        3.224216   1.000000
   83        3.397522   1.000000
   84        3.415041   1.000000
   85        3.544837   1.000000
   86        3.632925   1.000000
   87        3.686643   1.000000
   88        3.779535   1.000000
   89        3.864610   1.000000
   90        3.980480   1.000000
   91        4.134493   1.000000
   92        4.271770   1.000000
   93        4.366245   1.000000
   94        4.538624   1.000000
   95        4.590187   1.000000
   96        4.665703   1.000000
   97        6.738510   1.000000
   98        6.917641  -0.007851
   99        7.110745   0.000000
  100        7.201575   0.000000
  101        7.302008   0.000000
  102        7.445992   0.000000
  103        7.596597   0.000000
  104        7.854530   0.000000
  105        8.634776   0.000000
  106        8.905120   0.000000
  107        9.057746   0.000000
  108        9.151384   0.000000
  109        9.384400   0.000000
  110        9.486427   0.000000
  111       10.006777   0.000000
  112       10.214157   0.000000
  113       10.469196   0.000000
  114       10.579453   0.000000
  115       10.731438   0.000000
  116       10.775615   0.000000
  117       10.823080   0.000000
  118       11.080468   0.000000
  119       11.157004   0.000000
  120       11.200413   0.000000
  121       11.246862   0.000000
  122       11.409850   0.000000
  123       11.502905   0.000000
  124       11.558241   0.000000
  125       11.742084   0.000000
  126       11.937584   0.000000
  127       12.166833   0.000000
  128       12.434823   0.000000
 
  0.3333333E+00 -0.4000000E+00  0.1818182E+00  0.6060606E-02
    1      -11.837341   1.000000
    2      -11.251603   1.000000
    3      -10.847067   1.000000
    4      -10.711738   1.000000
    5      -10.462736   1.000000
    6      -10.142936   1.000000
    7       -9.023924   1.000000
    8       -8.867890   1.000000
    9       -8.618448   1.000000
   10       -8.556940   1.000000
   11       -8.439923   1.000000
   12       -8.223283   1.000000
   13       -7.887718   1.000000
   14       -6.992486   1.000000
   15       -6.788212   1.000000
   16       -5.941992   1.000000
   17       -5.830788   1.000000
   18       -5.390761   1.000000
   19       -5.286855   1.000000
   20       -5.256969   1.000000
   21       -5.033780   1.000000
   22       -4.938821   1.000000
   23       -4.557769   1.000000
   24       -4.492674   1.000000
   25       -3.980400   1.000000
   26       -3.731049   1.000000
   27       -3.272390   1.000000
   28       -3.200475   1.000000
   29       -2.969702   1.000000
   30       -2.849469   1.000000
   31       -2.803960   1.000000
   32       -2.590916   1.000000
   33       -2.465948   1.000000
   34       -2.354194   1.000000
   35       -2.208296   1.000000
   36       -2.104278   1.000000
   37       -1.947537   1.000000
   38       -1.736634   1.000000
   39       -1.654837   1.000000
   40       -1.544216   1.000000
   41       -1.447455   1.000000
   42       -1.321314   1.000000
   43       -1.162395   1.000000
   44       -0.965185   1.000000
   45       -0.924024   1.000000
   46       -0.732918   1.000000
   47       -0.636387   1.000000
   48       -0.503106   1.000000
   49       -0.421545   1.000000
   50       -0.329545   1.000000
   51       -0.305499   1.000000
   52       -0.199587   1.000000
   53       -0.071988   1.000000
   54       -0.023132   1.000000
   55        0.139783   1.000000
   56        0.386457   1.000000
   57        0.517346   1.000000
   58        0.597193   1.000000
   59        0.621961   1.000000
   60        0.748425   1.000000
   61        0.906126   1.000000
   62        0.976390   1.000000
   63        1.116656   1.000000
   64        1.271511   1.000000
   65        1.337834   1.000000
   66        1.532966   1.000000
   67        1.630543   1.000000
   68        1.744317   1.000000
   69        1.812365   1.000000
   70        1.917655   1.000000
   71        2.172547   1.000000
   72        2.216018   1.000000
   73        2.332708   1.000000
   74        2.507889   1.000000
   75        2.644081   1.000000
   76        2.723177   1.000000
   77        2.844115   1.000000
   78        2.918652   1.000000
   79        3.014247   1.000000
   80        3.085605   1.000000
   81        3.173419   1.000000
   82        3.273681   1.000000
   83        3.398676   1.000000
   84        3.483471   1.000000
   85        3.542561   1.000000
   86        3.614935   1.000000
   87        3.759028   1.000000
   88        3.817008   1.000000
   89        3.901521   1.000000
   90        3.972456   1.000000
   91        4.045927   1.000000
   92        4.259463   1.000000
   93        4.348079   1.000000
   94        4.506055   1.000000
   95        4.546262   1.000000
   96        4.631646   1.000000
   97        6.723406   1.000000
   98        6.877171   0.277218
   99        7.027805   0.000000
  100        7.253889   0.000000
  101        7.361248   0.000000
  102        7.494105   0.000000
  103        7.622803   0.000000
  104        7.767013   0.000000
  105        8.711274   0.000000
  106        9.033769   0.000000
  107        9.145513   0.000000
  108        9.257686   0.000000
  109        9.439306   0.000000
  110        9.639224   0.000000
  111        9.962224   0.000000
  112       10.150367   0.000000
  113       10.367030   0.000000
  114       10.483417   0.000000
  115       10.686143   0.000000
  116       10.753038   0.000000
  117       10.837858   0.000000
  118       10.936379   0.000000
  119       11.064571   0.000000
  120       11.121223   0.000000
  121       11.183159   0.000000
  122       11.223395   0.000000
  123       11.424919   0.000000
  124       11.575799   0.000000
  125       11.655471   0.000000
  126       11.866622   0.000000
  127       12.219280   0.000000
  128       12.406017   0.000000
 
  0.5000000E+00 -0.4000000E+00  0.1818182E+00  0.6060606E-02
    1      -11.831281   1.000000
    2      -11.237628   1.000000
    3      -10.868102   1.000000
    4      -10.752457   1.000000
    5      -10.444671   1.000000
    6      -10.129559   1.000000
    7       -9.037581   1.000000
    8       -8.853311   1.000000
    9       -8.564000   1.000000
   10       -8.511514   1.000000
   11       -8.477349   1.000000
   12       -8.261708   1.000000
   13       -7.878239   1.000000
   14       -6.980488   1.000000
   15       -6.790269   1.000000
   16       -5.970526   1.000000
   17       -5.821374   1.000000
   18       -5.400770   1.000000
   19       -5.330996   1.000000
   20       -5.307399   1.000000
   21       -4.999165   1.000000
   22       -4.915016   1.000000
   23       -4.523395   1.000000
   24       -4.491083   1.000000
   25       -4.051099   1.000000
   26       -3.762228   1.000000
   27       -3.334408   1.000000
   28       -3.220289   1.000000
   29       -3.097264   1.000000
   30       -2.913412   1.000000
   31       -2.851070   1.000000
   32       -2.570892   1.000000
   33       -2.359690   1.000000
   34       -2.270878   1.000000
   35       -2.022132   1.000000
   36       -1.911004   1.000000
   37       -1.848313   1.000000
   38       -1.711136   1.000000
   39       -1.563480   1.000000
   40       -1.519784   1.000000
   41       -1.413610   1.000000
   42       -1.229343   1.000000
   43       -1.091076   1.000000
   44       -1.005234   1.000000
   45       -0.857792   1.000000
   46       -0.790172   1.000000
   47       -0.728886   1.000000
   48       -0.681991   1.000000
   49       -0.586494   1.000000
   50       -0.450714   1.000000
   51       -0.267915   1.000000
   52       -0.170590   1.000000
   53       -0.104812   1.000000
   54        0.071487   1.000000
   55        0.148871   1.000000
   56        0.220044   1.000000
   57        0.457708   1.000000
   58        0.564730   1.000000
   59        0.641270   1.000000
   60        0.764357   1.000000
   61        0.847954   1.000000
   62        0.934984   1.000000
   63        1.068352   1.000000
   64        1.249069   1.000000
   65        1.294830   1.000000
   66        1.503399   1.000000
   67        1.613751   1.000000
   68        1.742373   1.000000
   69        1.867231   1.000000
   70        1.959949   1.000000
   71        2.057223   1.000000
   72        2.280358   1.000000
   73        2.431556   1.000000
   74        2.571288   1.000000
   75        2.727269   1.000000
   76        2.756240   1.000000
   77        2.851665   1.000000
   78        2.913303   1.000000
   79        2.996965   1.000000
   80        3.132273   1.000000
   81        3.234226   1.000000
   82        3.347046   1.000000
   83        3.413398   1.000000
   84        3.452799   1.000000
   85        3.565790   1.000000
   86        3.610405   1.000000
   87        3.749201   1.000000
   88        3.769929   1.000000
   89        3.904812   1.000000
   90        3.986905   1.000000
   91        4.054713   1.000000
   92        4.207614   1.000000
   93        4.348280   1.000000
   94        4.431880   1.000000
   95        4.472125   1.000000
   96        4.619432   1.000000
   97        6.713136   1.000000
   98        6.860872   0.547389
   99        6.975754   0.000000
  100        7.282547   0.000000
  101        7.388864   0.000000
  102        7.485946   0.000000
  103        7.655249   0.000000
  104        7.745118   0.000000
  105        8.807683   0.000000
  106        9.117178   0.000000
  107        9.211118   0.000000
  108        9.374354   0.000000
  109        9.621745   0.000000
  110        9.768580   0.000000
  111       10.028662   0.000000
  112       10.130022   0.000000
  113       10.281914   0.000000
  114       10.328632   0.000000
  115       10.554331   0.000000
  116       10.648803   0.000000
  117       10.742513   0.000000
  118       10.884196   0.000000
  119       11.036713   0.000000
  120       11.058389   0.000000
  121       11.143643   0.000000
  122       11.251042   0.000000
  123       11.454366   0.000000
  124       11.604761   0.000000
  125       11.677043   0.000000
  126       11.866560   0.000000
  127       12.248320   0.000000
  128       12.362604   0.000000
 
 -0.3333333E+00 -0.4000000E+00  0.1818182E+00  0.6060606E-02
    1      -11.827028   1.000000
    2      -11.233466   1.000000
    3      -10.855704   1.000000
    4      -10.799317   1.000000
    5      -10.433339   1.000000
    6      -10.120145   1.000000
    7       -9.032262   1.000000
    8       -8.847286   1.000000
    9       -8.581558   1.000000
   10       -8.528951   1.000000
   11       -8.424024   1.000000
   12       -8.230609   1.000000
   13       -7.913046   1.000000
   14       -7.019990   1.000000
   15       -6.793201   1.000000
   16       -5.976035   1.000000
   17       -5.851388   1.000000
   18       -5.371534   1.000000
   19       -5.348015   1.000000
   20       -5.251907   1.000000
   21       -4.977685   1.000000
   22       -4.884724   1.000000
   23       -4.553387   1.000000
   24       -4.502326   1.000000
   25       -4.075443   1.000000
   26       -3.774007   1.000000
   27       -3.358913   1.000000
   28       -3.292590   1.000000
   29       -3.136603   1.000000
   30       -2.819350   1.000000
   31       -2.769499   1.000000
   32       -2.559030   1.000000
   33       -2.425452   1.000000
   34       -2.219663   1.000000
   35       -2.087281   1.000000
   36       -1.852539   1.000000
   37       -1.712675   1.000000
   38       -1.679249   1.000000
   39       -1.577466   1.000000
   40       -1.451327   1.000000
   41       -1.416872   1.000000
   42       -1.265951   1.000000
   43       -1.197110   1.000000
   44       -1.087555   1.000000
   45       -0.971696   1.000000
   46       -0.880923   1.000000
   47       -0.743618   1.000000
   48       -0.672650   1.000000
   49       -0.551845   1.000000
   50       -0.331843   1.000000
   51       -0.259489   1.000000
   52       -0.230155   1.000000
   53       -0.117340   1.000000
   54        0.122794   1.000000
   55        0.159740   1.000000
   56        0.244786   1.000000
   57        0.474702   1.000000
   58        0.514177   1.000000
   59        0.573091   1.000000
   60        0.737837   1.000000
   61        0.835240   1.000000
   62        0.956753   1.000000
   63        1.179554   1.000000
   64        1.236799   1.000000
   65        1.317872   1.000000
   66        1.584723   1.000000
   67        1.701720   1.000000
   68        1.820524   1.000000
   69        1.903780   1.000000
   70        2.018938   1.000000
   71        2.163779   1.000000
   72        2.225264   1.000000
   73        2.406020   1.000000
   74        2.528553   1.000000
   75        2.648204   1.000000
   76        2.693596   1.000000
   77        2.798851   1.000000
   78        2.915794   1.000000
   79        2.992851   1.000000
   80        3.075184   1.000000
   81        3.172575   1.000000
   82        3.289727   1.000000
   83        3.358128   1.000000
   84        3.460233   1.000000
   85        3.556268   1.000000
   86        3.628154   1.000000
   87        3.754095   1.000000
   88        3.817230   1.000000
   89        3.911315   1.000000
   90        4.069185   1.000000
   91        4.112641   1.000000
   92        4.154217   1.000000
   93        4.249175   1.000000
   94        4.419617   1.000000
   95        4.450291   1.000000
   96        4.611939   1.000000
   97        6.720054   1.000000
   98        6.861679   0.390370
   99        7.006769   0.000000
  100        7.236625   0.000000
  101        7.387440   0.000000
  102        7.439433   0.000000
  103        7.716995   0.000000
  104        7.774426   0.000000
  105        8.817750   0.000000
  106        9.090391   0.000000
  107        9.194198   0.000000
  108        9.353519   0.000000
  109        9.647172   0.000000
  110        9.814081   0.000000
  111       10.074249   0.000000
  112       10.138836   0.000000
  113       10.260075   0.000000
  114       10.373232   0.000000
  115       10.500437   0.000000
  116       10.690717   0.000000
  117       10.754037   0.000000
  118       10.924729   0.000000
  119       11.030715   0.000000
  120       11.113376   0.000000
  121       11.165994   0.000000
  122       11.259700   0.000000
  123       11.504115   0.000000
  124       11.584598   0.000000
  125       11.775198   0.000000
  126       11.964990   0.000000
  127       12.247386   0.000000
  128       12.437788   0.000000
 
 -0.1666667E+00 -0.4000000E+00  0.1818182E+00  0.6060606E-02
    1      -11.829123   1.000000
    2      -11.239974   1.000000
    3      -10.874684   1.000000
    4      -10.750671   1.000000
    5      -10.448032   1.000000
    6      -10.121462   1.000000
    7       -9.021196   1.000000
    8       -8.820233   1.000000
    9       -8.681877   1.000000
   10       -8.576799   1.000000
   11       -8.318746   1.000000
   12       -8.163411   1.000000
   13       -7.984601   1.000000
   14       -7.067679   1.000000
   15       -6.794261   1.000000
   16       -5.956595   1.000000
   17       -5.868120   1.000000
   18       -5.423141   1.000000
   19       -5.269643   1.000000
   20       -5.105394   1.000000
   21       -5.043857   1.000000
   22       -4.853973   1.000000
   23       -4.587359   1.000000
   24       -4.522686   1.000000
   25       -4.030293   1.000000
   26       -3.772157   1.000000
   27       -3.355414   1.000000
   28       -3.228535   1.000000
   29       -3.132855   1.000000
   30       -2.768065   1.000000
   31       -2.699788   1.000000
   32       -2.571472   1.000000
   33       -2.378181   1.000000
   34       -2.191614   1.000000
   35       -2.155015   1.000000
   36       -1.978254   1.000000
   37       -1.870606   1.000000
   38       -1.843571   1.000000
   39       -1.794895   1.000000
   40       -1.531766   1.000000
   41       -1.425336   1.000000
   42       -1.361018   1.000000
   43       -1.177218   1.000000
   44       -1.012898   1.000000
   45       -0.988828   1.000000
   46       -0.933347   1.000000
   47       -0.721253   1.000000
   48       -0.627302   1.000000
   49       -0.532648   1.000000
   50       -0.302007   1.000000
   51       -0.145064   1.000000
   52       -0.013128   1.000000
   53        0.035927   1.000000
   54        0.100808   1.000000
   55        0.204722   1.000000
   56        0.264445   1.000000
   57        0.372898   1.000000
   58        0.456281   1.000000
   59        0.645882   1.000000
   60        0.669018   1.000000
   61        0.892481   1.000000
   62        1.108692   1.000000
   63        1.196544   1.000000
   64        1.334978   1.000000
   65        1.444363   1.000000
   66        1.596727   1.000000
   67        1.693576   1.000000
   68        1.872552   1.000000
   69        1.925318   1.000000
   70        2.029296   1.000000
   71        2.125690   1.000000
   72        2.194626   1.000000
   73        2.395439   1.000000
   74        2.524829   1.000000
   75        2.578975   1.000000
   76        2.702167   1.000000
   77        2.767231   1.000000
   78        2.871401   1.000000
   79        2.952020   1.000000
   80        2.995395   1.000000
   81        3.140779   1.000000
   82        3.241644   1.000000
   83        3.347559   1.000000
   84        3.422143   1.000000
   85        3.538763   1.000000
   86        3.571188   1.000000
   87        3.680113   1.000000
   88        3.749356   1.000000
   89        3.900950   1.000000
   90        3.930650   1.000000
   91        4.139446   1.000000
   92        4.214236   1.000000
   93        4.310965   1.000000
   94        4.496583   1.000000
   95        4.559689   1.000000
   96        4.615105   1.000000
   97        6.743683   1.000000
   98        6.892643  -0.032051
   99        7.088403   0.000000
  100        7.201303   0.000000
  101        7.351999   0.000000
  102        7.392860   0.000000
  103        7.638774   0.000000
  104        7.885606   0.000000
  105        8.731727   0.000000
  106        8.976889   0.000000
  107        9.104012   0.000000
  108        9.302179   0.000000
  109        9.467438   0.000000
  110        9.618700   0.000000
  111       10.110760   0.000000
  112       10.180485   0.000000
  113       10.301223   0.000000
  114       10.473405   0.000000
  115       10.706996   0.000000
  116       10.783240   0.000000
  117       10.961523   0.000000
  118       11.012882   0.000000
  119       11.059698   0.000000
  120       11.112849   0.000000
  121       11.256249   0.000000
  122       11.292965   0.000000
  123       11.487580   0.000000
  124       11.676611   0.000000
  125       11.828613   0.000000
  126       12.052940   0.000000
  127       12.221399   0.000000
  128       12.386975   0.000000
 
  0.0000000E+00 -0.2000000E+00  0.1818182E+00  0.6060606E-02
    1      -11.849526   1.000000
    2      -11.211508   1.000000
    3      -10.826372   1.000000
    4      -10.751187   1.000000
    5      -10.469642   1.000000
    6      -10.155928   1.000000
    7       -9.120827   1.000000
    8       -8.772893   1.000000
    9       -8.661474   1.000000
   10       -8.534864   1.000000
   11       -8.375535   1.000000
   12       -8.070495   1.000000
   13       -8.039213   1.000000
   14       -7.062696   1.000000
   15       -6.799516   1.000000
   16       -5.938342   1.000000
   17       -5.839085   1.000000
   18       -5.548911   1.000000
   19       -5.274437   1.000000
   20       -5.043585   1.000000
   21       -4.986229   1.000000
   22       -4.814718   1.000000
   23       -4.535330   1.000000
   24       -4.463786   1.000000
   25       -4.058337   1.000000
   26       -3.720189   1.000000
   27       -3.332822   1.000000
   28       -3.201348   1.000000
   29       -3.103373   1.000000
   30       -2.979699   1.000000
   31       -2.775692   1.000000
   32       -2.608194   1.000000
   33       -2.450778   1.000000
   34       -2.353644   1.000000
   35       -2.220781   1.000000
   36       -2.171480   1.000000
   37       -2.023868   1.000000
   38       -1.924514   1.000000
   39       -1.623021   1.000000
   40       -1.549451   1.000000
   41       -1.397790   1.000000
   42       -1.302207   1.000000
   43       -1.102203   1.000000
   44       -0.933481   1.000000
   45       -0.870743   1.000000
   46       -0.803789   1.000000
   47       -0.570227   1.000000
   48       -0.531505   1.000000
   49       -0.310784   1.000000
   50       -0.192303   1.000000
   51       -0.149662   1.000000
   52       -0.113037   1.000000
   53       -0.036716   1.000000
   54        0.080916   1.000000
   55        0.233622   1.000000
   56        0.316547   1.000000
   57        0.442262   1.000000
   58        0.628694   1.000000
   59        0.680534   1.000000
   60        0.760452   1.000000
   61        0.825836   1.000000
   62        1.011001   1.000000
   63        1.138673   1.000000
   64        1.267999   1.000000
   65        1.377207   1.000000
   66        1.461663   1.000000
   67        1.542452   1.000000
   68        1.758790   1.000000
   69        1.882763   1.000000
   70        1.939364   1.000000
   71        2.092699   1.000000
   72        2.193734   1.000000
   73        2.378971   1.000000
   74        2.395468   1.000000
   75        2.591678   1.000000
   76        2.708695   1.000000
   77        2.807801   1.000000
   78        2.844022   1.000000
   79        2.972161   1.000000
   80        3.005571   1.000000
   81        3.056809   1.000000
   82        3.258691   1.000000
   83        3.366905   1.000000
   84        3.411991   1.000000
   85        3.467505   1.000000
   86        3.512238   1.000000
   87        3.672828   1.000000
   88        3.804883   1.000000
   89        3.829833   1.000000
   90        3.914229   1.000000
   91        4.285930   1.000000
   92        4.388881   1.000000
   93        4.458580   1.000000
   94        4.554581   1.000000
   95        4.668563   1.000000
   96        4.827199   1.000000
   97        6.760445   1.000000
   98        6.891081   0.219190
   99        7.055994   0.000000
  100        7.114554   0.000000
  101        7.273541   0.000000
  102        7.337823   0.000000
  103        7.603134   0.000000
  104        7.926303   0.000000
  105        8.478164   0.000000
  106        8.877998   0.000000
  107        9.030882   0.000000
  108        9.165058   0.000000
  109        9.410727   0.000000
  110        9.568817   0.000000
  111       10.089491   0.000000
  112       10.301620   0.000000
  113       10.449277   0.000000
  114       10.567205   0.000000
  115       10.736630   0.000000
  116       10.863213   0.000000
  117       10.971845   0.000000
  118       11.046439   0.000000
  119       11.168860   0.000000
  120       11.301170   0.000000
  121       11.348956   0.000000
  122       11.587539   0.000000
  123       11.689556   0.000000
  124       11.767905   0.000000
  125       11.888689   0.000000
  126       12.070595   0.000000
  127       12.184614   0.000000
  128       12.240105   0.000000
 
  0.1666667E+00 -0.2000000E+00  0.1818182E+00  0.6060606E-02
    1      -11.850680   1.000000
    2      -11.223257   1.000000
    3      -10.815408   1.000000
    4      -10.735189   1.000000
    5      -10.476713   1.000000
    6      -10.156756   1.000000
    7       -9.077753   1.000000
    8       -8.792228   1.000000
    9       -8.653642   1.000000
   10       -8.535707   1.000000
   11       -8.479732   1.000000
   12       -8.101728   1.000000
   13       -7.976881   1.000000
   14       -7.037133   1.000000
   15       -6.786662   1.000000
   16       -5.897270   1.000000
   17       -5.839392   1.000000
   18       -5.523165   1.000000
   19       -5.228141   1.000000
   20       -5.062841   1.000000
   21       -5.002212   1.000000
   22       -4.932391   1.000000
   23       -4.540492   1.000000
   24       -4.512246   1.000000
   25       -3.995376   1.000000
   26       -3.738212   1.000000
   27       -3.265769   1.000000
   28       -3.146307   1.000000
   29       -3.136822   1.000000
   30       -3.011929   1.000000
   31       -2.743125   1.000000
   32       -2.499856   1.000000
   33       -2.463526   1.000000
   34       -2.368623   1.000000
   35       -2.176135   1.000000
   36       -2.113769   1.000000
   37       -1.978915   1.000000
   38       -1.846383   1.000000
   39       -1.725823   1.000000
   40       -1.644155   1.000000
   41       -1.557499   1.000000
   42       -1.354133   1.000000
   43       -1.117113   1.000000
   44       -0.978790   1.000000
   45       -0.887214   1.000000
   46       -0.779253   1.000000
   47       -0.691894   1.000000
   48       -0.479529   1.000000
   49       -0.411543   1.000000
   50       -0.223647   1.000000
   51       -0.179857   1.000000
   52       -0.091195   1.000000
   53        0.004200   1.000000
   54        0.151461   1.000000
   55        0.279395   1.000000
   56        0.346514   1.000000
   57        0.496333   1.000000
   58        0.537071   1.000000
   59        0.741744   1.000000
   60        0.790106   1.000000
   61        0.861307   1.000000
   62        0.956429   1.000000
   63        1.104677   1.000000
   64        1.300417   1.000000
   65        1.371225   1.000000
   66        1.540270   1.000000
   67        1.622317   1.000000
   68        1.721169   1.000000
   69        1.868861   1.000000
   70        2.044076   1.000000
   71        2.121300   1.000000
   72        2.217607   1.000000
   73        2.368754   1.000000
   74        2.515011   1.000000
   75        2.594035   1.000000
   76        2.705203   1.000000
   77        2.733933   1.000000
   78        2.819628   1.000000
   79        2.948758   1.000000
   80        3.015667   1.000000
   81        3.098872   1.000000
   82        3.192165   1.000000
   83        3.287140   1.000000
   84        3.399219   1.000000
   85        3.461129   1.000000
   86        3.546193   1.000000
   87        3.686980   1.000000
   88        3.756588   1.000000
   89        3.839465   1.000000
   90        3.895921   1.000000
   91        4.225588   1.000000
   92        4.361192   1.000000
   93        4.477775   1.000000
   94        4.587287   1.000000
   95        4.688353   1.000000
   96        4.827968   1.000000
   97        6.727739   1.000000
   98        6.917347   0.158135
   99        7.099399   0.000000
  100        7.137754   0.000000
  101        7.256992   0.000000
  102        7.399344   0.000000
  103        7.563023   0.000000
  104        7.905503   0.000000
  105        8.428041   0.000000
  106        8.849244   0.000000
  107        9.085462   0.000000
  108        9.174308   0.000000
  109        9.457357   0.000000
  110        9.576773   0.000000
  111       10.045669   0.000000
  112       10.352029   0.000000
  113       10.488375   0.000000
  114       10.577158   0.000000
  115       10.620181   0.000000
  116       10.884604   0.000000
  117       10.933641   0.000000
  118       10.969190   0.000000
  119       11.109890   0.000000
  120       11.215643   0.000000
  121       11.344416   0.000000
  122       11.570317   0.000000
  123       11.667789   0.000000
  124       11.716352   0.000000
  125       11.815181   0.000000
  126       11.954883   0.000000
  127       12.186094   0.000000
  128       12.235365   0.000000
 
  0.3333333E+00 -0.2000000E+00  0.1818182E+00  0.6060606E-02
    1      -11.843601   1.000000
    2      -11.224672   1.000000
    3      -10.866164   1.000000
    4      -10.713923   1.000000
    5      -10.475460   1.000000
    6      -10.129598   1.000000
    7       -9.024427   1.000000
    8       -8.830720   1.000000
    9       -8.653816   1.000000
   10       -8.569675   1.000000
   11       -8.459418   1.000000
   12       -8.157799   1.000000
   13       -7.940234   1.000000
   14       -7.007634   1.000000
   15       -6.767950   1.000000
   16       -5.909153   1.000000
   17       -5.821119   1.000000
   18       -5.481271   1.000000
   19       -5.234203   1.000000
   20       -5.137872   1.000000
   21       -5.072392   1.000000
   22       -4.964342   1.000000
   23       -4.552669   1.000000
   24       -4.489491   1.000000
   25       -3.957278   1.000000
   26       -3.840456   1.000000
   27       -3.258248   1.000000
   28       -3.186544   1.000000
   29       -3.100780   1.000000
   30       -2.833801   1.000000
   31       -2.653689   1.000000
   32       -2.569348   1.000000
   33       -2.392656   1.000000
   34       -2.333823   1.000000
   35       -2.220947   1.000000
   36       -2.101866   1.000000
   37       -1.935361   1.000000
   38       -1.894387   1.000000
   39       -1.658007   1.000000
   40       -1.607412   1.000000
   41       -1.482162   1.000000
   42       -1.345664   1.000000
   43       -1.208237   1.000000
   44       -1.008196   1.000000
   45       -0.893714   1.000000
   46       -0.802178   1.000000
   47       -0.735522   1.000000
   48       -0.569451   1.000000
   49       -0.477888   1.000000
   50       -0.277914   1.000000
   51       -0.205097   1.000000
   52       -0.096750   1.000000
   53        0.034906   1.000000
   54        0.095621   1.000000
   55        0.182932   1.000000
   56        0.345858   1.000000
   57        0.495718   1.000000
   58        0.541972   1.000000
   59        0.657140   1.000000
   60        0.912905   1.000000
   61        1.010639   1.000000
   62        1.055991   1.000000
   63        1.140590   1.000000
   64        1.265126   1.000000
   65        1.347584   1.000000
   66        1.472677   1.000000
   67        1.605289   1.000000
   68        1.756544   1.000000
   69        1.868834   1.000000
   70        1.961704   1.000000
   71        2.166876   1.000000
   72        2.381929   1.000000
   73        2.440001   1.000000
   74        2.511700   1.000000
   75        2.583659   1.000000
   76        2.627488   1.000000
   77        2.763371   1.000000
   78        2.834320   1.000000
   79        2.948270   1.000000
   80        3.011841   1.000000
   81        3.094734   1.000000
   82        3.131816   1.000000
   83        3.223688   1.000000
   84        3.358653   1.000000
   85        3.502605   1.000000
   86        3.567530   1.000000
   87        3.752712   1.000000
   88        3.810845   1.000000
   89        3.865957   1.000000
   90        3.943060   1.000000
   91        4.063043   1.000000
   92        4.300314   1.000000
   93        4.406056   1.000000
   94        4.582469   1.000000
   95        4.664781   1.000000
   96        4.830833   1.000000
   97        6.743963   1.000000
   98        6.965401  -0.031780
   99        7.097804   0.000000
  100        7.129969   0.000000
  101        7.304405   0.000000
  102        7.500905   0.000000
  103        7.556718   0.000000
  104        7.810242   0.000000
  105        8.419190   0.000000
  106        8.868546   0.000000
  107        9.204527   0.000000
  108        9.366785   0.000000
  109        9.601947   0.000000
  110        9.705320   0.000000
  111        9.924297   0.000000
  112       10.330700   0.000000
  113       10.382240   0.000000
  114       10.548915   0.000000
  115       10.633133   0.000000
  116       10.751937   0.000000
  117       10.829132   0.000000
  118       10.920845   0.000000
  119       11.039586   0.000000
  120       11.156409   0.000000
  121       11.225353   0.000000
  122       11.338093   0.000000
  123       11.603400   0.000000
  124       11.697909   0.000000
  125       11.798079   0.000000
  126       11.943221   0.000000
  127       12.195646   0.000000
  128       12.268315   0.000000
 
  0.5000000E+00 -0.2000000E+00  0.1818182E+00  0.6060606E-02
    1      -11.835042   1.000000
    2      -11.214147   1.000000
    3      -10.914963   1.000000
    4      -10.719263   1.000000
    5      -10.468373   1.000000
    6      -10.103345   1.000000
    7       -9.042167   1.000000
    8       -8.811291   1.000000
    9       -8.646909   1.000000
   10       -8.584738   1.000000
   11       -8.388258   1.000000
   12       -8.198251   1.000000
   13       -7.940460   1.000000
   14       -6.999203   1.000000
   15       -6.766820   1.000000
   16       -5.944920   1.000000
   17       -5.822525   1.000000
   18       -5.477782   1.000000
   19       -5.281434   1.000000
   20       -5.208180   1.000000
   21       -5.063748   1.000000
   22       -4.931120   1.000000
   23       -4.505655   1.000000
   24       -4.456512   1.000000
   25       -3.999934   1.000000
   26       -3.854645   1.000000
   27       -3.321692   1.000000
   28       -3.201591   1.000000
   29       -3.119926   1.000000
   30       -2.815357   1.000000
   31       -2.697140   1.000000
   32       -2.603676   1.000000
   33       -2.358922   1.000000
   34       -2.329666   1.000000
   35       -2.189542   1.000000
   36       -1.980920   1.000000
   37       -1.817089   1.000000
   38       -1.787712   1.000000
   39       -1.615363   1.000000
   40       -1.492229   1.000000
   41       -1.407143   1.000000
   42       -1.355260   1.000000
   43       -1.277460   1.000000
   44       -1.057587   1.000000
   45       -1.017973   1.000000
   46       -0.833605   1.000000
   47       -0.699007   1.000000
   48       -0.637705   1.000000
   49       -0.488764   1.000000
   50       -0.386296   1.000000
   51       -0.268807   1.000000
   52       -0.141883   1.000000
   53        0.059550   1.000000
   54        0.126974   1.000000
   55        0.314639   1.000000
   56        0.411487   1.000000
   57        0.473623   1.000000
   58        0.594698   1.000000
   59        0.668327   1.000000
   60        0.786674   1.000000
   61        0.873392   1.000000
   62        1.062557   1.000000
   63        1.187472   1.000000
   64        1.271810   1.000000
   65        1.374551   1.000000
   66        1.429925   1.000000
   67        1.640849   1.000000
   68        1.739156   1.000000
   69        1.835755   1.000000
   70        2.025399   1.000000
   71        2.162006   1.000000
   72        2.253161   1.000000
   73        2.394963   1.000000
   74        2.427245   1.000000
   75        2.632731   1.000000
   76        2.717912   1.000000
   77        2.758172   1.000000
   78        2.781575   1.000000
   79        2.880754   1.000000
   80        2.944256   1.000000
   81        3.105902   1.000000
   82        3.241230   1.000000
   83        3.321759   1.000000
   84        3.433673   1.000000
   85        3.533509   1.000000
   86        3.640833   1.000000
   87        3.746048   1.000000
   88        3.782314   1.000000
   89        3.888527   1.000000
   90        3.984083   1.000000
   91        4.074516   1.000000
   92        4.232680   1.000000
   93        4.360969   1.000000
   94        4.521265   1.000000
   95        4.587166   1.000000
   96        4.828000   1.000000
   97        6.837715   1.000000
   98        6.940096  -0.026836
   99        7.019990   0.000000
  100        7.120737   0.000000
  101        7.387436   0.000000
  102        7.536241   0.000000
  103        7.581245   0.000000
  104        7.730692   0.000000
  105        8.456501   0.000000
  106        8.943341   0.000000
  107        9.276652   0.000000
  108        9.572517   0.000000
  109        9.648944   0.000000
  110        9.818661   0.000000
  111        9.949140   0.000000
  112       10.285923   0.000000
  113       10.322704   0.000000
  114       10.519903   0.000000
  115       10.602462   0.000000
  116       10.649737   0.000000
  117       10.738480   0.000000
  118       10.859308   0.000000
  119       10.979414   0.000000
  120       11.085634   0.000000
  121       11.206230   0.000000
  122       11.277411   0.000000
  123       11.607834   0.000000
  124       11.712574   0.000000
  125       11.880666   0.000000
  126       11.949104   0.000000
  127       12.196162   0.000000
  128       12.285488   0.000000
 
 -0.3333333E+00 -0.2000000E+00  0.1818182E+00  0.6060606E-02
    1      -11.833695   1.000000
    2      -11.205600   1.000000
    3      -10.902927   1.000000
    4      -10.761350   1.000000
    5      -10.454908   1.000000
    6      -10.102745   1.000000
    7       -9.095653   1.000000
    8       -8.799072   1.000000
    9       -8.609061   1.000000
   10       -8.531302   1.000000
   11       -8.405399   1.000000
   12       -8.153850   1.000000
   13       -7.974321   1.000000
   14       -7.025572   1.000000
   15       -6.782479   1.000000
   16       -5.967552   1.000000
   17       -5.846472   1.000000
   18       -5.499572   1.000000
   19       -5.318566   1.000000
   20       -5.195525   1.000000
   21       -4.957254   1.000000
   22       -4.915208   1.000000
   23       -4.477001   1.000000
   24       -4.441227   1.000000
   25       -4.030996   1.000000
   26       -3.840858   1.000000
   27       -3.341842   1.000000
   28       -3.226452   1.000000
   29       -3.137425   1.000000
   30       -2.853944   1.000000
   31       -2.798717   1.000000
   32       -2.616324   1.000000
   33       -2.477593   1.000000
   34       -2.287229   1.000000
   35       -2.137026   1.000000
   36       -1.944778   1.000000
   37       -1.828783   1.000000
   38       -1.747801   1.000000
   39       -1.601638   1.000000
   40       -1.525386   1.000000
   41       -1.357215   1.000000
   42       -1.226723   1.000000
   43       -1.176231   1.000000
   44       -0.972522   1.000000
   45       -0.955527   1.000000
   46       -0.905082   1.000000
   47       -0.753767   1.000000
   48       -0.688293   1.000000
   49       -0.537315   1.000000
   50       -0.327381   1.000000
   51       -0.187043   1.000000
   52       -0.112247   1.000000
   53       -0.018555   1.000000
   54        0.154778   1.000000
   55        0.267818   1.000000
   56        0.464102   1.000000
   57        0.531221   1.000000
   58        0.601167   1.000000
   59        0.684994   1.000000
   60        0.735096   1.000000
   61        0.834461   1.000000
   62        0.950553   1.000000
   63        1.085059   1.000000
   64        1.256433   1.000000
   65        1.404603   1.000000
   66        1.469902   1.000000
   67        1.649500   1.000000
   68        1.767385   1.000000
   69        1.862054   1.000000
   70        1.935377   1.000000
   71        2.091489   1.000000
   72        2.221047   1.000000
   73        2.403442   1.000000
   74        2.501296   1.000000
   75        2.587681   1.000000
   76        2.653414   1.000000
   77        2.735224   1.000000
   78        2.762827   1.000000
   79        2.863419   1.000000
   80        2.919974   1.000000
   81        3.077969   1.000000
   82        3.177448   1.000000
   83        3.309148   1.000000
   84        3.514513   1.000000
   85        3.602461   1.000000
   86        3.696212   1.000000
   87        3.725147   1.000000
   88        3.870164   1.000000
   89        3.937841   1.000000
   90        4.077363   1.000000
   91        4.126510   1.000000
   92        4.234965   1.000000
   93        4.346688   1.000000
   94        4.451243   1.000000
   95        4.541083   1.000000
   96        4.821802   1.000000
   97        6.818206   1.000000
   98        6.926531  -0.134839
   99        6.989481   0.000000
  100        7.088748   0.000000
  101        7.399674   0.000000
  102        7.498260   0.000000
  103        7.654908   0.000000
  104        7.733583   0.000000
  105        8.493501   0.000000
  106        8.976944   0.000000
  107        9.228750   0.000000
  108        9.564966   0.000000
  109        9.685905   0.000000
  110        9.720001   0.000000
  111        9.911915   0.000000
  112       10.207597   0.000000
  113       10.345310   0.000000
  114       10.480790   0.000000
  115       10.651551   0.000000
  116       10.731452   0.000000
  117       10.813704   0.000000
  118       10.928873   0.000000
  119       11.045521   0.000000
  120       11.139658   0.000000
  121       11.217696   0.000000
  122       11.357517   0.000000
  123       11.600987   0.000000
  124       11.839922   0.000000
  125       11.878810   0.000000
  126       11.968112   0.000000
  127       12.198269   0.000000
  128       12.350253   0.000000
 
 -0.1666667E+00 -0.2000000E+00  0.1818182E+00  0.6060606E-02
    1      -11.841106   1.000000
    2      -11.204113   1.000000
    3      -10.849582   1.000000
    4      -10.788445   1.000000
    5      -10.454083   1.000000
    6      -10.128324   1.000000
    7       -9.126514   1.000000
    8       -8.787851   1.000000
    9       -8.642160   1.000000
   10       -8.482650   1.000000
   11       -8.386507   1.000000
   12       -8.092205   1.000000
   13       -8.032324   1.000000
   14       -7.059481   1.000000
   15       -6.796428   1.000000
   16       -5.968245   1.000000
   17       -5.848815   1.000000
   18       -5.531747   1.000000
   19       -5.326172   1.000000
   20       -5.081426   1.000000
   21       -4.978987   1.000000
   22       -4.814029   1.000000
   23       -4.516511   1.000000
   24       -4.432968   1.000000
   25       -4.061215   1.000000
   26       -3.793938   1.000000
   27       -3.352174   1.000000
   28       -3.222788   1.000000
   29       -3.109791   1.000000
   30       -2.889831   1.000000
   31       -2.750474   1.000000
   32       -2.655694   1.000000
   33       -2.506581   1.000000
   34       -2.358173   1.000000
   35       -2.192179   1.000000
   36       -2.106850   1.000000
   37       -1.956276   1.000000
   38       -1.878087   1.000000
   39       -1.650157   1.000000
   40       -1.465354   1.000000
   41       -1.294780   1.000000
   42       -1.212104   1.000000
   43       -1.025955   1.000000
   44       -0.977844   1.000000
   45       -0.799315   1.000000
   46       -0.746272   1.000000
   47       -0.697515   1.000000
   48       -0.587156   1.000000
   49       -0.562386   1.000000
   50       -0.263545   1.000000
   51       -0.232194   1.000000
   52       -0.132382   1.000000
   53        0.033048   1.000000
   54        0.148293   1.000000
   55        0.256128   1.000000
   56        0.283140   1.000000
   57        0.501008   1.000000
   58        0.578838   1.000000
   59        0.665806   1.000000
   60        0.789693   1.000000
   61        0.884160   1.000000
   62        0.935858   1.000000
   63        1.079139   1.000000
   64        1.280750   1.000000
   65        1.344308   1.000000
   66        1.454351   1.000000
   67        1.641603   1.000000
   68        1.730988   1.000000
   69        1.893203   1.000000
   70        2.020649   1.000000
   71        2.063581   1.000000
   72        2.176965   1.000000
   73        2.278063   1.000000
   74        2.427160   1.000000
   75        2.570762   1.000000
   76        2.681829   1.000000
   77        2.773288   1.000000
   78        2.858704   1.000000
   79        2.922699   1.000000
   80        2.997085   1.000000
   81        3.035905   1.000000
   82        3.196139   1.000000
   83        3.291053   1.000000
   84        3.497967   1.000000
   85        3.537899   1.000000
   86        3.597124   1.000000
   87        3.734845   1.000000
   88        3.774421   1.000000
   89        3.966802   1.000000
   90        4.046614   1.000000
   91        4.258911   1.000000
   92        4.289661   1.000000
   93        4.384456   1.000000
   94        4.495817   1.000000
   95        4.597873   1.000000
   96        4.822502   1.000000
   97        6.775669   1.000000
   98        6.886397   0.106088
   99        7.023525   0.000000
  100        7.092678   0.000000
  101        7.344371   0.000000
  102        7.394459   0.000000
  103        7.660325   0.000000
  104        7.843065   0.000000
  105        8.507566   0.000000
  106        8.923581   0.000000
  107        9.113198   0.000000
  108        9.346628   0.000000
  109        9.519306   0.000000
  110        9.646258   0.000000
  111        9.974877   0.000000
  112       10.212893   0.000000
  113       10.367812   0.000000
  114       10.525865   0.000000
  115       10.783642   0.000000
  116       10.857900   0.000000
  117       10.915377   0.000000
  118       11.031859   0.000000
  119       11.134583   0.000000
  120       11.158198   0.000000
  121       11.383273   0.000000
  122       11.494942   0.000000
  123       11.623097   0.000000
  124       11.788537   0.000000
  125       11.885275   0.000000
  126       12.044101   0.000000
  127       12.222146   0.000000
  128       12.357026   0.000000
 
  0.0000000E+00  0.0000000E+00  0.2727273E+00  0.6060606E-02
    1      -11.762039   1.000000
    2      -11.057663   1.000000
    3      -10.801582   1.000000
    4      -10.744499   1.000000
    5      -10.530369   1.000000
    6      -10.183205   1.000000
    7       -9.258382   1.000000
    8       -8.880334   1.000000
    9       -8.758445   1.000000
   10       -8.524232   1.000000
   11       -8.448197   1.000000
   12       -8.041932   1.000000
   13       -8.003135   1.000000
   14       -7.085232   1.000000
   15       -6.876887   1.000000
   16       -5.999392   1.000000
   17       -5.839970   1.000000
   18       -5.559566   1.000000
   19       -5.461055   1.000000
   20       -5.155941   1.000000
   21       -4.980375   1.000000
   22       -4.827761   1.000000
   23       -4.503160   1.000000
   24       -4.414449   1.000000
   25       -3.909856   1.000000
   26       -3.733063   1.000000
   27       -3.431900   1.000000
   28       -3.167181   1.000000
   29       -3.094995   1.000000
   30       -3.037567   1.000000
   31       -2.920117   1.000000
   32       -2.720729   1.000000
   33       -2.505787   1.000000
   34       -2.406563   1.000000
   35       -2.277050   1.000000
   36       -2.193529   1.000000
   37       -1.905413   1.000000
   38       -1.730227   1.000000
   39       -1.611802   1.000000
   40       -1.311867   1.000000
   41       -1.260301   1.000000
   42       -1.007702   1.000000
   43       -0.873691   1.000000
   44       -0.791316   1.000000
   45       -0.766250   1.000000
   46       -0.681522   1.000000
   47       -0.507288   1.000000
   48       -0.392064   1.000000
   49       -0.358222   1.000000
   50       -0.234439   1.000000
   51       -0.170784   1.000000
   52       -0.017860   1.000000
   53        0.119182   1.000000
   54        0.261217   1.000000
   55        0.319146   1.000000
   56        0.475971   1.000000
   57        0.522636   1.000000
   58        0.644782   1.000000
   59        0.736380   1.000000
   60        0.812640   1.000000
   61        0.912551   1.000000
   62        1.000059   1.000000
   63        1.094681   1.000000
   64        1.231733   1.000000
   65        1.299214   1.000000
   66        1.360795   1.000000
   67        1.483581   1.000000
   68        1.617432   1.000000
   69        1.836165   1.000000
   70        1.988251   1.000000
   71        2.098380   1.000000
   72        2.177290   1.000000
   73        2.238217   1.000000
   74        2.388731   1.000000
   75        2.513377   1.000000
   76        2.651595   1.000000
   77        2.762290   1.000000
   78        2.863854   1.000000
   79        2.885016   1.000000
   80        3.013398   1.000000
   81        3.103067   1.000000
   82        3.197221   1.000000
   83        3.292956   1.000000
   84        3.401669   1.000000
   85        3.553331   1.000000
   86        3.600978   1.000000
   87        3.652371   1.000000
   88        3.865569   1.000000
   89        4.026946   1.000000
   90        4.122930   1.000000
   91        4.189674   1.000000
   92        4.257623   1.000000
   93        4.341268   1.000000
   94        4.423690   1.000000
   95        4.470670   1.000000
   96        4.852819   1.000000
   97        6.784155   1.000000
   98        6.870533   0.360605
   99        6.962888  -0.002591
  100        7.092683   0.000000
  101        7.226919   0.000000
  102        7.361537   0.000000
  103        7.574300   0.000000
  104        7.793258   0.000000
  105        8.360527   0.000000
  106        8.534790   0.000000
  107        8.771242   0.000000
  108        9.129157   0.000000
  109        9.321383   0.000000
  110        9.572017   0.000000
  111        9.927477   0.000000
  112        9.968009   0.000000
  113       10.202164   0.000000
  114       10.433759   0.000000
  115       10.530557   0.000000
  116       10.717584   0.000000
  117       10.826489   0.000000
  118       10.931744   0.000000
  119       11.110180   0.000000
  120       11.222570   0.000000
  121       11.370364   0.000000
  122       11.501141   0.000000
  123       11.713236   0.000000
  124       11.903847   0.000000
  125       11.957010   0.000000
  126       12.084719   0.000000
  127       12.212946   0.000000
  128       12.298557   0.000000
 
  0.1666667E+00  0.0000000E+00  0.2727273E+00  0.6060606E-02
    1      -11.769490   1.000000
    2      -11.059518   1.000000
    3      -10.776036   1.000000
    4      -10.727864   1.000000
    5      -10.539107   1.000000
    6      -10.210146   1.000000
    7       -9.253566   1.000000
    8       -8.874104   1.000000
    9       -8.701053   1.000000
   10       -8.575008   1.000000
   11       -8.460719   1.000000
   12       -8.058323   1.000000
   13       -8.035966   1.000000
   14       -7.063910   1.000000
   15       -6.862413   1.000000
   16       -5.940884   1.000000
   17       -5.812683   1.000000
   18       -5.560006   1.000000
   19       -5.424176   1.000000
   20       -5.206919   1.000000
   21       -5.031874   1.000000
   22       -4.943109   1.000000
   23       -4.537429   1.000000
   24       -4.472770   1.000000
   25       -3.813698   1.000000
   26       -3.674569   1.000000
   27       -3.342929   1.000000
   28       -3.107131   1.000000
   29       -3.007903   1.000000
   30       -2.975805   1.000000
   31       -2.857138   1.000000
   32       -2.559293   1.000000
   33       -2.501089   1.000000
   34       -2.444523   1.000000
   35       -2.267247   1.000000
   36       -2.138278   1.000000
   37       -2.006810   1.000000
   38       -1.808550   1.000000
   39       -1.705795   1.000000
   40       -1.495348   1.000000
   41       -1.293069   1.000000
   42       -1.201960   1.000000
   43       -1.042297   1.000000
   44       -0.971867   1.000000
   45       -0.864448   1.000000
   46       -0.694232   1.000000
   47       -0.473214   1.000000
   48       -0.298655   1.000000
   49       -0.259011   1.000000
   50       -0.157287   1.000000
   51       -0.096558   1.000000
   52        0.011237   1.000000
   53        0.066732   1.000000
   54        0.140799   1.000000
   55        0.259462   1.000000
   56        0.367804   1.000000
   57        0.542336   1.000000
   58        0.678424   1.000000
   59        0.787607   1.000000
   60        0.899574   1.000000
   61        0.982286   1.000000
   62        1.067366   1.000000
   63        1.123904   1.000000
   64        1.267043   1.000000
   65        1.345534   1.000000
   66        1.404719   1.000000
   67        1.544173   1.000000
   68        1.669506   1.000000
   69        1.907449   1.000000
   70        2.051681   1.000000
   71        2.105229   1.000000
   72        2.257080   1.000000
   73        2.315152   1.000000
   74        2.430852   1.000000
   75        2.564769   1.000000
   76        2.676320   1.000000
   77        2.793020   1.000000
   78        2.826087   1.000000
   79        2.935127   1.000000
   80        3.004234   1.000000
   81        3.043093   1.000000
   82        3.195432   1.000000
   83        3.325334   1.000000
   84        3.378834   1.000000
   85        3.463811   1.000000
   86        3.567288   1.000000
   87        3.673664   1.000000
   88        3.788155   1.000000
   89        3.957708   1.000000
   90        3.997106   1.000000
   91        4.130397   1.000000
   92        4.189536   1.000000
   93        4.327406   1.000000
   94        4.469406   1.000000
   95        4.552946   1.000000
   96        4.805966   1.000000
   97        6.796358   1.000000
   98        6.874373   0.271332
   99        6.986140   0.000000
  100        7.050964   0.000000
  101        7.248946   0.000000
  102        7.341376   0.000000
  103        7.520129   0.000000
  104        7.850260   0.000000
  105        8.338129   0.000000
  106        8.568787   0.000000
  107        8.797607   0.000000
  108        9.138010   0.000000
  109        9.307813   0.000000
  110        9.585228   0.000000
  111        9.970206   0.000000
  112       10.050899   0.000000
  113       10.190846   0.000000
  114       10.448597   0.000000
  115       10.499336   0.000000
  116       10.650768   0.000000
  117       10.741312   0.000000
  118       10.816803   0.000000
  119       11.063334   0.000000
  120       11.127628   0.000000
  121       11.333226   0.000000
  122       11.484289   0.000000
  123       11.658194   0.000000
  124       11.795269   0.000000
  125       11.897682   0.000000
  126       11.946950   0.000000
  127       12.190847   0.000000
  128       12.231774   0.000000
 
  0.3333333E+00 -0.2775558E-16  0.2727273E+00  0.6060606E-02
    1      -11.767266   1.000000
    2      -11.064418   1.000000
    3      -10.779184   1.000000
    4      -10.725212   1.000000
    5      -10.545550   1.000000
    6      -10.208663   1.000000
    7       -9.201854   1.000000
    8       -8.871157   1.000000
    9       -8.694554   1.000000
   10       -8.574062   1.000000
   11       -8.514363   1.000000
   12       -8.114733   1.000000
   13       -8.015821   1.000000
   14       -7.055806   1.000000
   15       -6.827920   1.000000
   16       -5.932855   1.000000
   17       -5.735645   1.000000
   18       -5.553175   1.000000
   19       -5.351023   1.000000
   20       -5.236848   1.000000
   21       -5.105672   1.000000
   22       -5.088146   1.000000
   23       -4.579194   1.000000
   24       -4.499682   1.000000
   25       -3.877298   1.000000
   26       -3.653895   1.000000
   27       -3.270262   1.000000
   28       -3.123167   1.000000
   29       -3.047871   1.000000
   30       -2.868254   1.000000
   31       -2.638333   1.000000
   32       -2.528525   1.000000
   33       -2.444585   1.000000
   34       -2.281691   1.000000
   35       -2.152984   1.000000
   36       -2.048504   1.000000
   37       -1.937438   1.000000
   38       -1.914814   1.000000
   39       -1.670150   1.000000
   40       -1.605511   1.000000
   41       -1.415740   1.000000
   42       -1.333241   1.000000
   43       -1.280397   1.000000
   44       -1.133509   1.000000
   45       -0.859806   1.000000
   46       -0.768811   1.000000
   47       -0.654780   1.000000
   48       -0.390329   1.000000
   49       -0.306189   1.000000
   50       -0.206311   1.000000
   51       -0.041217   1.000000
   52        0.011786   1.000000
   53        0.076857   1.000000
   54        0.207240   1.000000
   55        0.315452   1.000000
   56        0.495007   1.000000
   57        0.567269   1.000000
   58        0.684108   1.000000
   59        0.775887   1.000000
   60        0.817838   1.000000
   61        0.981140   1.000000
   62        1.073497   1.000000
   63        1.168598   1.000000
   64        1.244714   1.000000
   65        1.465230   1.000000
   66        1.501773   1.000000
   67        1.680068   1.000000
   68        1.738197   1.000000
   69        1.892679   1.000000
   70        2.089807   1.000000
   71        2.157031   1.000000
   72        2.358189   1.000000
   73        2.431739   1.000000
   74        2.505787   1.000000
   75        2.623915   1.000000
   76        2.669288   1.000000
   77        2.712731   1.000000
   78        2.826101   1.000000
   79        2.880120   1.000000
   80        2.991912   1.000000
   81        3.099184   1.000000
   82        3.167702   1.000000
   83        3.260618   1.000000
   84        3.345406   1.000000
   85        3.513158   1.000000
   86        3.576827   1.000000
   87        3.668160   1.000000
   88        3.730815   1.000000
   89        3.806478   1.000000
   90        3.895517   1.000000
   91        4.033148   1.000000
   92        4.103024   1.000000
   93        4.246027   1.000000
   94        4.520523   1.000000
   95        4.609090   1.000000
   96        4.785598   1.000000
   97        6.738407   1.000000
   98        6.862239   0.373177
   99        7.030969   0.000000
  100        7.095783   0.000000
  101        7.222321   0.000000
  102        7.426966   0.000000
  103        7.560102   0.000000
  104        7.848927   0.000000
  105        8.325330   0.000000
  106        8.653472   0.000000
  107        8.844466   0.000000
  108        9.219316   0.000000
  109        9.450123   0.000000
  110        9.733704   0.000000
  111        9.866328   0.000000
  112       10.116460   0.000000
  113       10.158305   0.000000
  114       10.427931   0.000000
  115       10.507125   0.000000
  116       10.598325   0.000000
  117       10.614126   0.000000
  118       10.757709   0.000000
  119       10.865745   0.000000
  120       11.033510   0.000000
  121       11.235645   0.000000
  122       11.427069   0.000000
  123       11.575579   0.000000
  124       11.623105   0.000000
  125       11.780266   0.000000
  126       11.889821   0.000000
  127       12.133950   0.000000
  128       12.265370   0.000000
 
  0.5000000E+00  0.0000000E+00  0.2727273E+00  0.6060606E-02
    1      -11.757470   1.000000
    2      -11.064332   1.000000
    3      -10.831407   1.000000
    4      -10.715872   1.000000
    5      -10.543984   1.000000
    6      -10.182809   1.000000
    7       -9.133477   1.000000
    8       -8.896040   1.000000
    9       -8.766130   1.000000
   10       -8.612661   1.000000
   11       -8.395301   1.000000
   12       -8.192973   1.000000
   13       -7.977334   1.000000
   14       -7.059236   1.000000
   15       -6.812578   1.000000
   16       -5.970836   1.000000
   17       -5.712335   1.000000
   18       -5.554505   1.000000
   19       -5.316356   1.000000
   20       -5.224599   1.000000
   21       -5.149612   1.000000
   22       -5.080253   1.000000
   23       -4.590442   1.000000
   24       -4.439192   1.000000
   25       -4.045016   1.000000
   26       -3.676052   1.000000
   27       -3.356548   1.000000
   28       -3.182579   1.000000
   29       -3.056144   1.000000
   30       -2.801158   1.000000
   31       -2.591385   1.000000
   32       -2.531843   1.000000
   33       -2.364814   1.000000
   34       -2.309707   1.000000
   35       -2.094178   1.000000
   36       -2.028248   1.000000
   37       -1.861335   1.000000
   38       -1.775478   1.000000
   39       -1.663263   1.000000
   40       -1.554971   1.000000
   41       -1.409839   1.000000
   42       -1.319928   1.000000
   43       -1.283020   1.000000
   44       -1.006890   1.000000
   45       -0.892076   1.000000
   46       -0.741444   1.000000
   47       -0.678400   1.000000
   48       -0.573270   1.000000
   49       -0.388507   1.000000
   50       -0.209540   1.000000
   51       -0.120325   1.000000
   52        0.030351   1.000000
   53        0.081883   1.000000
   54        0.143269   1.000000
   55        0.222931   1.000000
   56        0.430672   1.000000
   57        0.581276   1.000000
   58        0.672585   1.000000
   59        0.723805   1.000000
   60        0.935617   1.000000
   61        1.053829   1.000000
   62        1.158832   1.000000
   63        1.251885   1.000000
   64        1.304878   1.000000
   65        1.335871   1.000000
   66        1.535760   1.000000
   67        1.642101   1.000000
   68        1.799965   1.000000
   69        1.837205   1.000000
   70        2.017917   1.000000
   71        2.270310   1.000000
   72        2.383600   1.000000
   73        2.408911   1.000000
   74        2.483435   1.000000
   75        2.606254   1.000000
   76        2.666307   1.000000
   77        2.742292   1.000000
   78        2.800895   1.000000
   79        2.855974   1.000000
   80        2.923924   1.000000
   81        3.068751   1.000000
   82        3.114874   1.000000
   83        3.206086   1.000000
   84        3.458205   1.000000
   85        3.496398   1.000000
   86        3.582191   1.000000
   87        3.645434   1.000000
   88        3.729055   1.000000
   89        3.828775   1.000000
   90        3.971351   1.000000
   91        3.987193   1.000000
   92        4.083936   1.000000
   93        4.189617   1.000000
   94        4.469765   1.000000
   95        4.652960   1.000000
   96        4.806468   1.000000
   97        6.726500   1.000000
   98        6.895941   0.087275
   99        6.986796   0.000000
  100        7.109192   0.000000
  101        7.227548   0.000000
  102        7.480101   0.000000
  103        7.664005   0.000000
  104        7.811368   0.000000
  105        8.333156   0.000000
  106        8.652356   0.000000
  107        8.877012   0.000000
  108        9.375239   0.000000
  109        9.592776   0.000000
  110        9.681915   0.000000
  111        9.969497   0.000000
  112       10.107788   0.000000
  113       10.151884   0.000000
  114       10.342428   0.000000
  115       10.428079   0.000000
  116       10.592588   0.000000
  117       10.651701   0.000000
  118       10.733582   0.000000
  119       10.844098   0.000000
  120       10.968753   0.000000
  121       11.201756   0.000000
  122       11.401531   0.000000
  123       11.485671   0.000000
  124       11.566889   0.000000
  125       11.819584   0.000000
  126       11.894511   0.000000
  127       12.134012   0.000000
  128       12.276138   0.000000
 
 -0.3333333E+00  0.2775558E-16  0.2727273E+00  0.6060606E-02
    1      -11.749608   1.000000
    2      -11.060821   1.000000
    3      -10.863600   1.000000
    4      -10.724180   1.000000
    5      -10.535098   1.000000
    6      -10.160129   1.000000
    7       -9.136245   1.000000
    8       -8.911885   1.000000
    9       -8.790107   1.000000
   10       -8.622943   1.000000
   11       -8.317725   1.000000
   12       -8.197890   1.000000
   13       -7.954226   1.000000
   14       -7.073492   1.000000
   15       -6.834521   1.000000
   16       -6.018326   1.000000
   17       -5.768334   1.000000
   18       -5.576592   1.000000
   19       -5.323204   1.000000
   20       -5.222518   1.000000
   21       -5.029538   1.000000
   22       -4.983229   1.000000
   23       -4.523966   1.000000
   24       -4.395366   1.000000
   25       -4.148166   1.000000
   26       -3.676521   1.000000
   27       -3.456849   1.000000
   28       -3.307285   1.000000
   29       -3.102680   1.000000
   30       -2.901855   1.000000
   31       -2.781746   1.000000
   32       -2.507479   1.000000
   33       -2.462834   1.000000
   34       -2.246231   1.000000
   35       -2.169637   1.000000
   36       -1.983830   1.000000
   37       -1.827583   1.000000
   38       -1.678584   1.000000
   39       -1.610699   1.000000
   40       -1.424008   1.000000
   41       -1.271502   1.000000
   42       -1.182282   1.000000
   43       -1.089368   1.000000
   44       -0.885619   1.000000
   45       -0.785601   1.000000
   46       -0.734588   1.000000
   47       -0.599568   1.000000
   48       -0.473911   1.000000
   49       -0.422544   1.000000
   50       -0.333247   1.000000
   51       -0.260331   1.000000
   52       -0.069531   1.000000
   53        0.081070   1.000000
   54        0.226574   1.000000
   55        0.345826   1.000000
   56        0.438135   1.000000
   57        0.548274   1.000000
   58        0.602625   1.000000
   59        0.674262   1.000000
   60        0.809555   1.000000
   61        0.916866   1.000000
   62        1.118698   1.000000
   63        1.218975   1.000000
   64        1.304038   1.000000
   65        1.382847   1.000000
   66        1.455043   1.000000
   67        1.636561   1.000000
   68        1.798280   1.000000
   69        1.935508   1.000000
   70        2.074128   1.000000
   71        2.176922   1.000000
   72        2.226371   1.000000
   73        2.342698   1.000000
   74        2.421293   1.000000
   75        2.454663   1.000000
   76        2.598203   1.000000
   77        2.686478   1.000000
   78        2.743276   1.000000
   79        2.844123   1.000000
   80        2.952742   1.000000
   81        3.036628   1.000000
   82        3.143270   1.000000
   83        3.269519   1.000000
   84        3.428382   1.000000
   85        3.516427   1.000000
   86        3.615867   1.000000
   87        3.698534   1.000000
   88        3.887063   1.000000
   89        3.970518   1.000000
   90        4.014047   1.000000
   91        4.104594   1.000000
   92        4.172633   1.000000
   93        4.215252   1.000000
   94        4.361590   1.000000
   95        4.594084   1.000000
   96        4.835973   1.000000
   97        6.797142   1.000000
   98        6.845020   0.525097
   99        6.914191  -0.000341
  100        7.105680   0.000000
  101        7.263680   0.000000
  102        7.517550   0.000000
  103        7.713752   0.000000
  104        7.758066   0.000000
  105        8.349063   0.000000
  106        8.588742   0.000000
  107        8.867313   0.000000
  108        9.460881   0.000000
  109        9.532676   0.000000
  110        9.577439   0.000000
  111        9.906916   0.000000
  112       10.017577   0.000000
  113       10.220196   0.000000
  114       10.349281   0.000000
  115       10.453394   0.000000
  116       10.651853   0.000000
  117       10.740077   0.000000
  118       10.846425   0.000000
  119       10.930274   0.000000
  120       11.106069   0.000000
  121       11.301949   0.000000
  122       11.381712   0.000000
  123       11.529016   0.000000
  124       11.663391   0.000000
  125       11.863100   0.000000
  126       11.954085   0.000000
  127       12.195253   0.000000
  128       12.280569   0.000000
 
 -0.1666667E+00  0.0000000E+00  0.2727273E+00  0.6060606E-02
    1      -11.751965   1.000000
    2      -11.059585   1.000000
    3      -10.843504   1.000000
    4      -10.742366   1.000000
    5      -10.528345   1.000000
    6      -10.159327   1.000000
    7       -9.210795   1.000000
    8       -8.886597   1.000000
    9       -8.787595   1.000000
   10       -8.573792   1.000000
   11       -8.390309   1.000000
   12       -8.089039   1.000000
   13       -7.961278   1.000000
   14       -7.091363   1.000000
   15       -6.864481   1.000000
   16       -6.034220   1.000000
   17       -5.822946   1.000000
   18       -5.585633   1.000000
   19       -5.385363   1.000000
   20       -5.168384   1.000000
   21       -4.982547   1.000000
   22       -4.842096   1.000000
   23       -4.458603   1.000000
   24       -4.425921   1.000000
   25       -4.079386   1.000000
   26       -3.686861   1.000000
   27       -3.499765   1.000000
   28       -3.283042   1.000000
   29       -3.132493   1.000000
   30       -3.026513   1.000000
   31       -2.912813   1.000000
   32       -2.717761   1.000000
   33       -2.452370   1.000000
   34       -2.379562   1.000000
   35       -2.135080   1.000000
   36       -2.028783   1.000000
   37       -1.823333   1.000000
   38       -1.674974   1.000000
   39       -1.515923   1.000000
   40       -1.414236   1.000000
   41       -1.206413   1.000000
   42       -1.020777   1.000000
   43       -0.901717   1.000000
   44       -0.840979   1.000000
   45       -0.758222   1.000000
   46       -0.694647   1.000000
   47       -0.555637   1.000000
   48       -0.504325   1.000000
   49       -0.381695   1.000000
   50       -0.267785   1.000000
   51       -0.094219   1.000000
   52        0.022850   1.000000
   53        0.087346   1.000000
   54        0.227802   1.000000
   55        0.327855   1.000000
   56        0.412848   1.000000
   57        0.533219   1.000000
   58        0.609188   1.000000
   59        0.710931   1.000000
   60        0.736536   1.000000
   61        0.840353   1.000000
   62        1.049214   1.000000
   63        1.137652   1.000000
   64        1.218668   1.000000
   65        1.329717   1.000000
   66        1.432381   1.000000
   67        1.570911   1.000000
   68        1.628296   1.000000
   69        1.889817   1.000000
   70        2.034586   1.000000
   71        2.070488   1.000000
   72        2.148788   1.000000
   73        2.292346   1.000000
   74        2.396755   1.000000
   75        2.503158   1.000000
   76        2.601147   1.000000
   77        2.683205   1.000000
   78        2.765686   1.000000
   79        2.844397   1.000000
   80        2.969717   1.000000
   81        3.076712   1.000000
   82        3.138335   1.000000
   83        3.364203   1.000000
   84        3.432281   1.000000
   85        3.505425   1.000000
   86        3.632694   1.000000
   87        3.794065   1.000000
   88        3.880781   1.000000
   89        4.028029   1.000000
   90        4.108367   1.000000
   91        4.191940   1.000000
   92        4.238646   1.000000
   93        4.300654   1.000000
   94        4.353956   1.000000
   95        4.482557   1.000000
   96        4.859401   1.000000
   97        6.784378   1.000000
   98        6.843989   0.598609
   99        6.918463   0.000874
  100        7.099264   0.000000
  101        7.264758   0.000000
  102        7.502382   0.000000
  103        7.646722   0.000000
  104        7.733505   0.000000
  105        8.362869   0.000000
  106        8.565124   0.000000
  107        8.791475   0.000000
  108        9.270390   0.000000
  109        9.394692   0.000000
  110        9.647593   0.000000
  111        9.839268   0.000000
  112        9.952020   0.000000
  113       10.193277   0.000000
  114       10.394856   0.000000
  115       10.523561   0.000000
  116       10.740534   0.000000
  117       10.818800   0.000000
  118       10.908133   0.000000
  119       11.096965   0.000000
  120       11.261796   0.000000
  121       11.344083   0.000000
  122       11.462701   0.000000
  123       11.657345   0.000000
  124       11.785958   0.000000
  125       11.918292   0.000000
  126       12.072339   0.000000
  127       12.241252   0.000000
  128       12.281539   0.000000
 
  0.0000000E+00  0.2000000E+00  0.2727273E+00  0.6060606E-02
    1      -11.768625   1.000000
    2      -11.013557   1.000000
    3      -10.820770   1.000000
    4      -10.754755   1.000000
    5      -10.562150   1.000000
    6      -10.157150   1.000000
    7       -9.208522   1.000000
    8       -8.916624   1.000000
    9       -8.843205   1.000000
   10       -8.496179   1.000000
   11       -8.311408   1.000000
   12       -8.160539   1.000000
   13       -8.010760   1.000000
   14       -7.094150   1.000000
   15       -6.835055   1.000000
   16       -6.006783   1.000000
   17       -5.882073   1.000000
   18       -5.548876   1.000000
   19       -5.397113   1.000000
   20       -5.183638   1.000000
   21       -4.895159   1.000000
   22       -4.835160   1.000000
   23       -4.614428   1.000000
   24       -4.491141   1.000000
   25       -3.872769   1.000000
   26       -3.609945   1.000000
   27       -3.406517   1.000000
   28       -3.205277   1.000000
   29       -3.046178   1.000000
   30       -2.910445   1.000000
   31       -2.748591   1.000000
   32       -2.592946   1.000000
   33       -2.568659   1.000000
   34       -2.444282   1.000000
   35       -2.363296   1.000000
   36       -2.188570   1.000000
   37       -1.963212   1.000000
   38       -1.834792   1.000000
   39       -1.641127   1.000000
   40       -1.586356   1.000000
   41       -1.316459   1.000000
   42       -1.263842   1.000000
   43       -1.086401   1.000000
   44       -0.946136   1.000000
   45       -0.737055   1.000000
   46       -0.596690   1.000000
   47       -0.534273   1.000000
   48       -0.366244   1.000000
   49       -0.256723   1.000000
   50       -0.229946   1.000000
   51       -0.076457   1.000000
   52        0.014619   1.000000
   53        0.250038   1.000000
   54        0.315336   1.000000
   55        0.387107   1.000000
   56        0.535101   1.000000
   57        0.564880   1.000000
   58        0.645632   1.000000
   59        0.745235   1.000000
   60        0.903319   1.000000
   61        1.019718   1.000000
   62        1.082161   1.000000
   63        1.171074   1.000000
   64        1.247794   1.000000
   65        1.347587   1.000000
   66        1.427528   1.000000
   67        1.486041   1.000000
   68        1.681994   1.000000
   69        1.819448   1.000000
   70        1.919398   1.000000
   71        2.036959   1.000000
   72        2.230099   1.000000
   73        2.286892   1.000000
   74        2.391934   1.000000
   75        2.484587   1.000000
   76        2.644182   1.000000
   77        2.720034   1.000000
   78        2.805259   1.000000
   79        2.867480   1.000000
   80        3.009947   1.000000
   81        3.096135   1.000000
   82        3.225007   1.000000
   83        3.324573   1.000000
   84        3.439904   1.000000
   85        3.461006   1.000000
   86        3.560744   1.000000
   87        3.717898   1.000000
   88        3.885467   1.000000
   89        3.945277   1.000000
   90        4.106392   1.000000
   91        4.165599   1.000000
   92        4.240708   1.000000
   93        4.275094   1.000000
   94        4.344602   1.000000
   95        4.419474   1.000000
   96        4.714878   1.000000
   97        6.595043   1.000000
   98        6.990939  -0.090196
   99        7.094970  -0.005923
  100        7.126668   0.000000
  101        7.234229   0.000000
  102        7.339782   0.000000
  103        7.675385   0.000000
  104        7.763767   0.000000
  105        8.366813   0.000000
  106        8.569180   0.000000
  107        8.812806   0.000000
  108        9.129244   0.000000
  109        9.310842   0.000000
  110        9.572538   0.000000
  111        9.903667   0.000000
  112        9.934489   0.000000
  113       10.178970   0.000000
  114       10.337953   0.000000
  115       10.466324   0.000000
  116       10.658225   0.000000
  117       10.713419   0.000000
  118       10.921364   0.000000
  119       11.062901   0.000000
  120       11.224349   0.000000
  121       11.300252   0.000000
  122       11.511620   0.000000
  123       11.767320   0.000000
  124       11.790132   0.000000
  125       12.003906   0.000000
  126       12.066590   0.000000
  127       12.203400   0.000000
  128       12.321563   0.000000
 
  0.1666667E+00  0.2000000E+00  0.2727273E+00  0.6060606E-02
    1      -11.779165   1.000000
    2      -11.000851   1.000000
    3      -10.817682   1.000000
    4      -10.721513   1.000000
    5      -10.565528   1.000000
    6      -10.193625   1.000000
    7       -9.228892   1.000000
    8       -8.918966   1.000000
    9       -8.775312   1.000000
   10       -8.513363   1.000000
   11       -8.409806   1.000000
   12       -8.164455   1.000000
   13       -7.965434   1.000000
   14       -7.051953   1.000000
   15       -6.828499   1.000000
   16       -5.956736   1.000000
   17       -5.879588   1.000000
   18       -5.523091   1.000000
   19       -5.440931   1.000000
   20       -5.198365   1.000000
   21       -4.963679   1.000000
   22       -4.893781   1.000000
   23       -4.618869   1.000000
   24       -4.509327   1.000000
   25       -3.817466   1.000000
   26       -3.615903   1.000000
   27       -3.292683   1.000000
   28       -3.136458   1.000000
   29       -3.027826   1.000000
   30       -2.862047   1.000000
   31       -2.776243   1.000000
   32       -2.607178   1.000000
   33       -2.540173   1.000000
   34       -2.462638   1.000000
   35       -2.380553   1.000000
   36       -2.206868   1.000000
   37       -2.028552   1.000000
   38       -1.883095   1.000000
   39       -1.710594   1.000000
   40       -1.523960   1.000000
   41       -1.359415   1.000000
   42       -1.257585   1.000000
   43       -1.014236   1.000000
   44       -0.786953   1.000000
   45       -0.697219   1.000000
   46       -0.611766   1.000000
   47       -0.486167   1.000000
   48       -0.356874   1.000000
   49       -0.316953   1.000000
   50       -0.233906   1.000000
   51       -0.161736   1.000000
   52       -0.063133   1.000000
   53       -0.008850   1.000000
   54        0.234266   1.000000
   55        0.370920   1.000000
   56        0.497782   1.000000
   57        0.582022   1.000000
   58        0.686154   1.000000
   59        0.703090   1.000000
   60        0.849123   1.000000
   61        1.052551   1.000000
   62        1.102319   1.000000
   63        1.135215   1.000000
   64        1.229668   1.000000
   65        1.311580   1.000000
   66        1.421321   1.000000
   67        1.581764   1.000000
   68        1.699041   1.000000
   69        1.899269   1.000000
   70        2.027508   1.000000
   71        2.117618   1.000000
   72        2.151800   1.000000
   73        2.319256   1.000000
   74        2.447141   1.000000
   75        2.578989   1.000000
   76        2.677541   1.000000
   77        2.771886   1.000000
   78        2.829715   1.000000
   79        2.907756   1.000000
   80        2.993493   1.000000
   81        3.051174   1.000000
   82        3.165326   1.000000
   83        3.320712   1.000000
   84        3.379184   1.000000
   85        3.532700   1.000000
   86        3.600879   1.000000
   87        3.831529   1.000000
   88        3.855659   1.000000
   89        3.966099   1.000000
   90        4.073981   1.000000
   91        4.135611   1.000000
   92        4.156599   1.000000
   93        4.279000   1.000000
   94        4.394956   1.000000
   95        4.461218   1.000000
   96        4.658283   1.000000
   97        6.587412   1.000000
   98        6.949075   0.040875
   99        7.058822   0.000000
  100        7.212290   0.000000
  101        7.233153   0.000000
  102        7.312442   0.000000
  103        7.605501   0.000000
  104        7.804905   0.000000
  105        8.339720   0.000000
  106        8.577270   0.000000
  107        8.843535   0.000000
  108        9.075967   0.000000
  109        9.275998   0.000000
  110        9.550153   0.000000
  111        9.937698   0.000000
  112        9.979272   0.000000
  113       10.151415   0.000000
  114       10.379351   0.000000
  115       10.502785   0.000000
  116       10.660344   0.000000
  117       10.694257   0.000000
  118       10.815857   0.000000
  119       11.019233   0.000000
  120       11.116669   0.000000
  121       11.258143   0.000000
  122       11.515243   0.000000
  123       11.623002   0.000000
  124       11.731044   0.000000
  125       11.840894   0.000000
  126       11.967925   0.000000
  127       12.223888   0.000000
  128       12.258059   0.000000
 
  0.3333333E+00  0.2000000E+00  0.2727273E+00  0.6060606E-02
    1      -11.780127   1.000000
    2      -10.993333   1.000000
    3      -10.814107   1.000000
    4      -10.725228   1.000000
    5      -10.573102   1.000000
    6      -10.202073   1.000000
    7       -9.207730   1.000000
    8       -8.919265   1.000000
    9       -8.680166   1.000000
   10       -8.581662   1.000000
   11       -8.489927   1.000000
   12       -8.148926   1.000000
   13       -7.960956   1.000000
   14       -7.037513   1.000000
   15       -6.800644   1.000000
   16       -5.976392   1.000000
   17       -5.779409   1.000000
   18       -5.525738   1.000000
   19       -5.402360   1.000000
   20       -5.230140   1.000000
   21       -5.047093   1.000000
   22       -4.988831   1.000000
   23       -4.620357   1.000000
   24       -4.576575   1.000000
   25       -3.829562   1.000000
   26       -3.647210   1.000000
   27       -3.205921   1.000000
   28       -3.139283   1.000000
   29       -2.998127   1.000000
   30       -2.888445   1.000000
   31       -2.769372   1.000000
   32       -2.551478   1.000000
   33       -2.462636   1.000000
   34       -2.400162   1.000000
   35       -2.293811   1.000000
   36       -2.115339   1.000000
   37       -2.059295   1.000000
   38       -1.860931   1.000000
   39       -1.670795   1.000000
   40       -1.455424   1.000000
   41       -1.355177   1.000000
   42       -1.241217   1.000000
   43       -1.022188   1.000000
   44       -0.948627   1.000000
   45       -0.768378   1.000000
   46       -0.643180   1.000000
   47       -0.549656   1.000000
   48       -0.484786   1.000000
   49       -0.316526   1.000000
   50       -0.255044   1.000000
   51       -0.142844   1.000000
   52       -0.046251   1.000000
   53       -0.017912   1.000000
   54        0.152464   1.000000
   55        0.213234   1.000000
   56        0.486840   1.000000
   57        0.590579   1.000000
   58        0.658973   1.000000
   59        0.737886   1.000000
   60        0.857933   1.000000
   61        0.872821   1.000000
   62        1.035512   1.000000
   63        1.105927   1.000000
   64        1.270472   1.000000
   65        1.324598   1.000000
   66        1.456920   1.000000
   67        1.652207   1.000000
   68        1.785179   1.000000
   69        1.903158   1.000000
   70        2.055030   1.000000
   71        2.179197   1.000000
   72        2.343164   1.000000
   73        2.434280   1.000000
   74        2.548942   1.000000
   75        2.617124   1.000000
   76        2.714792   1.000000
   77        2.724903   1.000000
   78        2.840718   1.000000
   79        2.981574   1.000000
   80        3.020323   1.000000
   81        3.117532   1.000000
   82        3.184038   1.000000
   83        3.335131   1.000000
   84        3.385325   1.000000
   85        3.527836   1.000000
   86        3.636387   1.000000
   87        3.718489   1.000000
   88        3.807108   1.000000
   89        3.858304   1.000000
   90        3.945137   1.000000
   91        4.020318   1.000000
   92        4.058782   1.000000
   93        4.285598   1.000000
   94        4.454539   1.000000
   95        4.570459   1.000000
   96        4.604134   1.000000
   97        6.640765   1.000000
   98        6.821635   0.870510
   99        7.003008   0.000000
  100        7.245331   0.000000
  101        7.321917   0.000000
  102        7.371981   0.000000
  103        7.550312   0.000000
  104        7.832959   0.000000
  105        8.311415   0.000000
  106        8.664285   0.000000
  107        8.867886   0.000000
  108        9.176263   0.000000
  109        9.389833   0.000000
  110        9.628406   0.000000
  111        9.858543   0.000000
  112       10.022921   0.000000
  113       10.156743   0.000000
  114       10.332153   0.000000
  115       10.513477   0.000000
  116       10.654632   0.000000
  117       10.702295   0.000000
  118       10.773701   0.000000
  119       10.886037   0.000000
  120       11.045113   0.000000
  121       11.128472   0.000000
  122       11.330770   0.000000
  123       11.522006   0.000000
  124       11.607114   0.000000
  125       11.712104   0.000000
  126       11.996090   0.000000
  127       12.081800   0.000000
  128       12.229385   0.000000
 
  0.5000000E+00  0.2000000E+00  0.2727273E+00  0.6060606E-02
    1      -11.770646   1.000000
    2      -10.998297   1.000000
    3      -10.803193   1.000000
    4      -10.774317   1.000000
    5      -10.576646   1.000000
    6      -10.173120   1.000000
    7       -9.160426   1.000000
    8       -8.925612   1.000000
    9       -8.708986   1.000000
   10       -8.597589   1.000000
   11       -8.448286   1.000000
   12       -8.145897   1.000000
   13       -7.988273   1.000000
   14       -7.053313   1.000000
   15       -6.786880   1.000000
   16       -6.018774   1.000000
   17       -5.715145   1.000000
   18       -5.518831   1.000000
   19       -5.358159   1.000000
   20       -5.238192   1.000000
   21       -5.101554   1.000000
   22       -4.995258   1.000000
   23       -4.668582   1.000000
   24       -4.555600   1.000000
   25       -3.922046   1.000000
   26       -3.668241   1.000000
   27       -3.245598   1.000000
   28       -3.159254   1.000000
   29       -3.059506   1.000000
   30       -2.810303   1.000000
   31       -2.756679   1.000000
   32       -2.537840   1.000000
   33       -2.450934   1.000000
   34       -2.351190   1.000000
   35       -2.249434   1.000000
   36       -2.011919   1.000000
   37       -1.908894   1.000000
   38       -1.703849   1.000000
   39       -1.612679   1.000000
   40       -1.471931   1.000000
   41       -1.338824   1.000000
   42       -1.284413   1.000000
   43       -1.124923   1.000000
   44       -0.963559   1.000000
   45       -0.911624   1.000000
   46       -0.777270   1.000000
   47       -0.665022   1.000000
   48       -0.423959   1.000000
   49       -0.306772   1.000000
   50       -0.240546   1.000000
   51       -0.139119   1.000000
   52       -0.088676   1.000000
   53        0.005010   1.000000
   54        0.085825   1.000000
   55        0.259889   1.000000
   56        0.421088   1.000000
   57        0.574882   1.000000
   58        0.652396   1.000000
   59        0.783725   1.000000
   60        0.832799   1.000000
   61        0.966110   1.000000
   62        1.003508   1.000000
   63        1.118712   1.000000
   64        1.268707   1.000000
   65        1.329233   1.000000
   66        1.448107   1.000000
   67        1.614265   1.000000
   68        1.877065   1.000000
   69        1.955817   1.000000
   70        2.059560   1.000000
   71        2.257342   1.000000
   72        2.380501   1.000000
   73        2.514379   1.000000
   74        2.557938   1.000000
   75        2.587337   1.000000
   76        2.672422   1.000000
   77        2.779794   1.000000
   78        2.847150   1.000000
   79        2.919510   1.000000
   80        3.051982   1.000000
   81        3.099580   1.000000
   82        3.161191   1.000000
   83        3.340858   1.000000
   84        3.450650   1.000000
   85        3.491781   1.000000
   86        3.630728   1.000000
   87        3.686280   1.000000
   88        3.742509   1.000000
   89        3.815880   1.000000
   90        3.872616   1.000000
   91        3.903724   1.000000
   92        4.051874   1.000000
   93        4.235464   1.000000
   94        4.427448   1.000000
   95        4.614980   1.000000
   96        4.642541   1.000000
   97        6.758495   1.000000
   98        6.819834   0.996068
   99        6.869233   0.000000
  100        7.163872   0.000000
  101        7.331766   0.000000
  102        7.454936   0.000000
  103        7.647860   0.000000
  104        7.820789   0.000000
  105        8.307360   0.000000
  106        8.715486   0.000000
  107        8.864275   0.000000
  108        9.357466   0.000000
  109        9.567250   0.000000
  110        9.712660   0.000000
  111        9.842394   0.000000
  112       10.094731   0.000000
  113       10.173442   0.000000
  114       10.275167   0.000000
  115       10.355610   0.000000
  116       10.605359   0.000000
  117       10.665472   0.000000
  118       10.736191   0.000000
  119       10.855212   0.000000
  120       11.049827   0.000000
  121       11.065722   0.000000
  122       11.296292   0.000000
  123       11.476237   0.000000
  124       11.581289   0.000000
  125       11.764836   0.000000
  126       11.979553   0.000000
  127       12.046042   0.000000
  128       12.263588   0.000000
 
 -0.3333333E+00  0.2000000E+00  0.2727273E+00  0.6060606E-02
    1      -11.759695   1.000000
    2      -11.011019   1.000000
    3      -10.820182   1.000000
    4      -10.790360   1.000000
    5      -10.572926   1.000000
    6      -10.140989   1.000000
    7       -9.124365   1.000000
    8       -8.943099   1.000000
    9       -8.810416   1.000000
   10       -8.563680   1.000000
   11       -8.305708   1.000000
   12       -8.157339   1.000000
   13       -8.043295   1.000000
   14       -7.082982   1.000000
   15       -6.803917   1.000000
   16       -6.056657   1.000000
   17       -5.774513   1.000000
   18       -5.513383   1.000000
   19       -5.263496   1.000000
   20       -5.194138   1.000000
   21       -5.132328   1.000000
   22       -4.921253   1.000000
   23       -4.641089   1.000000
   24       -4.547544   1.000000
   25       -3.996034   1.000000
   26       -3.655120   1.000000
   27       -3.299614   1.000000
   28       -3.207030   1.000000
   29       -3.123936   1.000000
   30       -2.879446   1.000000
   31       -2.728337   1.000000
   32       -2.527565   1.000000
   33       -2.409046   1.000000
   34       -2.300784   1.000000
   35       -2.157726   1.000000
   36       -2.044448   1.000000
   37       -1.979574   1.000000
   38       -1.799663   1.000000
   39       -1.616946   1.000000
   40       -1.554543   1.000000
   41       -1.362254   1.000000
   42       -1.158298   1.000000
   43       -1.116437   1.000000
   44       -0.907990   1.000000
   45       -0.781926   1.000000
   46       -0.702881   1.000000
   47       -0.560414   1.000000
   48       -0.507008   1.000000
   49       -0.404334   1.000000
   50       -0.282453   1.000000
   51       -0.202820   1.000000
   52       -0.071935   1.000000
   53        0.017817   1.000000
   54        0.260192   1.000000
   55        0.322157   1.000000
   56        0.364521   1.000000
   57        0.590576   1.000000
   58        0.622446   1.000000
   59        0.779173   1.000000
   60        0.812573   1.000000
   61        0.983094   1.000000
   62        1.090766   1.000000
   63        1.188976   1.000000
   64        1.312571   1.000000
   65        1.398028   1.000000
   66        1.458560   1.000000
   67        1.563756   1.000000
   68        1.815845   1.000000
   69        1.908739   1.000000
   70        2.164449   1.000000
   71        2.247973   1.000000
   72        2.293034   1.000000
   73        2.437222   1.000000
   74        2.514218   1.000000
   75        2.550635   1.000000
   76        2.645348   1.000000
   77        2.725440   1.000000
   78        2.805412   1.000000
   79        2.857726   1.000000
   80        2.956638   1.000000
   81        3.074643   1.000000
   82        3.108434   1.000000
   83        3.203222   1.000000
   84        3.394912   1.000000
   85        3.522158   1.000000
   86        3.606224   1.000000
   87        3.718681   1.000000
   88        3.838917   1.000000
   89        3.897965   1.000000
   90        3.918037   1.000000
   91        4.074878   1.000000
   92        4.134340   1.000000
   93        4.199527   1.000000
   94        4.292734   1.000000
   95        4.580294   1.000000
   96        4.661004   1.000000
   97        6.696991   1.000000
   98        6.899042   0.036068
   99        6.929715  -0.006351
  100        7.110746   0.000000
  101        7.282415   0.000000
  102        7.495072   0.000000
  103        7.747377   0.000000
  104        7.775714   0.000000
  105        8.319484   0.000000
  106        8.663428   0.000000
  107        8.892743   0.000000
  108        9.471437   0.000000
  109        9.549496   0.000000
  110        9.661135   0.000000
  111        9.839780   0.000000
  112       10.044112   0.000000
  113       10.184614   0.000000
  114       10.263597   0.000000
  115       10.417311   0.000000
  116       10.529932   0.000000
  117       10.709711   0.000000
  118       10.766348   0.000000
  119       10.894232   0.000000
  120       11.066373   0.000000
  121       11.190688   0.000000
  122       11.446576   0.000000
  123       11.483386   0.000000
  124       11.663600   0.000000
  125       11.902310   0.000000
  126       12.041044   0.000000
  127       12.120260   0.000000
  128       12.338865   0.000000
 
 -0.1666667E+00  0.2000000E+00  0.2727273E+00  0.6060606E-02
    1      -11.758627   1.000000
    2      -11.018921   1.000000
    3      -10.830553   1.000000
    4      -10.778338   1.000000
    5      -10.565817   1.000000
    6      -10.133329   1.000000
    7       -9.154835   1.000000
    8       -8.930121   1.000000
    9       -8.859801   1.000000
   10       -8.523837   1.000000
   11       -8.237430   1.000000
   12       -8.143742   1.000000
   13       -8.082725   1.000000
   14       -7.108546   1.000000
   15       -6.825029   1.000000
   16       -6.054933   1.000000
   17       -5.841157   1.000000
   18       -5.536145   1.000000
   19       -5.308377   1.000000
   20       -5.195647   1.000000
   21       -4.964039   1.000000
   22       -4.850285   1.000000
   23       -4.584610   1.000000
   24       -4.557218   1.000000
   25       -3.966716   1.000000
   26       -3.626898   1.000000
   27       -3.379093   1.000000
   28       -3.260259   1.000000
   29       -3.070901   1.000000
   30       -2.945029   1.000000
   31       -2.728871   1.000000
   32       -2.552782   1.000000
   33       -2.472054   1.000000
   34       -2.370203   1.000000
   35       -2.205372   1.000000
   36       -2.117278   1.000000
   37       -2.010285   1.000000
   38       -1.804271   1.000000
   39       -1.738320   1.000000
   40       -1.458763   1.000000
   41       -1.336909   1.000000
   42       -1.233562   1.000000
   43       -1.054477   1.000000
   44       -0.986261   1.000000
   45       -0.800710   1.000000
   46       -0.690323   1.000000
   47       -0.522376   1.000000
   48       -0.423951   1.000000
   49       -0.286482   1.000000
   50       -0.190869   1.000000
   51       -0.064373   1.000000
   52        0.060876   1.000000
   53        0.096295   1.000000
   54        0.274389   1.000000
   55        0.356244   1.000000
   56        0.440287   1.000000
   57        0.551582   1.000000
   58        0.654365   1.000000
   59        0.721788   1.000000
   60        0.827072   1.000000
   61        0.996023   1.000000
   62        1.136778   1.000000
   63        1.201061   1.000000
   64        1.306675   1.000000
   65        1.398144   1.000000
   66        1.481653   1.000000
   67        1.521601   1.000000
   68        1.738534   1.000000
   69        1.905342   1.000000
   70        2.064065   1.000000
   71        2.087523   1.000000
   72        2.140072   1.000000
   73        2.293978   1.000000
   74        2.408413   1.000000
   75        2.490919   1.000000
   76        2.609138   1.000000
   77        2.736351   1.000000
   78        2.813436   1.000000
   79        2.865011   1.000000
   80        2.975779   1.000000
   81        3.073518   1.000000
   82        3.163561   1.000000
   83        3.298616   1.000000
   84        3.400518   1.000000
   85        3.492176   1.000000
   86        3.569896   1.000000
   87        3.707012   1.000000
   88        3.849183   1.000000
   89        3.964514   1.000000
   90        4.037203   1.000000
   91        4.114877   1.000000
   92        4.183085   1.000000
   93        4.246809   1.000000
   94        4.333801   1.000000
   95        4.461034   1.000000
   96        4.705718   1.000000
   97        6.623654   1.000000
   98        6.938086  -0.038678
   99        7.036421  -0.033481
  100        7.128221   0.000000
  101        7.253540   0.000000
  102        7.484275   0.000000
  103        7.646534   0.000000
  104        7.803933   0.000000
  105        8.349073   0.000000
  106        8.612084   0.000000
  107        8.850029   0.000000
  108        9.332657   0.000000
  109        9.407198   0.000000
  110        9.709606   0.000000
  111        9.762267   0.000000
  112        9.927901   0.000000
  113       10.192465   0.000000
  114       10.343362   0.000000
  115       10.397096   0.000000
  116       10.604593   0.000000
  117       10.680186   0.000000
  118       10.963469   0.000000
  119       11.048696   0.000000
  120       11.172752   0.000000
  121       11.296637   0.000000
  122       11.485474   0.000000
  123       11.616573   0.000000
  124       11.781535   0.000000
  125       11.959374   0.000000
  126       12.086064   0.000000
  127       12.259687   0.000000
  128       12.394245   0.000000
 
  0.0000000E+00  0.4000000E+00  0.2727273E+00  0.6060606E-02
    1      -11.755608   1.000000
    2      -11.075065   1.000000
    3      -10.840482   1.000000
    4      -10.681545   1.000000
    5      -10.572924   1.000000
    6      -10.157603   1.000000
    7       -9.076588   1.000000
    8       -8.988995   1.000000
    9       -8.881970   1.000000
   10       -8.440707   1.000000
   11       -8.339850   1.000000
   12       -8.225269   1.000000
   13       -7.998376   1.000000
   14       -7.118496   1.000000
   15       -6.837857   1.000000
   16       -5.984399   1.000000
   17       -5.889890   1.000000
   18       -5.485632   1.000000
   19       -5.252568   1.000000
   20       -5.204674   1.000000
   21       -5.045850   1.000000
   22       -4.950505   1.000000
   23       -4.618403   1.000000
   24       -4.544766   1.000000
   25       -3.813117   1.000000
   26       -3.656235   1.000000
   27       -3.356368   1.000000
   28       -3.172388   1.000000
   29       -3.033038   1.000000
   30       -2.775489   1.000000
   31       -2.690271   1.000000
   32       -2.515448   1.000000
   33       -2.394571   1.000000
   34       -2.264860   1.000000
   35       -2.225770   1.000000
   36       -2.131615   1.000000
   37       -1.968380   1.000000
   38       -1.892139   1.000000
   39       -1.759660   1.000000
   40       -1.702038   1.000000
   41       -1.528514   1.000000
   42       -1.315143   1.000000
   43       -1.238569   1.000000
   44       -1.001762   1.000000
   45       -0.943725   1.000000
   46       -0.793485   1.000000
   47       -0.718742   1.000000
   48       -0.480227   1.000000
   49       -0.415581   1.000000
   50       -0.135395   1.000000
   51       -0.072346   1.000000
   52        0.157050   1.000000
   53        0.239234   1.000000
   54        0.262354   1.000000
   55        0.433178   1.000000
   56        0.516051   1.000000
   57        0.634478   1.000000
   58        0.719585   1.000000
   59        0.838687   1.000000
   60        0.931542   1.000000
   61        1.083081   1.000000
   62        1.120814   1.000000
   63        1.222563   1.000000
   64        1.386646   1.000000
   65        1.437461   1.000000
   66        1.530674   1.000000
   67        1.556320   1.000000
   68        1.706243   1.000000
   69        1.930188   1.000000
   70        2.000631   1.000000
   71        2.074444   1.000000
   72        2.225520   1.000000
   73        2.346637   1.000000
   74        2.391096   1.000000
   75        2.446678   1.000000
   76        2.581949   1.000000
   77        2.624005   1.000000
   78        2.786817   1.000000
   79        2.890402   1.000000
   80        3.129745   1.000000
   81        3.234618   1.000000
   82        3.288556   1.000000
   83        3.320678   1.000000
   84        3.426345   1.000000
   85        3.491162   1.000000
   86        3.653799   1.000000
   87        3.679095   1.000000
   88        3.810221   1.000000
   89        3.887840   1.000000
   90        3.974930   1.000000
   91        4.003637   1.000000
   92        4.112733   1.000000
   93        4.215120   1.000000
   94        4.319217   1.000000
   95        4.408618   1.000000
   96        4.456543   1.000000
   97        6.526341   1.000000
   98        7.033755  -0.004468
   99        7.137557   0.000000
  100        7.229675   0.000000
  101        7.293909   0.000000
  102        7.395076   0.000000
  103        7.590300   0.000000
  104        7.856023   0.000000
  105        8.466579   0.000000
  106        8.725501   0.000000
  107        8.902214   0.000000
  108        9.155776   0.000000
  109        9.256661   0.000000
  110        9.473509   0.000000
  111        9.896094   0.000000
  112        9.935670   0.000000
  113       10.119256   0.000000
  114       10.313494   0.000000
  115       10.440639   0.000000
  116       10.572890   0.000000
  117       10.612814   0.000000
  118       10.883992   0.000000
  119       10.931355   0.000000
  120       11.019603   0.000000
  121       11.382129   0.000000
  122       11.433638   0.000000
  123       11.624442   0.000000
  124       11.862040   0.000000
  125       11.890532   0.000000
  126       11.956994   0.000000
  127       12.170718   0.000000
  128       12.237560   0.000000
 
  0.1666667E+00  0.4000000E+00  0.2727273E+00  0.6060606E-02
    1      -11.765771   1.000000
    2      -11.076322   1.000000
    3      -10.798195   1.000000
    4      -10.680249   1.000000
    5      -10.570404   1.000000
    6      -10.189171   1.000000
    7       -9.112092   1.000000
    8       -8.976500   1.000000
    9       -8.841610   1.000000
   10       -8.500817   1.000000
   11       -8.325605   1.000000
   12       -8.283380   1.000000
   13       -7.941712   1.000000
   14       -7.068282   1.000000
   15       -6.836426   1.000000
   16       -5.950822   1.000000
   17       -5.891551   1.000000
   18       -5.509679   1.000000
   19       -5.263257   1.000000
   20       -5.235576   1.000000
   21       -5.091388   1.000000
   22       -4.950719   1.000000
   23       -4.604011   1.000000
   24       -4.556789   1.000000
   25       -3.779063   1.000000
   26       -3.631786   1.000000
   27       -3.246915   1.000000
   28       -3.105483   1.000000
   29       -2.972382   1.000000
   30       -2.854109   1.000000
   31       -2.623057   1.000000
   32       -2.560822   1.000000
   33       -2.497136   1.000000
   34       -2.355236   1.000000
   35       -2.239894   1.000000
   36       -2.228390   1.000000
   37       -2.107988   1.000000
   38       -1.962145   1.000000
   39       -1.751000   1.000000
   40       -1.547052   1.000000
   41       -1.459513   1.000000
   42       -1.226276   1.000000
   43       -1.162728   1.000000
   44       -1.084183   1.000000
   45       -0.801402   1.000000
   46       -0.638491   1.000000
   47       -0.547584   1.000000
   48       -0.454808   1.000000
   49       -0.403695   1.000000
   50       -0.316266   1.000000
   51       -0.183822   1.000000
   52        0.019354   1.000000
   53        0.090689   1.000000
   54        0.164528   1.000000
   55        0.402919   1.000000
   56        0.471584   1.000000
   57        0.668012   1.000000
   58        0.732811   1.000000
   59        0.826864   1.000000
   60        0.924144   1.000000
   61        1.015491   1.000000
   62        1.138446   1.000000
   63        1.292287   1.000000
   64        1.329742   1.000000
   65        1.416103   1.000000
   66        1.492076   1.000000
   67        1.580070   1.000000
   68        1.716302   1.000000
   69        1.925222   1.000000
   70        2.016204   1.000000
   71        2.147237   1.000000
   72        2.256486   1.000000
   73        2.277482   1.000000
   74        2.436743   1.000000
   75        2.521446   1.000000
   76        2.600220   1.000000
   77        2.718271   1.000000
   78        2.786870   1.000000
   79        2.953794   1.000000
   80        3.079261   1.000000
   81        3.174908   1.000000
   82        3.236531   1.000000
   83        3.322572   1.000000
   84        3.518671   1.000000
   85        3.571412   1.000000
   86        3.658051   1.000000
   87        3.773619   1.000000
   88        3.854091   1.000000
   89        3.899413   1.000000
   90        3.989508   1.000000
   91        4.027619   1.000000
   92        4.127327   1.000000
   93        4.189773   1.000000
   94        4.232894   1.000000
   95        4.413736   1.000000
   96        4.455204   1.000000
   97        6.514226   1.000000
   98        7.039505  -0.031334
   99        7.090351   0.000000
  100        7.190419   0.000000
  101        7.311364   0.000000
  102        7.371283   0.000000
  103        7.657038   0.000000
  104        7.804121   0.000000
  105        8.468957   0.000000
  106        8.704843   0.000000
  107        8.924213   0.000000
  108        9.103160   0.000000
  109        9.195212   0.000000
  110        9.445499   0.000000
  111        9.854377   0.000000
  112        9.951688   0.000000
  113       10.092934   0.000000
  114       10.452508   0.000000
  115       10.508965   0.000000
  116       10.594823   0.000000
  117       10.671882   0.000000
  118       10.775257   0.000000
  119       10.851416   0.000000
  120       11.014273   0.000000
  121       11.311589   0.000000
  122       11.357318   0.000000
  123       11.514555   0.000000
  124       11.683274   0.000000
  125       11.782096   0.000000
  126       11.917764   0.000000
  127       12.204469   0.000000
  128       12.387841   0.000000
 
  0.3333333E+00  0.4000000E+00  0.2727273E+00  0.6060606E-02
    1      -11.769550   1.000000
    2      -11.066346   1.000000
    3      -10.784917   1.000000
    4      -10.688294   1.000000
    5      -10.573031   1.000000
    6      -10.201864   1.000000
    7       -9.145535   1.000000
    8       -8.967815   1.000000
    9       -8.740203   1.000000
   10       -8.562138   1.000000
   11       -8.432098   1.000000
   12       -8.249506   1.000000
   13       -7.886498   1.000000
   14       -7.025238   1.000000
   15       -6.822015   1.000000
   16       -5.984290   1.000000
   17       -5.831799   1.000000
   18       -5.527453   1.000000
   19       -5.321998   1.000000
   20       -5.219484   1.000000
   21       -5.117520   1.000000
   22       -4.971814   1.000000
   23       -4.620408   1.000000
   24       -4.562518   1.000000
   25       -3.787607   1.000000
   26       -3.662794   1.000000
   27       -3.200289   1.000000
   28       -3.141376   1.000000
   29       -3.013652   1.000000
   30       -2.878406   1.000000
   31       -2.741370   1.000000
   32       -2.661383   1.000000
   33       -2.537491   1.000000
   34       -2.332353   1.000000
   35       -2.224506   1.000000
   36       -2.122157   1.000000
   37       -2.025903   1.000000
   38       -1.873471   1.000000
   39       -1.593038   1.000000
   40       -1.480255   1.000000
   41       -1.359789   1.000000
   42       -1.110011   1.000000
   43       -1.000935   1.000000
   44       -0.966176   1.000000
   45       -0.715877   1.000000
   46       -0.576899   1.000000
   47       -0.545884   1.000000
   48       -0.489445   1.000000
   49       -0.361794   1.000000
   50       -0.264811   1.000000
   51       -0.193163   1.000000
   52       -0.129954   1.000000
   53       -0.070975   1.000000
   54        0.027628   1.000000
   55        0.328350   1.000000
   56        0.353282   1.000000
   57        0.496090   1.000000
   58        0.575032   1.000000
   59        0.646561   1.000000
   60        0.804033   1.000000
   61        0.860766   1.000000
   62        0.991521   1.000000
   63        1.229494   1.000000
   64        1.327914   1.000000
   65        1.349411   1.000000
   66        1.512088   1.000000
   67        1.626014   1.000000
   68        1.806819   1.000000
   69        1.918966   1.000000
   70        2.022108   1.000000
   71        2.214250   1.000000
   72        2.250393   1.000000
   73        2.367728   1.000000
   74        2.623298   1.000000
   75        2.670808   1.000000
   76        2.761341   1.000000
   77        2.788612   1.000000
   78        2.910466   1.000000
   79        3.011575   1.000000
   80        3.087362   1.000000
   81        3.161233   1.000000
   82        3.290456   1.000000
   83        3.419855   1.000000
   84        3.501513   1.000000
   85        3.628542   1.000000
   86        3.654064   1.000000
   87        3.710404   1.000000
   88        3.770044   1.000000
   89        3.849674   1.000000
   90        3.960202   1.000000
   91        3.993420   1.000000
   92        4.072716   1.000000
   93        4.194138   1.000000
   94        4.312707   1.000000
   95        4.384520   1.000000
   96        4.478540   1.000000
   97        6.546880   1.000000
   98        6.925292   0.234664
   99        7.015485   0.000000
  100        7.227066   0.000000
  101        7.345146   0.000000
  102        7.409177   0.000000
  103        7.623684   0.000000
  104        7.764581   0.000000
  105        8.481822   0.000000
  106        8.744934   0.000000
  107        8.963471   0.000000
  108        9.195190   0.000000
  109        9.295902   0.000000
  110        9.477807   0.000000
  111        9.814169   0.000000
  112        9.952614   0.000000
  113       10.043925   0.000000
  114       10.456016   0.000000
  115       10.534299   0.000000
  116       10.633603   0.000000
  117       10.704845   0.000000
  118       10.760715   0.000000
  119       10.863922   0.000000
  120       10.996043   0.000000
  121       11.042482   0.000000
  122       11.241650   0.000000
  123       11.356434   0.000000
  124       11.484956   0.000000
  125       11.716316   0.000000
  126       11.881077   0.000000
  127       12.118787   0.000000
  128       12.356574   0.000000
 
  0.5000000E+00  0.4000000E+00  0.2727273E+00  0.6060606E-02
    1      -11.763414   1.000000
    2      -11.057044   1.000000
    3      -10.793322   1.000000
    4      -10.725630   1.000000
    5      -10.571839   1.000000
    6      -10.179719   1.000000
    7       -9.149653   1.000000
    8       -8.970720   1.000000
    9       -8.641074   1.000000
   10       -8.589529   1.000000
   11       -8.496465   1.000000
   12       -8.246046   1.000000
   13       -7.863289   1.000000
   14       -7.032710   1.000000
   15       -6.808648   1.000000
   16       -6.030539   1.000000
   17       -5.760925   1.000000
   18       -5.540468   1.000000
   19       -5.409880   1.000000
   20       -5.176255   1.000000
   21       -5.079383   1.000000
   22       -4.956684   1.000000
   23       -4.656243   1.000000
   24       -4.580050   1.000000
   25       -3.799397   1.000000
   26       -3.712055   1.000000
   27       -3.322929   1.000000
   28       -3.227823   1.000000
   29       -3.075920   1.000000
   30       -2.944861   1.000000
   31       -2.775019   1.000000
   32       -2.630665   1.000000
   33       -2.520638   1.000000
   34       -2.338510   1.000000
   35       -2.176689   1.000000
   36       -1.946732   1.000000
   37       -1.754088   1.000000
   38       -1.629315   1.000000
   39       -1.598307   1.000000
   40       -1.416789   1.000000
   41       -1.270099   1.000000
   42       -1.176252   1.000000
   43       -1.009482   1.000000
   44       -0.801961   1.000000
   45       -0.714996   1.000000
   46       -0.635701   1.000000
   47       -0.532993   1.000000
   48       -0.462021   1.000000
   49       -0.419245   1.000000
   50       -0.348222   1.000000
   51       -0.256414   1.000000
   52       -0.164947   1.000000
   53        0.032608   1.000000
   54        0.095278   1.000000
   55        0.146446   1.000000
   56        0.263407   1.000000
   57        0.336279   1.000000
   58        0.411292   1.000000
   59        0.556235   1.000000
   60        0.696461   1.000000
   61        0.925350   1.000000
   62        1.026047   1.000000
   63        1.165694   1.000000
   64        1.262437   1.000000
   65        1.350574   1.000000
   66        1.451219   1.000000
   67        1.576150   1.000000
   68        1.832778   1.000000
   69        1.956331   1.000000
   70        2.021439   1.000000
   71        2.175564   1.000000
   72        2.340949   1.000000
   73        2.474147   1.000000
   74        2.613690   1.000000
   75        2.718248   1.000000
   76        2.806323   1.000000
   77        2.924811   1.000000
   78        2.978639   1.000000
   79        3.017759   1.000000
   80        3.151358   1.000000
   81        3.267428   1.000000
   82        3.288768   1.000000
   83        3.441177   1.000000
   84        3.485784   1.000000
   85        3.595790   1.000000
   86        3.624852   1.000000
   87        3.679190   1.000000
   88        3.704447   1.000000
   89        3.785672   1.000000
   90        3.916201   1.000000
   91        3.947990   1.000000
   92        4.064109   1.000000
   93        4.218090   1.000000
   94        4.298147   1.000000
   95        4.355035   1.000000
   96        4.540509   1.000000
   97        6.660745   1.000000
   98        6.768282   1.058357
   99        6.972885   0.000000
  100        7.292848   0.000000
  101        7.344032   0.000000
  102        7.426919   0.000000
  103        7.599809   0.000000
  104        7.747891   0.000000
  105        8.485276   0.000000
  106        8.823719   0.000000
  107        8.940438   0.000000
  108        9.364195   0.000000
  109        9.412206   0.000000
  110        9.668690   0.000000
  111        9.816283   0.000000
  112        9.914889   0.000000
  113       10.059485   0.000000
  114       10.342667   0.000000
  115       10.509544   0.000000
  116       10.570077   0.000000
  117       10.664441   0.000000
  118       10.715638   0.000000
  119       10.824432   0.000000
  120       10.974155   0.000000
  121       11.067306   0.000000
  122       11.184655   0.000000
  123       11.368634   0.000000
  124       11.516115   0.000000
  125       11.667880   0.000000
  126       11.879929   0.000000
  127       12.020988   0.000000
  128       12.273460   0.000000
 
 -0.3333333E+00  0.4000000E+00  0.2727273E+00  0.6060606E-02
    1      -11.753133   1.000000
    2      -11.057335   1.000000
    3      -10.829775   1.000000
    4      -10.735426   1.000000
    5      -10.568673   1.000000
    6      -10.149903   1.000000
    7       -9.120703   1.000000
    8       -8.991187   1.000000
    9       -8.728906   1.000000
   10       -8.500023   1.000000
   11       -8.420795   1.000000
   12       -8.275584   1.000000
   13       -7.890733   1.000000
   14       -7.073258   1.000000
   15       -6.820497   1.000000
   16       -6.061287   1.000000
   17       -5.795204   1.000000
   18       -5.506241   1.000000
   19       -5.290667   1.000000
   20       -5.176432   1.000000
   21       -5.070037   1.000000
   22       -4.970915   1.000000
   23       -4.671842   1.000000
   24       -4.584025   1.000000
   25       -3.821462   1.000000
   26       -3.728015   1.000000
   27       -3.438475   1.000000
   28       -3.310248   1.000000
   29       -3.011458   1.000000
   30       -2.917690   1.000000
   31       -2.764315   1.000000
   32       -2.576277   1.000000
   33       -2.505746   1.000000
   34       -2.311892   1.000000
   35       -2.139516   1.000000
   36       -1.863824   1.000000
   37       -1.787600   1.000000
   38       -1.698297   1.000000
   39       -1.499604   1.000000
   40       -1.404173   1.000000
   41       -1.288374   1.000000
   42       -1.118159   1.000000
   43       -1.055988   1.000000
   44       -0.966880   1.000000
   45       -0.826627   1.000000
   46       -0.729064   1.000000
   47       -0.635574   1.000000
   48       -0.473806   1.000000
   49       -0.401416   1.000000
   50       -0.329638   1.000000
   51       -0.197276   1.000000
   52       -0.067813   1.000000
   53       -0.006244   1.000000
   54        0.082513   1.000000
   55        0.184667   1.000000
   56        0.361041   1.000000
   57        0.418971   1.000000
   58        0.521628   1.000000
   59        0.649014   1.000000
   60        0.786491   1.000000
   61        0.894006   1.000000
   62        1.043290   1.000000
   63        1.135131   1.000000
   64        1.281650   1.000000
   65        1.354745   1.000000
   66        1.443468   1.000000
   67        1.616022   1.000000
   68        1.852925   1.000000
   69        1.897044   1.000000
   70        2.122282   1.000000
   71        2.212012   1.000000
   72        2.337570   1.000000
   73        2.451082   1.000000
   74        2.500314   1.000000
   75        2.654812   1.000000
   76        2.709082   1.000000
   77        2.797361   1.000000
   78        2.880955   1.000000
   79        3.007115   1.000000
   80        3.092773   1.000000
   81        3.213726   1.000000
   82        3.330530   1.000000
   83        3.378054   1.000000
   84        3.453025   1.000000
   85        3.567151   1.000000
   86        3.622251   1.000000
   87        3.749364   1.000000
   88        3.769763   1.000000
   89        3.900519   1.000000
   90        3.946796   1.000000
   91        4.023354   1.000000
   92        4.061120   1.000000
   93        4.181653   1.000000
   94        4.248450   1.000000
   95        4.310011   1.000000
   96        4.487123   1.000000
   97        6.591325   1.000000
   98        6.910680   0.077915
   99        7.040846   0.000000
  100        7.192827   0.000000
  101        7.327400   0.000000
  102        7.417048   0.000000
  103        7.684334   0.000000
  104        7.735314   0.000000
  105        8.480986   0.000000
  106        8.841301   0.000000
  107        8.912336   0.000000
  108        9.367066   0.000000
  109        9.504318   0.000000
  110        9.786875   0.000000
  111        9.868159   0.000000
  112        9.929802   0.000000
  113       10.026793   0.000000
  114       10.218125   0.000000
  115       10.451067   0.000000
  116       10.629521   0.000000
  117       10.664433   0.000000
  118       10.696663   0.000000
  119       10.793248   0.000000
  120       10.993711   0.000000
  121       11.162664   0.000000
  122       11.189998   0.000000
  123       11.435680   0.000000
  124       11.623121   0.000000
  125       11.743204   0.000000
  126       11.980739   0.000000
  127       12.059484   0.000000
  128       12.332040   0.000000
 
 -0.1666667E+00  0.4000000E+00  0.2727273E+00  0.6060606E-02
    1      -11.749100   1.000000
    2      -11.064814   1.000000
    3      -10.860863   1.000000
    4      -10.704806   1.000000
    5      -10.570750   1.000000
    6      -10.140070   1.000000
    7       -9.078511   1.000000
    8       -9.008241   1.000000
    9       -8.826990   1.000000
   10       -8.445789   1.000000
   11       -8.337923   1.000000
   12       -8.263723   1.000000
   13       -7.963882   1.000000
   14       -7.117248   1.000000
   15       -6.833934   1.000000
   16       -6.045854   1.000000
   17       -5.850703   1.000000
   18       -5.468541   1.000000
   19       -5.225790   1.000000
   20       -5.148298   1.000000
   21       -5.070622   1.000000
   22       -4.998496   1.000000
   23       -4.653878   1.000000
   24       -4.555943   1.000000
   25       -3.841079   1.000000
   26       -3.703349   1.000000
   27       -3.442264   1.000000
   28       -3.241610   1.000000
   29       -3.053334   1.000000
   30       -2.873545   1.000000
   31       -2.697608   1.000000
   32       -2.519698   1.000000
   33       -2.363646   1.000000
   34       -2.278670   1.000000
   35       -2.096782   1.000000
   36       -2.031595   1.000000
   37       -1.933879   1.000000
   38       -1.872634   1.000000
   39       -1.599756   1.000000
   40       -1.466764   1.000000
   41       -1.419179   1.000000
   42       -1.265085   1.000000
   43       -1.200484   1.000000
   44       -1.102279   1.000000
   45       -0.896060   1.000000
   46       -0.813978   1.000000
   47       -0.667969   1.000000
   48       -0.461113   1.000000
   49       -0.275027   1.000000
   50       -0.214881   1.000000
   51       -0.120655   1.000000
   52        0.056896   1.000000
   53        0.150787   1.000000
   54        0.209368   1.000000
   55        0.266673   1.000000
   56        0.448156   1.000000
   57        0.525341   1.000000
   58        0.645001   1.000000
   59        0.753956   1.000000
   60        0.807122   1.000000
   61        1.054260   1.000000
   62        1.126396   1.000000
   63        1.197620   1.000000
   64        1.351056   1.000000
   65        1.384981   1.000000
   66        1.487385   1.000000
   67        1.589280   1.000000
   68        1.743715   1.000000
   69        1.959605   1.000000
   70        2.041664   1.000000
   71        2.146817   1.000000
   72        2.200684   1.000000
   73        2.381055   1.000000
   74        2.491024   1.000000
   75        2.583854   1.000000
   76        2.605405   1.000000
   77        2.707351   1.000000
   78        2.819147   1.000000
   79        2.957037   1.000000
   80        3.006466   1.000000
   81        3.189863   1.000000
   82        3.303564   1.000000
   83        3.380180   1.000000
   84        3.419816   1.000000
   85        3.495048   1.000000
   86        3.665178   1.000000
   87        3.735492   1.000000
   88        3.806961   1.000000
   89        3.868086   1.000000
   90        3.931821   1.000000
   91        4.021713   1.000000
   92        4.116280   1.000000
   93        4.222943   1.000000
   94        4.291590   1.000000
   95        4.359151   1.000000
   96        4.414548   1.000000
   97        6.539866   1.000000
   98        7.046499  -0.006015
   99        7.138751   0.000000
  100        7.175790   0.000000
  101        7.255497   0.000000
  102        7.440623   0.000000
  103        7.596261   0.000000
  104        7.835826   0.000000
  105        8.472152   0.000000
  106        8.783490   0.000000
  107        8.909232   0.000000
  108        9.273381   0.000000
  109        9.422208   0.000000
  110        9.629723   0.000000
  111        9.891630   0.000000
  112        9.971237   0.000000
  113       10.030533   0.000000
  114       10.192299   0.000000
  115       10.422272   0.000000
  116       10.585542   0.000000
  117       10.656773   0.000000
  118       10.851458   0.000000
  119       10.914297   0.000000
  120       11.056420   0.000000
  121       11.159722   0.000000
  122       11.408836   0.000000
  123       11.564367   0.000000
  124       11.745063   0.000000
  125       11.856679   0.000000
  126       11.962513   0.000000
  127       12.184071   0.000000
  128       12.323638   0.000000
 
  0.0000000E+00 -0.4000000E+00  0.2727273E+00  0.6060606E-02
    1      -11.739415   1.000000
    2      -11.141432   1.000000
    3      -10.814105   1.000000
    4      -10.695105   1.000000
    5      -10.512086   1.000000
    6      -10.187260   1.000000
    7       -9.103801   1.000000
    8       -8.939677   1.000000
    9       -8.822661   1.000000
   10       -8.529331   1.000000
   11       -8.353431   1.000000
   12       -8.230777   1.000000
   13       -7.942305   1.000000
   14       -7.126199   1.000000
   15       -6.883767   1.000000
   16       -5.921339   1.000000
   17       -5.881014   1.000000
   18       -5.425669   1.000000
   19       -5.335949   1.000000
   20       -5.166858   1.000000
   21       -5.132945   1.000000
   22       -5.003477   1.000000
   23       -4.643438   1.000000
   24       -4.417887   1.000000
   25       -3.895134   1.000000
   26       -3.659458   1.000000
   27       -3.385712   1.000000
   28       -3.267383   1.000000
   29       -3.133189   1.000000
   30       -2.732788   1.000000
   31       -2.657021   1.000000
   32       -2.532063   1.000000
   33       -2.331804   1.000000
   34       -2.247917   1.000000
   35       -2.088158   1.000000
   36       -1.958258   1.000000
   37       -1.892143   1.000000
   38       -1.832585   1.000000
   39       -1.687804   1.000000
   40       -1.638760   1.000000
   41       -1.501066   1.000000
   42       -1.271338   1.000000
   43       -1.193142   1.000000
   44       -1.097997   1.000000
   45       -1.013323   1.000000
   46       -0.913778   1.000000
   47       -0.792517   1.000000
   48       -0.477377   1.000000
   49       -0.359495   1.000000
   50       -0.193212   1.000000
   51       -0.146147   1.000000
   52        0.018833   1.000000
   53        0.259056   1.000000
   54        0.314145   1.000000
   55        0.411792   1.000000
   56        0.482933   1.000000
   57        0.537683   1.000000
   58        0.606078   1.000000
   59        0.763413   1.000000
   60        0.893705   1.000000
   61        1.027121   1.000000
   62        1.130144   1.000000
   63        1.198564   1.000000
   64        1.293314   1.000000
   65        1.410375   1.000000
   66        1.605639   1.000000
   67        1.664160   1.000000
   68        1.867081   1.000000
   69        1.875311   1.000000
   70        1.984139   1.000000
   71        2.092348   1.000000
   72        2.234475   1.000000
   73        2.385433   1.000000
   74        2.431100   1.000000
   75        2.531776   1.000000
   76        2.644021   1.000000
   77        2.674437   1.000000
   78        2.870785   1.000000
   79        2.940444   1.000000
   80        3.041967   1.000000
   81        3.156835   1.000000
   82        3.251319   1.000000
   83        3.345867   1.000000
   84        3.400480   1.000000
   85        3.525587   1.000000
   86        3.586329   1.000000
   87        3.731228   1.000000
   88        3.807873   1.000000
   89        3.850251   1.000000
   90        3.903012   1.000000
   91        4.072513   1.000000
   92        4.158723   1.000000
   93        4.254981   1.000000
   94        4.288661   1.000000
   95        4.335382   1.000000
   96        4.547499   1.000000
   97        6.597181   1.000000
   98        6.934261   0.020945
   99        7.129512   0.000000
  100        7.264761   0.000000
  101        7.326921   0.000000
  102        7.368168   0.000000
  103        7.557383   0.000000
  104        7.875061   0.000000
  105        8.493087   0.000000
  106        8.800740   0.000000
  107        8.935320   0.000000
  108        9.085563   0.000000
  109        9.284970   0.000000
  110        9.498153   0.000000
  111        9.874433   0.000000
  112        9.988349   0.000000
  113       10.061648   0.000000
  114       10.350336   0.000000
  115       10.554062   0.000000
  116       10.657622   0.000000
  117       10.681930   0.000000
  118       10.838681   0.000000
  119       10.905274   0.000000
  120       11.035634   0.000000
  121       11.194034   0.000000
  122       11.463866   0.000000
  123       11.576807   0.000000
  124       11.653352   0.000000
  125       11.766549   0.000000
  126       11.951871   0.000000
  127       12.110908   0.000000
  128       12.313564   0.000000
 
  0.1666667E+00 -0.4000000E+00  0.2727273E+00  0.6060606E-02
    1      -11.745732   1.000000
    2      -11.152810   1.000000
    3      -10.771372   1.000000
    4      -10.684484   1.000000
    5      -10.526289   1.000000
    6      -10.204274   1.000000
    7       -9.076601   1.000000
    8       -8.941242   1.000000
    9       -8.854739   1.000000
   10       -8.511097   1.000000
   11       -8.382879   1.000000
   12       -8.256753   1.000000
   13       -7.943089   1.000000
   14       -7.088816   1.000000
   15       -6.880171   1.000000
   16       -5.911785   1.000000
   17       -5.843839   1.000000
   18       -5.445273   1.000000
   19       -5.355847   1.000000
   20       -5.214193   1.000000
   21       -5.104021   1.000000
   22       -5.048372   1.000000
   23       -4.655159   1.000000
   24       -4.457886   1.000000
   25       -3.791809   1.000000
   26       -3.624511   1.000000
   27       -3.294796   1.000000
   28       -3.096552   1.000000
   29       -3.002941   1.000000
   30       -2.801624   1.000000
   31       -2.652787   1.000000
   32       -2.488368   1.000000
   33       -2.382754   1.000000
   34       -2.319829   1.000000
   35       -2.179334   1.000000
   36       -2.112660   1.000000
   37       -2.035512   1.000000
   38       -1.899660   1.000000
   39       -1.738894   1.000000
   40       -1.675193   1.000000
   41       -1.522967   1.000000
   42       -1.225924   1.000000
   43       -1.148744   1.000000
   44       -1.065536   1.000000
   45       -0.947878   1.000000
   46       -0.884311   1.000000
   47       -0.672968   1.000000
   48       -0.504169   1.000000
   49       -0.414501   1.000000
   50       -0.265304   1.000000
   51       -0.222746   1.000000
   52       -0.077055   1.000000
   53        0.087363   1.000000
   54        0.275897   1.000000
   55        0.340455   1.000000
   56        0.461465   1.000000
   57        0.591902   1.000000
   58        0.735738   1.000000
   59        0.848172   1.000000
   60        0.933620   1.000000
   61        1.130788   1.000000
   62        1.242250   1.000000
   63        1.288619   1.000000
   64        1.410960   1.000000
   65        1.502984   1.000000
   66        1.559509   1.000000
   67        1.628110   1.000000
   68        1.772595   1.000000
   69        1.892536   1.000000
   70        2.011691   1.000000
   71        2.164018   1.000000
   72        2.272061   1.000000
   73        2.302258   1.000000
   74        2.414336   1.000000
   75        2.539257   1.000000
   76        2.644446   1.000000
   77        2.721492   1.000000
   78        2.818289   1.000000
   79        2.909053   1.000000
   80        3.089754   1.000000
   81        3.202004   1.000000
   82        3.255224   1.000000
   83        3.288315   1.000000
   84        3.479012   1.000000
   85        3.534274   1.000000
   86        3.643658   1.000000
   87        3.696519   1.000000
   88        3.722541   1.000000
   89        3.814633   1.000000
   90        3.939430   1.000000
   91        4.022973   1.000000
   92        4.111103   1.000000
   93        4.198609   1.000000
   94        4.311750   1.000000
   95        4.368594   1.000000
   96        4.531832   1.000000
   97        6.595054   1.000000
   98        6.951745  -0.029886
   99        7.042559   0.000000
  100        7.242793   0.000000
  101        7.362427   0.000000
  102        7.380069   0.000000
  103        7.563004   0.000000
  104        7.874889   0.000000
  105        8.489979   0.000000
  106        8.810351   0.000000
  107        8.928373   0.000000
  108        9.114595   0.000000
  109        9.269469   0.000000
  110        9.453108   0.000000
  111        9.892861   0.000000
  112        9.978105   0.000000
  113       10.203635   0.000000
  114       10.274957   0.000000
  115       10.508463   0.000000
  116       10.618608   0.000000
  117       10.679119   0.000000
  118       10.793351   0.000000
  119       10.896986   0.000000
  120       10.977368   0.000000
  121       11.187759   0.000000
  122       11.438024   0.000000
  123       11.521255   0.000000
  124       11.596662   0.000000
  125       11.678405   0.000000
  126       11.899452   0.000000
  127       12.153071   0.000000
  128       12.403429   0.000000
 
  0.3333333E+00 -0.4000000E+00  0.2727273E+00  0.6060606E-02
    1      -11.748205   1.000000
    2      -11.149350   1.000000
    3      -10.767757   1.000000
    4      -10.679036   1.000000
    5      -10.530279   1.000000
    6      -10.209379   1.000000
    7       -9.076112   1.000000
    8       -8.981806   1.000000
    9       -8.778167   1.000000
   10       -8.549243   1.000000
   11       -8.402087   1.000000
   12       -8.312710   1.000000
   13       -7.877696   1.000000
   14       -7.029160   1.000000
   15       -6.874510   1.000000
   16       -5.933309   1.000000
   17       -5.822177   1.000000
   18       -5.486087   1.000000
   19       -5.348949   1.000000
   20       -5.281016   1.000000
   21       -5.142031   1.000000
   22       -4.982590   1.000000
   23       -4.627954   1.000000
   24       -4.483571   1.000000
   25       -3.805538   1.000000
   26       -3.655151   1.000000
   27       -3.285477   1.000000
   28       -3.140469   1.000000
   29       -3.015923   1.000000
   30       -2.817525   1.000000
   31       -2.733881   1.000000
   32       -2.616644   1.000000
   33       -2.452535   1.000000
   34       -2.294715   1.000000
   35       -2.158459   1.000000
   36       -2.009398   1.000000
   37       -1.950519   1.000000
   38       -1.861607   1.000000
   39       -1.597508   1.000000
   40       -1.526873   1.000000
   41       -1.471167   1.000000
   42       -1.314241   1.000000
   43       -1.069129   1.000000
   44       -0.872364   1.000000
   45       -0.816654   1.000000
   46       -0.700244   1.000000
   47       -0.635195   1.000000
   48       -0.521155   1.000000
   49       -0.446952   1.000000
   50       -0.301079   1.000000
   51       -0.244684   1.000000
   52       -0.082162   1.000000
   53       -0.011066   1.000000
   54        0.051149   1.000000
   55        0.191791   1.000000
   56        0.440721   1.000000
   57        0.579355   1.000000
   58        0.668594   1.000000
   59        0.746663   1.000000
   60        0.873718   1.000000
   61        0.914038   1.000000
   62        0.982082   1.000000
   63        1.259755   1.000000
   64        1.380736   1.000000
   65        1.416422   1.000000
   66        1.554359   1.000000
   67        1.631194   1.000000
   68        1.754768   1.000000
   69        1.868217   1.000000
   70        2.048954   1.000000
   71        2.188502   1.000000
   72        2.298806   1.000000
   73        2.387094   1.000000
   74        2.557971   1.000000
   75        2.668178   1.000000
   76        2.718663   1.000000
   77        2.855754   1.000000
   78        2.957881   1.000000
   79        2.983552   1.000000
   80        3.101188   1.000000
   81        3.193434   1.000000
   82        3.267867   1.000000
   83        3.333064   1.000000
   84        3.498556   1.000000
   85        3.575286   1.000000
   86        3.658494   1.000000
   87        3.720748   1.000000
   88        3.761458   1.000000
   89        3.812696   1.000000
   90        3.888825   1.000000
   91        3.992743   1.000000
   92        4.025219   1.000000
   93        4.141014   1.000000
   94        4.340450   1.000000
   95        4.405419   1.000000
   96        4.494225   1.000000
   97        6.613605   1.000000
   98        6.847267   0.480268
   99        7.105774   0.000000
  100        7.194429   0.000000
  101        7.374761   0.000000
  102        7.392642   0.000000
  103        7.579356   0.000000
  104        7.789455   0.000000
  105        8.558829   0.000000
  106        8.855334   0.000000
  107        8.970062   0.000000
  108        9.177304   0.000000
  109        9.354771   0.000000
  110        9.545330   0.000000
  111        9.817509   0.000000
  112        9.998560   0.000000
  113       10.097418   0.000000
  114       10.360479   0.000000
  115       10.424821   0.000000
  116       10.586195   0.000000
  117       10.708503   0.000000
  118       10.782493   0.000000
  119       10.919535   0.000000
  120       10.952809   0.000000
  121       11.087817   0.000000
  122       11.236911   0.000000
  123       11.348336   0.000000
  124       11.481881   0.000000
  125       11.609544   0.000000
  126       11.815878   0.000000
  127       12.138572   0.000000
  128       12.456371   0.000000
 
  0.5000000E+00 -0.4000000E+00  0.2727273E+00  0.6060606E-02
    1      -11.744426   1.000000
    2      -11.135254   1.000000
    3      -10.798668   1.000000
    4      -10.695461   1.000000
    5      -10.517835   1.000000
    6      -10.195923   1.000000
    7       -9.116844   1.000000
    8       -8.964600   1.000000
    9       -8.694362   1.000000
   10       -8.587425   1.000000
   11       -8.471895   1.000000
   12       -8.288499   1.000000
   13       -7.821608   1.000000
   14       -7.008487   1.000000
   15       -6.869321   1.000000
   16       -5.967555   1.000000
   17       -5.801887   1.000000
   18       -5.548788   1.000000
   19       -5.402778   1.000000
   20       -5.283129   1.000000
   21       -5.085194   1.000000
   22       -4.914306   1.000000
   23       -4.590962   1.000000
   24       -4.480092   1.000000
   25       -3.878097   1.000000
   26       -3.708981   1.000000
   27       -3.382454   1.000000
   28       -3.322563   1.000000
   29       -3.191799   1.000000
   30       -2.980597   1.000000
   31       -2.778574   1.000000
   32       -2.569357   1.000000
   33       -2.418109   1.000000
   34       -2.168105   1.000000
   35       -2.027866   1.000000
   36       -1.861843   1.000000
   37       -1.775486   1.000000
   38       -1.672599   1.000000
   39       -1.578857   1.000000
   40       -1.457117   1.000000
   41       -1.371411   1.000000
   42       -1.099138   1.000000
   43       -0.944011   1.000000
   44       -0.818491   1.000000
   45       -0.706311   1.000000
   46       -0.640576   1.000000
   47       -0.577761   1.000000
   48       -0.511838   1.000000
   49       -0.502615   1.000000
   50       -0.394634   1.000000
   51       -0.298991   1.000000
   52       -0.115449   1.000000
   53       -0.046529   1.000000
   54        0.106030   1.000000
   55        0.180817   1.000000
   56        0.263402   1.000000
   57        0.397976   1.000000
   58        0.526470   1.000000
   59        0.651634   1.000000
   60        0.686113   1.000000
   61        0.805445   1.000000
   62        0.890360   1.000000
   63        1.134421   1.000000
   64        1.263290   1.000000
   65        1.353509   1.000000
   66        1.455734   1.000000
   67        1.563915   1.000000
   68        1.683860   1.000000
   69        1.955324   1.000000
   70        2.057586   1.000000
   71        2.124824   1.000000
   72        2.335418   1.000000
   73        2.480567   1.000000
   74        2.638331   1.000000
   75        2.737658   1.000000
   76        2.863801   1.000000
   77        2.926418   1.000000
   78        3.010101   1.000000
   79        3.034832   1.000000
   80        3.193865   1.000000
   81        3.260524   1.000000
   82        3.291831   1.000000
   83        3.403064   1.000000
   84        3.454157   1.000000
   85        3.547887   1.000000
   86        3.639098   1.000000
   87        3.681934   1.000000
   88        3.753503   1.000000
   89        3.806653   1.000000
   90        3.897988   1.000000
   91        3.962945   1.000000
   92        4.084617   1.000000
   93        4.214923   1.000000
   94        4.345535   1.000000
   95        4.415639   1.000000
   96        4.484898   1.000000
   97        6.643222   1.000000
   98        6.777760   1.102501
   99        7.139904   0.000000
  100        7.219327   0.000000
  101        7.340001   0.000000
  102        7.428204   0.000000
  103        7.571600   0.000000
  104        7.686670   0.000000
  105        8.621087   0.000000
  106        8.877368   0.000000
  107        9.010648   0.000000
  108        9.278114   0.000000
  109        9.479685   0.000000
  110        9.601801   0.000000
  111        9.759271   0.000000
  112       10.009057   0.000000
  113       10.064038   0.000000
  114       10.337744   0.000000
  115       10.386478   0.000000
  116       10.631475   0.000000
  117       10.702004   0.000000
  118       10.729637   0.000000
  119       10.864520   0.000000
  120       10.973084   0.000000
  121       11.076524   0.000000
  122       11.191826   0.000000
  123       11.276302   0.000000
  124       11.498495   0.000000
  125       11.557728   0.000000
  126       11.801289   0.000000
  127       12.121094   0.000000
  128       12.379733   0.000000
 
 -0.3333333E+00 -0.4000000E+00  0.2727273E+00  0.6060606E-02
    1      -11.737966   1.000000
    2      -11.125904   1.000000
    3      -10.805763   1.000000
    4      -10.745600   1.000000
    5      -10.497190   1.000000
    6      -10.179873   1.000000
    7       -9.134529   1.000000
    8       -8.964950   1.000000
    9       -8.662158   1.000000
   10       -8.550763   1.000000
   11       -8.518300   1.000000
   12       -8.260199   1.000000
   13       -7.808803   1.000000
   14       -7.044917   1.000000
   15       -6.876931   1.000000
   16       -5.992283   1.000000
   17       -5.831033   1.000000
   18       -5.544014   1.000000
   19       -5.346218   1.000000
   20       -5.248845   1.000000
   21       -5.041063   1.000000
   22       -4.938609   1.000000
   23       -4.578699   1.000000
   24       -4.471208   1.000000
   25       -3.917639   1.000000
   26       -3.739365   1.000000
   27       -3.542803   1.000000
   28       -3.409464   1.000000
   29       -3.179069   1.000000
   30       -3.024157   1.000000
   31       -2.771080   1.000000
   32       -2.623647   1.000000
   33       -2.409503   1.000000
   34       -2.142477   1.000000
   35       -2.038373   1.000000
   36       -1.696599   1.000000
   37       -1.670566   1.000000
   38       -1.575888   1.000000
   39       -1.446657   1.000000
   40       -1.344479   1.000000
   41       -1.219011   1.000000
   42       -1.153260   1.000000
   43       -1.014188   1.000000
   44       -0.858082   1.000000
   45       -0.771672   1.000000
   46       -0.671080   1.000000
   47       -0.596637   1.000000
   48       -0.503586   1.000000
   49       -0.437306   1.000000
   50       -0.391291   1.000000
   51       -0.274187   1.000000
   52       -0.201498   1.000000
   53       -0.113006   1.000000
   54        0.001343   1.000000
   55        0.143493   1.000000
   56        0.367024   1.000000
   57        0.390226   1.000000
   58        0.533935   1.000000
   59        0.655679   1.000000
   60        0.738808   1.000000
   61        0.779872   1.000000
   62        0.975535   1.000000
   63        1.090655   1.000000
   64        1.214643   1.000000
   65        1.306397   1.000000
   66        1.432952   1.000000
   67        1.606112   1.000000
   68        1.743140   1.000000
   69        1.846073   1.000000
   70        2.002886   1.000000
   71        2.162232   1.000000
   72        2.266680   1.000000
   73        2.463681   1.000000
   74        2.540640   1.000000
   75        2.634297   1.000000
   76        2.779756   1.000000
   77        2.908057   1.000000
   78        2.991971   1.000000
   79        3.055238   1.000000
   80        3.125399   1.000000
   81        3.265465   1.000000
   82        3.308626   1.000000
   83        3.372425   1.000000
   84        3.542577   1.000000
   85        3.594218   1.000000
   86        3.638942   1.000000
   87        3.718122   1.000000
   88        3.839936   1.000000
   89        3.892759   1.000000
   90        3.970697   1.000000
   91        3.991795   1.000000
   92        4.165721   1.000000
   93        4.204034   1.000000
   94        4.294399   1.000000
   95        4.380253   1.000000
   96        4.441961   1.000000
   97        6.602471   1.000000
   98        6.885710   0.217288
   99        7.133696   0.000000
  100        7.237797   0.000000
  101        7.297703   0.000000
  102        7.403002   0.000000
  103        7.596797   0.000000
  104        7.680301   0.000000
  105        8.628816   0.000000
  106        8.854520   0.000000
  107        8.997612   0.000000
  108        9.254856   0.000000
  109        9.456971   0.000000
  110        9.669636   0.000000
  111        9.769116   0.000000
  112       10.007031   0.000000
  113       10.160654   0.000000
  114       10.265010   0.000000
  115       10.422588   0.000000
  116       10.617042   0.000000
  117       10.684225   0.000000
  118       10.786038   0.000000
  119       10.945416   0.000000
  120       10.988251   0.000000
  121       11.100518   0.000000
  122       11.247574   0.000000
  123       11.276848   0.000000
  124       11.478953   0.000000
  125       11.617933   0.000000
  126       11.851814   0.000000
  127       12.162980   0.000000
  128       12.362357   0.000000
 
 -0.1666667E+00 -0.4000000E+00  0.2727273E+00  0.6060606E-02
    1      -11.735431   1.000000
    2      -11.128427   1.000000
    3      -10.822269   1.000000
    4      -10.735749   1.000000
    5      -10.495161   1.000000
    6      -10.176162   1.000000
    7       -9.125689   1.000000
    8       -8.966062   1.000000
    9       -8.733009   1.000000
   10       -8.531911   1.000000
   11       -8.424458   1.000000
   12       -8.246539   1.000000
   13       -7.860070   1.000000
   14       -7.104365   1.000000
   15       -6.884196   1.000000
   16       -5.975159   1.000000
   17       -5.873733   1.000000
   18       -5.476158   1.000000
   19       -5.288728   1.000000
   20       -5.177951   1.000000
   21       -5.065333   1.000000
   22       -5.025051   1.000000
   23       -4.602148   1.000000
   24       -4.434216   1.000000
   25       -3.933775   1.000000
   26       -3.728487   1.000000
   27       -3.521647   1.000000
   28       -3.441125   1.000000
   29       -3.048261   1.000000
   30       -2.889077   1.000000
   31       -2.818141   1.000000
   32       -2.578607   1.000000
   33       -2.376851   1.000000
   34       -2.142749   1.000000
   35       -2.041371   1.000000
   36       -1.871021   1.000000
   37       -1.714454   1.000000
   38       -1.633129   1.000000
   39       -1.533615   1.000000
   40       -1.381054   1.000000
   41       -1.253628   1.000000
   42       -1.205611   1.000000
   43       -1.179347   1.000000
   44       -1.077195   1.000000
   45       -0.965077   1.000000
   46       -0.811063   1.000000
   47       -0.626089   1.000000
   48       -0.600404   1.000000
   49       -0.384617   1.000000
   50       -0.209766   1.000000
   51       -0.152919   1.000000
   52       -0.035384   1.000000
   53        0.075355   1.000000
   54        0.124289   1.000000
   55        0.297475   1.000000
   56        0.355000   1.000000
   57        0.453605   1.000000
   58        0.610597   1.000000
   59        0.736113   1.000000
   60        0.814298   1.000000
   61        0.872857   1.000000
   62        1.030082   1.000000
   63        1.171300   1.000000
   64        1.227388   1.000000
   65        1.287739   1.000000
   66        1.465751   1.000000
   67        1.692570   1.000000
   68        1.801050   1.000000
   69        1.851677   1.000000
   70        2.046031   1.000000
   71        2.122314   1.000000
   72        2.202933   1.000000
   73        2.293533   1.000000
   74        2.495472   1.000000
   75        2.582039   1.000000
   76        2.677341   1.000000
   77        2.814087   1.000000
   78        2.904641   1.000000
   79        3.030908   1.000000
   80        3.085130   1.000000
   81        3.180270   1.000000
   82        3.276040   1.000000
   83        3.413951   1.000000
   84        3.452209   1.000000
   85        3.562095   1.000000
   86        3.632648   1.000000
   87        3.735579   1.000000
   88        3.878453   1.000000
   89        3.904124   1.000000
   90        3.987947   1.000000
   91        4.088972   1.000000
   92        4.176620   1.000000
   93        4.214275   1.000000
   94        4.243125   1.000000
   95        4.303603   1.000000
   96        4.486960   1.000000
   97        6.592526   1.000000
   98        6.963141  -0.064215
   99        7.126504   0.000000
  100        7.251669   0.000000
  101        7.301078   0.000000
  102        7.360673   0.000000
  103        7.577118   0.000000
  104        7.797168   0.000000
  105        8.573461   0.000000
  106        8.810045   0.000000
  107        8.974412   0.000000
  108        9.140980   0.000000
  109        9.365163   0.000000
  110        9.664952   0.000000
  111        9.781516   0.000000
  112        9.958769   0.000000
  113       10.078079   0.000000
  114       10.311533   0.000000
  115       10.577449   0.000000
  116       10.608089   0.000000
  117       10.762036   0.000000
  118       10.876443   0.000000
  119       10.885736   0.000000
  120       11.062847   0.000000
  121       11.149506   0.000000
  122       11.241848   0.000000
  123       11.445588   0.000000
  124       11.563167   0.000000
  125       11.753057   0.000000
  126       11.894996   0.000000
  127       12.149508   0.000000
  128       12.325408   0.000000
 
  0.0000000E+00 -0.2000000E+00  0.2727273E+00  0.6060606E-02
    1      -11.743808   1.000000
    2      -11.131919   1.000000
    3      -10.786840   1.000000
    4      -10.729592   1.000000
    5      -10.489142   1.000000
    6      -10.206143   1.000000
    7       -9.210385   1.000000
    8       -8.876740   1.000000
    9       -8.700443   1.000000
   10       -8.635090   1.000000
   11       -8.415676   1.000000
   12       -8.127389   1.000000
   13       -7.933060   1.000000
   14       -7.108061   1.000000
   15       -6.903865   1.000000
   16       -5.947198   1.000000
   17       -5.829937   1.000000
   18       -5.513434   1.000000
   19       -5.432272   1.000000
   20       -5.162315   1.000000
   21       -5.039725   1.000000
   22       -4.961037   1.000000
   23       -4.523320   1.000000
   24       -4.384562   1.000000
   25       -3.918509   1.000000
   26       -3.737469   1.000000
   27       -3.444483   1.000000
   28       -3.322936   1.000000
   29       -3.121084   1.000000
   30       -2.901228   1.000000
   31       -2.806883   1.000000
   32       -2.594244   1.000000
   33       -2.457549   1.000000
   34       -2.327294   1.000000
   35       -2.131726   1.000000
   36       -1.968962   1.000000
   37       -1.861527   1.000000
   38       -1.707576   1.000000
   39       -1.545771   1.000000
   40       -1.461598   1.000000
   41       -1.337512   1.000000
   42       -1.169438   1.000000
   43       -1.101117   1.000000
   44       -0.953519   1.000000
   45       -0.882975   1.000000
   46       -0.783740   1.000000
   47       -0.522648   1.000000
   48       -0.465435   1.000000
   49       -0.402455   1.000000
   50       -0.184234   1.000000
   51       -0.110714   1.000000
   52        0.027684   1.000000
   53        0.091313   1.000000
   54        0.175424   1.000000
   55        0.322657   1.000000
   56        0.425333   1.000000
   57        0.592456   1.000000
   58        0.665179   1.000000
   59        0.723193   1.000000
   60        0.809451   1.000000
   61        0.904245   1.000000
   62        1.008180   1.000000
   63        1.056510   1.000000
   64        1.203298   1.000000
   65        1.335952   1.000000
   66        1.511134   1.000000
   67        1.568931   1.000000
   68        1.668666   1.000000
   69        1.891800   1.000000
   70        1.991256   1.000000
   71        2.127469   1.000000
   72        2.191425   1.000000
   73        2.330671   1.000000
   74        2.450418   1.000000
   75        2.557566   1.000000
   76        2.789154   1.000000
   77        2.820008   1.000000
   78        2.895441   1.000000
   79        2.905861   1.000000
   80        2.994808   1.000000
   81        3.102923   1.000000
   82        3.173422   1.000000
   83        3.250383   1.000000
   84        3.401846   1.000000
   85        3.495016   1.000000
   86        3.647996   1.000000
   87        3.673739   1.000000
   88        3.805194   1.000000
   89        3.948761   1.000000
   90        3.983875   1.000000
   91        4.152957   1.000000
   92        4.223562   1.000000
   93        4.315228   1.000000
   94        4.377267   1.000000
   95        4.502205   1.000000
   96        4.737672   1.000000
   97        6.751788   1.000000
   98        6.856825   0.448040
   99        7.076027   0.000000
  100        7.099563   0.000000
  101        7.269398   0.000000
  102        7.370772   0.000000
  103        7.548712   0.000000
  104        7.839843   0.000000
  105        8.469155   0.000000
  106        8.665491   0.000000
  107        8.790447   0.000000
  108        9.139802   0.000000
  109        9.261474   0.000000
  110        9.568680   0.000000
  111        9.899995   0.000000
  112       10.019766   0.000000
  113       10.171896   0.000000
  114       10.431437   0.000000
  115       10.490176   0.000000
  116       10.652286   0.000000
  117       10.744530   0.000000
  118       10.926986   0.000000
  119       11.035772   0.000000
  120       11.247118   0.000000
  121       11.320532   0.000000
  122       11.477331   0.000000
  123       11.553125   0.000000
  124       11.718431   0.000000
  125       11.887076   0.000000
  126       12.026125   0.000000
  127       12.182977   0.000000
  128       12.320936   0.000000
 
  0.1666667E+00 -0.2000000E+00  0.2727273E+00  0.6060606E-02
    1      -11.748350   1.000000
    2      -11.144390   1.000000
    3      -10.755295   1.000000
    4      -10.709494   1.000000
    5      -10.510217   1.000000
    6      -10.218760   1.000000
    7       -9.187707   1.000000
    8       -8.857511   1.000000
    9       -8.751548   1.000000
   10       -8.603234   1.000000
   11       -8.410702   1.000000
   12       -8.168205   1.000000
   13       -7.973193   1.000000
   14       -7.090061   1.000000
   15       -6.890334   1.000000
   16       -5.909897   1.000000
   17       -5.783638   1.000000
   18       -5.541393   1.000000
   19       -5.356964   1.000000
   20       -5.192739   1.000000
   21       -5.118688   1.000000
   22       -5.062188   1.000000
   23       -4.553031   1.000000
   24       -4.437645   1.000000
   25       -3.814283   1.000000
   26       -3.654603   1.000000
   27       -3.353263   1.000000
   28       -3.140309   1.000000
   29       -3.032811   1.000000
   30       -2.869402   1.000000
   31       -2.768832   1.000000
   32       -2.498778   1.000000
   33       -2.394214   1.000000
   34       -2.333790   1.000000
   35       -2.172128   1.000000
   36       -2.075741   1.000000
   37       -1.956297   1.000000
   38       -1.777235   1.000000
   39       -1.705748   1.000000
   40       -1.576158   1.000000
   41       -1.410830   1.000000
   42       -1.355610   1.000000
   43       -1.236084   1.000000
   44       -1.060074   1.000000
   45       -0.920884   1.000000
   46       -0.812991   1.000000
   47       -0.662431   1.000000
   48       -0.428060   1.000000
   49       -0.301090   1.000000
   50       -0.155721   1.000000
   51       -0.066995   1.000000
   52       -0.002134   1.000000
   53        0.066409   1.000000
   54        0.221619   1.000000
   55        0.289617   1.000000
   56        0.383019   1.000000
   57        0.578982   1.000000
   58        0.687442   1.000000
   59        0.811412   1.000000
   60        0.890598   1.000000
   61        0.941211   1.000000
   62        1.086421   1.000000
   63        1.230672   1.000000
   64        1.384488   1.000000
   65        1.488273   1.000000
   66        1.545882   1.000000
   67        1.604588   1.000000
   68        1.686952   1.000000
   69        1.938749   1.000000
   70        2.081240   1.000000
   71        2.110945   1.000000
   72        2.246106   1.000000
   73        2.399921   1.000000
   74        2.461305   1.000000
   75        2.533703   1.000000
   76        2.719760   1.000000
   77        2.798428   1.000000
   78        2.873256   1.000000
   79        2.969239   1.000000
   80        2.995941   1.000000
   81        3.079008   1.000000
   82        3.128335   1.000000
   83        3.302813   1.000000
   84        3.369461   1.000000
   85        3.466000   1.000000
   86        3.536006   1.000000
   87        3.641615   1.000000
   88        3.748936   1.000000
   89        3.842770   1.000000
   90        3.893084   1.000000
   91        4.090536   1.000000
   92        4.190652   1.000000
   93        4.287168   1.000000
   94        4.401385   1.000000
   95        4.558292   1.000000
   96        4.704306   1.000000
   97        6.757418   1.000000
   98        6.905116   0.034053
   99        6.983451   0.000000
  100        7.112707   0.000000
  101        7.263077   0.000000
  102        7.385008   0.000000
  103        7.543589   0.000000
  104        7.874610   0.000000
  105        8.442443   0.000000
  106        8.729761   0.000000
  107        8.775120   0.000000
  108        9.180345   0.000000
  109        9.293939   0.000000
  110        9.549686   0.000000
  111       10.026153   0.000000
  112       10.060248   0.000000
  113       10.198692   0.000000
  114       10.357625   0.000000
  115       10.405383   0.000000
  116       10.556143   0.000000
  117       10.707234   0.000000
  118       10.864906   0.000000
  119       11.001654   0.000000
  120       11.124153   0.000000
  121       11.310344   0.000000
  122       11.407411   0.000000
  123       11.573979   0.000000
  124       11.701299   0.000000
  125       11.834639   0.000000
  126       11.874584   0.000000
  127       12.225037   0.000000
  128       12.350363   0.000000
 
  0.3333333E+00 -0.2000000E+00  0.2727273E+00  0.6060606E-02
    1      -11.746642   1.000000
    2      -11.149035   1.000000
    3      -10.774062   1.000000
    4      -10.683954   1.000000
    5      -10.520310   1.000000
    6      -10.214050   1.000000
    7       -9.137024   1.000000
    8       -8.891134   1.000000
    9       -8.766948   1.000000
   10       -8.537908   1.000000
   11       -8.470720   1.000000
   12       -8.248842   1.000000
   13       -7.925968   1.000000
   14       -7.056707   1.000000
   15       -6.867437   1.000000
   16       -5.905999   1.000000
   17       -5.758360   1.000000
   18       -5.533235   1.000000
   19       -5.340556   1.000000
   20       -5.238597   1.000000
   21       -5.180112   1.000000
   22       -5.076780   1.000000
   23       -4.530999   1.000000
   24       -4.492072   1.000000
   25       -3.870718   1.000000
   26       -3.657641   1.000000
   27       -3.321251   1.000000
   28       -3.133101   1.000000
   29       -2.974101   1.000000
   30       -2.831915   1.000000
   31       -2.630007   1.000000
   32       -2.573946   1.000000
   33       -2.413240   1.000000
   34       -2.318186   1.000000
   35       -2.124146   1.000000
   36       -1.986715   1.000000
   37       -1.940655   1.000000
   38       -1.821229   1.000000
   39       -1.708825   1.000000
   40       -1.532886   1.000000
   41       -1.391827   1.000000
   42       -1.335232   1.000000
   43       -1.204087   1.000000
   44       -1.109618   1.000000
   45       -0.957912   1.000000
   46       -0.876877   1.000000
   47       -0.714261   1.000000
   48       -0.556350   1.000000
   49       -0.427152   1.000000
   50       -0.136977   1.000000
   51       -0.027511   1.000000
   52        0.056637   1.000000
   53        0.127662   1.000000
   54        0.156498   1.000000
   55        0.226024   1.000000
   56        0.328624   1.000000
   57        0.494457   1.000000
   58        0.641762   1.000000
   59        0.728156   1.000000
   60        0.878182   1.000000
   61        1.078002   1.000000
   62        1.167379   1.000000
   63        1.300746   1.000000
   64        1.340550   1.000000
   65        1.478733   1.000000
   66        1.584308   1.000000
   67        1.669239   1.000000
   68        1.715202   1.000000
   69        1.886037   1.000000
   70        2.017439   1.000000
   71        2.154375   1.000000
   72        2.357196   1.000000
   73        2.405517   1.000000
   74        2.517027   1.000000
   75        2.612207   1.000000
   76        2.739302   1.000000
   77        2.765005   1.000000
   78        2.873621   1.000000
   79        2.973652   1.000000
   80        3.003567   1.000000
   81        3.126344   1.000000
   82        3.211253   1.000000
   83        3.253507   1.000000
   84        3.336174   1.000000
   85        3.452567   1.000000
   86        3.577490   1.000000
   87        3.660292   1.000000
   88        3.714513   1.000000
   89        3.837903   1.000000
   90        3.924781   1.000000
   91        3.995647   1.000000
   92        4.072174   1.000000
   93        4.192461   1.000000
   94        4.459813   1.000000
   95        4.558704   1.000000
   96        4.682640   1.000000
   97        6.709250   1.000000
   98        6.875855   0.034088
   99        7.050164   0.000000
  100        7.117602   0.000000
  101        7.285952   0.000000
  102        7.426579   0.000000
  103        7.558814   0.000000
  104        7.835509   0.000000
  105        8.474139   0.000000
  106        8.762631   0.000000
  107        8.845603   0.000000
  108        9.254518   0.000000
  109        9.424162   0.000000
  110        9.744264   0.000000
  111        9.943724   0.000000
  112       10.079701   0.000000
  113       10.157982   0.000000
  114       10.294978   0.000000
  115       10.387071   0.000000
  116       10.477791   0.000000
  117       10.648674   0.000000
  118       10.781601   0.000000
  119       10.895979   0.000000
  120       11.064493   0.000000
  121       11.212179   0.000000
  122       11.283613   0.000000
  123       11.527957   0.000000
  124       11.577774   0.000000
  125       11.728774   0.000000
  126       11.800902   0.000000
  127       12.252693   0.000000
  128       12.341849   0.000000
 
  0.5000000E+00 -0.2000000E+00  0.2727273E+00  0.6060606E-02
    1      -11.740370   1.000000
    2      -11.139634   1.000000
    3      -10.827978   1.000000
    4      -10.672860   1.000000
    5      -10.512185   1.000000
    6      -10.197661   1.000000
    7       -9.105548   1.000000
    8       -8.929909   1.000000
    9       -8.740460   1.000000
   10       -8.613385   1.000000
   11       -8.406317   1.000000
   12       -8.291417   1.000000
   13       -7.867594   1.000000
   14       -7.035188   1.000000
   15       -6.860507   1.000000
   16       -5.935983   1.000000
   17       -5.764465   1.000000
   18       -5.559546   1.000000
   19       -5.375910   1.000000
   20       -5.302920   1.000000
   21       -5.104123   1.000000
   22       -4.991327   1.000000
   23       -4.489655   1.000000
   24       -4.456028   1.000000
   25       -4.021348   1.000000
   26       -3.720795   1.000000
   27       -3.410264   1.000000
   28       -3.296238   1.000000
   29       -3.032941   1.000000
   30       -2.939077   1.000000
   31       -2.737843   1.000000
   32       -2.509290   1.000000
   33       -2.332019   1.000000
   34       -2.236325   1.000000
   35       -2.085775   1.000000
   36       -1.906016   1.000000
   37       -1.747409   1.000000
   38       -1.673467   1.000000
   39       -1.553099   1.000000
   40       -1.487005   1.000000
   41       -1.339518   1.000000
   42       -1.304994   1.000000
   43       -1.120572   1.000000
   44       -0.969617   1.000000
   45       -0.900489   1.000000
   46       -0.742700   1.000000
   47       -0.657656   1.000000
   48       -0.629285   1.000000
   49       -0.484564   1.000000
   50       -0.342394   1.000000
   51       -0.181556   1.000000
   52        0.006019   1.000000
   53        0.087194   1.000000
   54        0.140684   1.000000
   55        0.322816   1.000000
   56        0.380046   1.000000
   57        0.465359   1.000000
   58        0.563930   1.000000
   59        0.647593   1.000000
   60        0.831973   1.000000
   61        0.929971   1.000000
   62        1.117011   1.000000
   63        1.207497   1.000000
   64        1.284157   1.000000
   65        1.369879   1.000000
   66        1.470326   1.000000
   67        1.625938   1.000000
   68        1.696278   1.000000
   69        1.870840   1.000000
   70        2.062022   1.000000
   71        2.083637   1.000000
   72        2.343502   1.000000
   73        2.452931   1.000000
   74        2.557709   1.000000
   75        2.689906   1.000000
   76        2.784772   1.000000
   77        2.821716   1.000000
   78        2.909279   1.000000
   79        2.945143   1.000000
   80        3.028158   1.000000
   81        3.112126   1.000000
   82        3.193169   1.000000
   83        3.297440   1.000000
   84        3.421052   1.000000
   85        3.466881   1.000000
   86        3.575099   1.000000
   87        3.692275   1.000000
   88        3.749205   1.000000
   89        3.842490   1.000000
   90        3.954740   1.000000
   91        4.061704   1.000000
   92        4.082912   1.000000
   93        4.176956   1.000000
   94        4.438638   1.000000
   95        4.560966   1.000000
   96        4.688996   1.000000
   97        6.671738   1.000000
   98        6.908994  -0.018331
   99        7.055589   0.000000
  100        7.112674   0.000000
  101        7.326930   0.000000
  102        7.461373   0.000000
  103        7.576400   0.000000
  104        7.757200   0.000000
  105        8.523980   0.000000
  106        8.756860   0.000000
  107        8.888783   0.000000
  108        9.354529   0.000000
  109        9.548321   0.000000
  110        9.817679   0.000000
  111        9.882058   0.000000
  112        9.985359   0.000000
  113       10.163152   0.000000
  114       10.217467   0.000000
  115       10.470696   0.000000
  116       10.509389   0.000000
  117       10.678568   0.000000
  118       10.767729   0.000000
  119       10.815724   0.000000
  120       10.974857   0.000000
  121       11.177444   0.000000
  122       11.266891   0.000000
  123       11.482191   0.000000
  124       11.581364   0.000000
  125       11.641806   0.000000
  126       11.799185   0.000000
  127       12.252077   0.000000
  128       12.337660   0.000000
 
 -0.3333333E+00 -0.2000000E+00  0.2727273E+00  0.6060606E-02
    1      -11.735619   1.000000
    2      -11.127391   1.000000
    3      -10.847941   1.000000
    4      -10.705672   1.000000
    5      -10.488800   1.000000
    6      -10.186546   1.000000
    7       -9.148891   1.000000
    8       -8.905059   1.000000
    9       -8.707900   1.000000
   10       -8.632137   1.000000
   11       -8.470526   1.000000
   12       -8.200576   1.000000
   13       -7.836243   1.000000
   14       -7.045041   1.000000
   15       -6.883720   1.000000
   16       -5.969883   1.000000
   17       -5.811934   1.000000
   18       -5.582039   1.000000
   19       -5.349990   1.000000
   20       -5.308876   1.000000
   21       -5.008479   1.000000
   22       -4.920254   1.000000
   23       -4.454510   1.000000
   24       -4.408305   1.000000
   25       -4.098649   1.000000
   26       -3.731305   1.000000
   27       -3.519666   1.000000
   28       -3.440743   1.000000
   29       -3.206249   1.000000
   30       -3.045786   1.000000
   31       -2.771846   1.000000
   32       -2.571816   1.000000
   33       -2.481077   1.000000
   34       -2.121451   1.000000
   35       -1.962899   1.000000
   36       -1.783284   1.000000
   37       -1.677082   1.000000
   38       -1.529367   1.000000
   39       -1.471846   1.000000
   40       -1.312762   1.000000
   41       -1.267374   1.000000
   42       -1.167813   1.000000
   43       -0.938653   1.000000
   44       -0.907488   1.000000
   45       -0.846880   1.000000
   46       -0.740937   1.000000
   47       -0.675541   1.000000
   48       -0.564562   1.000000
   49       -0.449597   1.000000
   50       -0.369807   1.000000
   51       -0.295651   1.000000
   52       -0.091960   1.000000
   53        0.018916   1.000000
   54        0.184349   1.000000
   55        0.252420   1.000000
   56        0.399152   1.000000
   57        0.508249   1.000000
   58        0.590690   1.000000
   59        0.623571   1.000000
   60        0.672652   1.000000
   61        0.886295   1.000000
   62        0.987122   1.000000
   63        1.085696   1.000000
   64        1.215061   1.000000
   65        1.314475   1.000000
   66        1.433539   1.000000
   67        1.549021   1.000000
   68        1.782511   1.000000
   69        1.827843   1.000000
   70        1.959484   1.000000
   71        2.101118   1.000000
   72        2.274400   1.000000
   73        2.413437   1.000000
   74        2.497424   1.000000
   75        2.595056   1.000000
   76        2.723980   1.000000
   77        2.773897   1.000000
   78        2.870140   1.000000
   79        2.983709   1.000000
   80        3.026210   1.000000
   81        3.108880   1.000000
   82        3.270159   1.000000
   83        3.364848   1.000000
   84        3.433290   1.000000
   85        3.501079   1.000000
   86        3.641556   1.000000
   87        3.741158   1.000000
   88        3.916217   1.000000
   89        3.952192   1.000000
   90        3.996344   1.000000
   91        4.057459   1.000000
   92        4.205045   1.000000
   93        4.255091   1.000000
   94        4.381790   1.000000
   95        4.493040   1.000000
   96        4.698818   1.000000
   97        6.693299   1.000000
   98        6.919714   0.050613
   99        7.013603   0.000000
  100        7.095769   0.000000
  101        7.338516   0.000000
  102        7.510816   0.000000
  103        7.571673   0.000000
  104        7.708949   0.000000
  105        8.542297   0.000000
  106        8.716182   0.000000
  107        8.870692   0.000000
  108        9.345380   0.000000
  109        9.489984   0.000000
  110        9.699658   0.000000
  111        9.804927   0.000000
  112       10.053018   0.000000
  113       10.194467   0.000000
  114       10.340716   0.000000
  115       10.404579   0.000000
  116       10.628758   0.000000
  117       10.709631   0.000000
  118       10.755247   0.000000
  119       10.973697   0.000000
  120       11.041657   0.000000
  121       11.287195   0.000000
  122       11.308201   0.000000
  123       11.469340   0.000000
  124       11.622989   0.000000
  125       11.682418   0.000000
  126       11.791963   0.000000
  127       12.236271   0.000000
  128       12.345379   0.000000
 
 -0.1666667E+00 -0.2000000E+00  0.2727273E+00  0.6060606E-02
    1      -11.737348   1.000000
    2      -11.124726   1.000000
    3      -10.820311   1.000000
    4      -10.739980   1.000000
    5      -10.477556   1.000000
    6      -10.190335   1.000000
    7       -9.196061   1.000000
    8       -8.891755   1.000000
    9       -8.700356   1.000000
   10       -8.577592   1.000000
   11       -8.513439   1.000000
   12       -8.134771   1.000000
   13       -7.857603   1.000000
   14       -7.086352   1.000000
   15       -6.902534   1.000000
   16       -5.976806   1.000000
   17       -5.849512   1.000000
   18       -5.544245   1.000000
   19       -5.404460   1.000000
   20       -5.190976   1.000000
   21       -5.022692   1.000000
   22       -4.882054   1.000000
   23       -4.471931   1.000000
   24       -4.396600   1.000000
   25       -4.030496   1.000000
   26       -3.767863   1.000000
   27       -3.541463   1.000000
   28       -3.432077   1.000000
   29       -3.153112   1.000000
   30       -3.036872   1.000000
   31       -2.901788   1.000000
   32       -2.632733   1.000000
   33       -2.479610   1.000000
   34       -2.216871   1.000000
   35       -1.937111   1.000000
   36       -1.863223   1.000000
   37       -1.731338   1.000000
   38       -1.552412   1.000000
   39       -1.448263   1.000000
   40       -1.346589   1.000000
   41       -1.176603   1.000000
   42       -1.094419   1.000000
   43       -1.034406   1.000000
   44       -0.863396   1.000000
   45       -0.801639   1.000000
   46       -0.750675   1.000000
   47       -0.613949   1.000000
   48       -0.515350   1.000000
   49       -0.419491   1.000000
   50       -0.305823   1.000000
   51       -0.258015   1.000000
   52       -0.043054   1.000000
   53        0.075704   1.000000
   54        0.176775   1.000000
   55        0.258787   1.000000
   56        0.407203   1.000000
   57        0.496276   1.000000
   58        0.618876   1.000000
   59        0.733049   1.000000
   60        0.747736   1.000000
   61        0.779120   1.000000
   62        0.924185   1.000000
   63        1.062389   1.000000
   64        1.192831   1.000000
   65        1.315044   1.000000
   66        1.439633   1.000000
   67        1.538917   1.000000
   68        1.640973   1.000000
   69        1.854104   1.000000
   70        2.051581   1.000000
   71        2.095448   1.000000
   72        2.160327   1.000000
   73        2.275679   1.000000
   74        2.415279   1.000000
   75        2.614172   1.000000
   76        2.718574   1.000000
   77        2.823311   1.000000
   78        2.866198   1.000000
   79        2.936069   1.000000
   80        2.999893   1.000000
   81        3.129255   1.000000
   82        3.211891   1.000000
   83        3.310257   1.000000
   84        3.447389   1.000000
   85        3.578196   1.000000
   86        3.656769   1.000000
   87        3.773031   1.000000
   88        3.861380   1.000000
   89        4.011296   1.000000
   90        4.078404   1.000000
   91        4.175822   1.000000
   92        4.234284   1.000000
   93        4.281732   1.000000
   94        4.355625   1.000000
   95        4.416576   1.000000
   96        4.725604   1.000000
   97        6.728827   1.000000
   98        6.863046   0.442645
   99        7.046968   0.000000
  100        7.096155   0.000000
  101        7.307390   0.000000
  102        7.460727   0.000000
  103        7.573192   0.000000
  104        7.751275   0.000000
  105        8.531936   0.000000
  106        8.656308   0.000000
  107        8.829453   0.000000
  108        9.217004   0.000000
  109        9.339676   0.000000
  110        9.643829   0.000000
  111        9.813942   0.000000
  112       10.004441   0.000000
  113       10.185970   0.000000
  114       10.397257   0.000000
  115       10.535289   0.000000
  116       10.633081   0.000000
  117       10.734804   0.000000
  118       10.922749   0.000000
  119       11.001154   0.000000
  120       11.200839   0.000000
  121       11.339226   0.000000
  122       11.434632   0.000000
  123       11.507926   0.000000
  124       11.646481   0.000000
  125       11.817298   0.000000
  126       11.894607   0.000000
  127       12.193183   0.000000
  128       12.320012   0.000000
 
  0.0000000E+00  0.0000000E+00  0.3636364E+00  0.6060606E-02
    1      -11.641157   1.000000
    2      -10.973852   1.000000
    3      -10.787364   1.000000
    4      -10.699398   1.000000
    5      -10.562765   1.000000
    6      -10.270555   1.000000
    7       -9.274217   1.000000
    8       -8.934365   1.000000
    9       -8.854500   1.000000
   10       -8.663587   1.000000
   11       -8.557260   1.000000
   12       -8.053229   1.000000
   13       -7.828334   1.000000
   14       -7.113770   1.000000
   15       -6.956815   1.000000
   16       -6.034924   1.000000
   17       -5.863611   1.000000
   18       -5.619829   1.000000
   19       -5.398841   1.000000
   20       -5.276643   1.000000
   21       -5.003798   1.000000
   22       -4.944731   1.000000
   23       -4.401419   1.000000
   24       -4.274043   1.000000
   25       -4.116487   1.000000
   26       -3.884331   1.000000
   27       -3.489582   1.000000
   28       -3.428688   1.000000
   29       -3.324398   1.000000
   30       -3.162787   1.000000
   31       -2.951385   1.000000
   32       -2.594104   1.000000
   33       -2.319904   1.000000
   34       -2.133574   1.000000
   35       -2.040925   1.000000
   36       -1.923247   1.000000
   37       -1.780688   1.000000
   38       -1.413242   1.000000
   39       -1.338610   1.000000
   40       -1.264206   1.000000
   41       -1.157317   1.000000
   42       -0.946792   1.000000
   43       -0.827625   1.000000
   44       -0.727590   1.000000
   45       -0.580408   1.000000
   46       -0.567736   1.000000
   47       -0.500859   1.000000
   48       -0.392967   1.000000
   49       -0.343154   1.000000
   50       -0.208210   1.000000
   51       -0.064435   1.000000
   52       -0.030673   1.000000
   53        0.043346   1.000000
   54        0.143425   1.000000
   55        0.303716   1.000000
   56        0.354585   1.000000
   57        0.586641   1.000000
   58        0.650794   1.000000
   59        0.804469   1.000000
   60        0.836900   1.000000
   61        0.915055   1.000000
   62        0.984391   1.000000
   63        1.025527   1.000000
   64        1.147076   1.000000
   65        1.272613   1.000000
   66        1.348818   1.000000
   67        1.542815   1.000000
   68        1.653986   1.000000
   69        1.881971   1.000000
   70        2.006674   1.000000
   71        2.157887   1.000000
   72        2.173929   1.000000
   73        2.296344   1.000000
   74        2.424591   1.000000
   75        2.471200   1.000000
   76        2.616050   1.000000
   77        2.655319   1.000000
   78        2.801853   1.000000
   79        2.897087   1.000000
   80        2.949932   1.000000
   81        3.068866   1.000000
   82        3.113647   1.000000
   83        3.245778   1.000000
   84        3.286910   1.000000
   85        3.460859   1.000000
   86        3.513715   1.000000
   87        3.758769   1.000000
   88        3.825652   1.000000
   89        3.979502   1.000000
   90        4.124198   1.000000
   91        4.246532   1.000000
   92        4.352431   1.000000
   93        4.413646   1.000000
   94        4.518590   1.000000
   95        4.557356   1.000000
   96        4.834520   1.000000
   97        6.666582   1.000000
   98        6.689534   1.066789
   99        6.954337  -0.072529
  100        7.081032   0.000000
  101        7.300186   0.000000
  102        7.420514   0.000000
  103        7.649716   0.000000
  104        7.727779   0.000000
  105        8.221840   0.000000
  106        8.331334   0.000000
  107        8.677849   0.000000
  108        8.910107   0.000000
  109        9.082760   0.000000
  110        9.435004   0.000000
  111        9.618592   0.000000
  112        9.951703   0.000000
  113       10.109338   0.000000
  114       10.240018   0.000000
  115       10.383264   0.000000
  116       10.641901   0.000000
  117       10.732796   0.000000
  118       10.850877   0.000000
  119       10.936730   0.000000
  120       11.229580   0.000000
  121       11.330649   0.000000
  122       11.532025   0.000000
  123       11.644942   0.000000
  124       11.764209   0.000000
  125       11.997993   0.000000
  126       12.178112   0.000000
  127       12.215702   0.000000
  128       12.254941   0.000000
 
  0.1666667E+00  0.0000000E+00  0.3636364E+00  0.6060606E-02
    1      -11.647977   1.000000
    2      -10.978470   1.000000
    3      -10.761452   1.000000
    4      -10.694763   1.000000
    5      -10.567805   1.000000
    6      -10.277119   1.000000
    7       -9.308396   1.000000
    8       -8.926722   1.000000
    9       -8.795775   1.000000
   10       -8.683647   1.000000
   11       -8.516655   1.000000
   12       -8.083207   1.000000
   13       -7.911823   1.000000
   14       -7.103087   1.000000
   15       -6.940880   1.000000
   16       -6.004641   1.000000
   17       -5.809651   1.000000
   18       -5.571036   1.000000
   19       -5.453737   1.000000
   20       -5.343051   1.000000
   21       -5.085601   1.000000
   22       -5.066090   1.000000
   23       -4.458269   1.000000
   24       -4.341990   1.000000
   25       -3.933485   1.000000
   26       -3.713679   1.000000
   27       -3.323190   1.000000
   28       -3.229398   1.000000
   29       -3.126757   1.000000
   30       -2.999286   1.000000
   31       -2.822423   1.000000
   32       -2.692597   1.000000
   33       -2.435829   1.000000
   34       -2.285149   1.000000
   35       -2.114559   1.000000
   36       -2.018617   1.000000
   37       -1.901553   1.000000
   38       -1.621926   1.000000
   39       -1.488636   1.000000
   40       -1.392395   1.000000
   41       -1.255623   1.000000
   42       -1.062818   1.000000
   43       -0.937072   1.000000
   44       -0.881846   1.000000
   45       -0.779128   1.000000
   46       -0.682451   1.000000
   47       -0.497895   1.000000
   48       -0.344051   1.000000
   49       -0.240034   1.000000
   50       -0.127999   1.000000
   51       -0.062826   1.000000
   52       -0.023628   1.000000
   53        0.085592   1.000000
   54        0.225752   1.000000
   55        0.308158   1.000000
   56        0.490435   1.000000
   57        0.633930   1.000000
   58        0.760499   1.000000
   59        0.838199   1.000000
   60        0.894292   1.000000
   61        0.968286   1.000000
   62        1.071758   1.000000
   63        1.161858   1.000000
   64        1.243846   1.000000
   65        1.354997   1.000000
   66        1.429371   1.000000
   67        1.524346   1.000000
   68        1.716300   1.000000
   69        2.009843   1.000000
   70        2.054040   1.000000
   71        2.161382   1.000000
   72        2.249908   1.000000
   73        2.307293   1.000000
   74        2.376377   1.000000
   75        2.562580   1.000000
   76        2.634287   1.000000
   77        2.661569   1.000000
   78        2.803235   1.000000
   79        2.910609   1.000000
   80        3.011024   1.000000
   81        3.045647   1.000000
   82        3.101163   1.000000
   83        3.182161   1.000000
   84        3.350946   1.000000
   85        3.428274   1.000000
   86        3.492810   1.000000
   87        3.636838   1.000000
   88        3.758931   1.000000
   89        3.906932   1.000000
   90        4.023224   1.000000
   91        4.121511   1.000000
   92        4.206182   1.000000
   93        4.368660   1.000000
   94        4.525291   1.000000
   95        4.561148   1.000000
   96        4.782977   1.000000
   97        6.719906   1.000000
   98        6.794487   1.084880
   99        6.960759   0.000000
  100        7.107592   0.000000
  101        7.246918   0.000000
  102        7.374327   0.000000
  103        7.566827   0.000000
  104        7.697346   0.000000
  105        8.224388   0.000000
  106        8.361560   0.000000
  107        8.697832   0.000000
  108        8.909435   0.000000
  109        9.198180   0.000000
  110        9.534214   0.000000
  111        9.691644   0.000000
  112        9.886817   0.000000
  113       10.087072   0.000000
  114       10.140897   0.000000
  115       10.344656   0.000000
  116       10.506250   0.000000
  117       10.699796   0.000000
  118       10.802721   0.000000
  119       10.936246   0.000000
  120       11.097975   0.000000
  121       11.245453   0.000000
  122       11.496376   0.000000
  123       11.642387   0.000000
  124       11.716058   0.000000
  125       11.924409   0.000000
  126       12.032913   0.000000
  127       12.241417   0.000000
  128       12.344589   0.000000
 
  0.3333333E+00 -0.2775558E-16  0.3636364E+00  0.6060606E-02
    1      -11.650180   1.000000
    2      -10.981044   1.000000
    3      -10.739343   1.000000
    4      -10.707018   1.000000
    5      -10.570115   1.000000
    6      -10.283428   1.000000
    7       -9.302524   1.000000
    8       -8.940028   1.000000
    9       -8.782508   1.000000
   10       -8.616100   1.000000
   11       -8.493019   1.000000
   12       -8.168226   1.000000
   13       -7.972105   1.000000
   14       -7.101594   1.000000
   15       -6.903670   1.000000
   16       -5.983067   1.000000
   17       -5.710631   1.000000
   18       -5.580458   1.000000
   19       -5.435657   1.000000
   20       -5.395504   1.000000
   21       -5.210158   1.000000
   22       -5.168371   1.000000
   23       -4.482022   1.000000
   24       -4.443862   1.000000
   25       -3.816082   1.000000
   26       -3.547964   1.000000
   27       -3.219925   1.000000
   28       -3.043515   1.000000
   29       -2.937393   1.000000
   30       -2.793377   1.000000
   31       -2.742517   1.000000
   32       -2.638288   1.000000
   33       -2.452364   1.000000
   34       -2.356898   1.000000
   35       -2.261774   1.000000
   36       -2.038892   1.000000
   37       -1.897635   1.000000
   38       -1.783410   1.000000
   39       -1.636343   1.000000
   40       -1.566918   1.000000
   41       -1.412469   1.000000
   42       -1.231842   1.000000
   43       -1.093965   1.000000
   44       -1.031640   1.000000
   45       -0.930990   1.000000
   46       -0.859206   1.000000
   47       -0.561515   1.000000
   48       -0.381954   1.000000
   49       -0.182382   1.000000
   50       -0.115265   1.000000
   51        0.027124   1.000000
   52        0.127337   1.000000
   53        0.199397   1.000000
   54        0.238523   1.000000
   55        0.326481   1.000000
   56        0.493474   1.000000
   57        0.661657   1.000000
   58        0.792639   1.000000
   59        0.863850   1.000000
   60        0.920386   1.000000
   61        1.082612   1.000000
   62        1.128603   1.000000
   63        1.243463   1.000000
   64        1.321051   1.000000
   65        1.460039   1.000000
   66        1.575825   1.000000
   67        1.629009   1.000000
   68        1.829022   1.000000
   69        2.011335   1.000000
   70        2.133217   1.000000
   71        2.160500   1.000000
   72        2.252485   1.000000
   73        2.325295   1.000000
   74        2.443623   1.000000
   75        2.563713   1.000000
   76        2.628886   1.000000
   77        2.728873   1.000000
   78        2.777590   1.000000
   79        2.895980   1.000000
   80        3.013788   1.000000
   81        3.125942   1.000000
   82        3.192141   1.000000
   83        3.277858   1.000000
   84        3.303452   1.000000
   85        3.364654   1.000000
   86        3.417221   1.000000
   87        3.571493   1.000000
   88        3.665387   1.000000
   89        3.768314   1.000000
   90        3.862387   1.000000
   91        4.026357   1.000000
   92        4.115737   1.000000
   93        4.250682   1.000000
   94        4.489810   1.000000
   95        4.559566   1.000000
   96        4.737715   1.000000
   97        6.782481   1.000000
   98        6.918853  -0.026247
   99        6.930258   0.000000
  100        6.996146   0.000000
  101        7.257626   0.000000
  102        7.390402   0.000000
  103        7.492481   0.000000
  104        7.733614   0.000000
  105        8.235373   0.000000
  106        8.480992   0.000000
  107        8.711573   0.000000
  108        9.017634   0.000000
  109        9.406316   0.000000
  110        9.652587   0.000000
  111        9.730586   0.000000
  112        9.934209   0.000000
  113        9.995812   0.000000
  114       10.070811   0.000000
  115       10.280671   0.000000
  116       10.369938   0.000000
  117       10.655902   0.000000
  118       10.720902   0.000000
  119       10.841907   0.000000
  120       10.906797   0.000000
  121       11.203904   0.000000
  122       11.453506   0.000000
  123       11.523518   0.000000
  124       11.586895   0.000000
  125       11.751837   0.000000
  126       12.012023   0.000000
  127       12.223196   0.000000
  128       12.314201   0.000000
 
  0.5000000E+00  0.0000000E+00  0.3636364E+00  0.6060606E-02
    1      -11.645715   1.000000
    2      -10.977845   1.000000
    3      -10.760888   1.000000
    4      -10.706293   1.000000
    5      -10.569218   1.000000
    6      -10.282139   1.000000
    7       -9.261954   1.000000
    8       -8.943539   1.000000
    9       -8.843949   1.000000
   10       -8.556747   1.000000
   11       -8.452327   1.000000
   12       -8.271301   1.000000
   13       -7.936753   1.000000
   14       -7.106728   1.000000
   15       -6.882034   1.000000
   16       -5.986845   1.000000
   17       -5.657591   1.000000
   18       -5.613980   1.000000
   19       -5.456829   1.000000
   20       -5.382673   1.000000
   21       -5.212624   1.000000
   22       -5.177696   1.000000
   23       -4.490388   1.000000
   24       -4.417459   1.000000
   25       -3.947662   1.000000
   26       -3.561090   1.000000
   27       -3.342486   1.000000
   28       -3.130047   1.000000
   29       -2.885154   1.000000
   30       -2.744616   1.000000
   31       -2.656998   1.000000
   32       -2.532573   1.000000
   33       -2.415550   1.000000
   34       -2.297587   1.000000
   35       -2.142263   1.000000
   36       -1.950703   1.000000
   37       -1.824324   1.000000
   38       -1.775427   1.000000
   39       -1.688923   1.000000
   40       -1.675660   1.000000
   41       -1.455517   1.000000
   42       -1.277697   1.000000
   43       -1.168190   1.000000
   44       -1.034044   1.000000
   45       -0.905596   1.000000
   46       -0.842179   1.000000
   47       -0.516551   1.000000
   48       -0.404327   1.000000
   49       -0.224783   1.000000
   50       -0.138897   1.000000
   51       -0.039877   1.000000
   52        0.068804   1.000000
   53        0.189368   1.000000
   54        0.313014   1.000000
   55        0.421878   1.000000
   56        0.489629   1.000000
   57        0.579670   1.000000
   58        0.737515   1.000000
   59        0.802636   1.000000
   60        1.014482   1.000000
   61        1.037593   1.000000
   62        1.130993   1.000000
   63        1.276933   1.000000
   64        1.352819   1.000000
   65        1.482794   1.000000
   66        1.600134   1.000000
   67        1.666544   1.000000
   68        1.798349   1.000000
   69        1.903827   1.000000
   70        2.004391   1.000000
   71        2.225851   1.000000
   72        2.313200   1.000000
   73        2.414767   1.000000
   74        2.481914   1.000000
   75        2.552351   1.000000
   76        2.632992   1.000000
   77        2.715720   1.000000
   78        2.803575   1.000000
   79        2.905076   1.000000
   80        3.035665   1.000000
   81        3.083957   1.000000
   82        3.203289   1.000000
   83        3.259781   1.000000
   84        3.300195   1.000000
   85        3.361411   1.000000
   86        3.476545   1.000000
   87        3.496411   1.000000
   88        3.616604   1.000000
   89        3.718432   1.000000
   90        3.903468   1.000000
   91        4.013665   1.000000
   92        4.159011   1.000000
   93        4.226438   1.000000
   94        4.432711   1.000000
   95        4.597689   1.000000
   96        4.744174   1.000000
   97        6.705816   1.000000
   98        6.902397  -0.012623
   99        6.973623   0.000000
  100        7.003257   0.000000
  101        7.207736   0.000000
  102        7.386609   0.000000
  103        7.602796   0.000000
  104        7.759980   0.000000
  105        8.271658   0.000000
  106        8.544609   0.000000
  107        8.707878   0.000000
  108        9.106425   0.000000
  109        9.500625   0.000000
  110        9.688892   0.000000
  111        9.733521   0.000000
  112        9.846089   0.000000
  113        9.953449   0.000000
  114       10.197584   0.000000
  115       10.321746   0.000000
  116       10.447944   0.000000
  117       10.504123   0.000000
  118       10.688175   0.000000
  119       10.755579   0.000000
  120       10.870917   0.000000
  121       11.228152   0.000000
  122       11.392569   0.000000
  123       11.496154   0.000000
  124       11.535377   0.000000
  125       11.632163   0.000000
  126       12.005798   0.000000
  127       12.216075   0.000000
  128       12.282194   0.000000
 
 -0.3333333E+00  0.2775558E-16  0.3636364E+00  0.6060606E-02
    1      -11.638875   1.000000
    2      -10.969934   1.000000
    3      -10.800444   1.000000
    4      -10.699947   1.000000
    5      -10.564002   1.000000
    6      -10.276469   1.000000
    7       -9.211737   1.000000
    8       -8.963504   1.000000
    9       -8.892437   1.000000
   10       -8.619446   1.000000
   11       -8.433520   1.000000
   12       -8.228560   1.000000
   13       -7.862021   1.000000
   14       -7.112117   1.000000
   15       -6.899366   1.000000
   16       -6.016990   1.000000
   17       -5.722012   1.000000
   18       -5.652883   1.000000
   19       -5.433184   1.000000
   20       -5.326474   1.000000
   21       -5.126471   1.000000
   22       -5.057333   1.000000
   23       -4.422041   1.000000
   24       -4.333574   1.000000
   25       -4.158306   1.000000
   26       -3.733291   1.000000
   27       -3.492641   1.000000
   28       -3.364917   1.000000
   29       -3.154428   1.000000
   30       -2.842620   1.000000
   31       -2.737360   1.000000
   32       -2.520943   1.000000
   33       -2.332403   1.000000
   34       -2.113563   1.000000
   35       -2.034229   1.000000
   36       -1.863630   1.000000
   37       -1.767450   1.000000
   38       -1.683477   1.000000
   39       -1.572769   1.000000
   40       -1.444002   1.000000
   41       -1.338056   1.000000
   42       -1.081554   1.000000
   43       -0.997702   1.000000
   44       -0.861807   1.000000
   45       -0.781808   1.000000
   46       -0.738043   1.000000
   47       -0.492847   1.000000
   48       -0.390614   1.000000
   49       -0.277818   1.000000
   50       -0.199071   1.000000
   51       -0.067962   1.000000
   52        0.023193   1.000000
   53        0.105235   1.000000
   54        0.183470   1.000000
   55        0.326943   1.000000
   56        0.447153   1.000000
   57        0.595869   1.000000
   58        0.663292   1.000000
   59        0.743342   1.000000
   60        0.858424   1.000000
   61        0.906136   1.000000
   62        1.015155   1.000000
   63        1.259118   1.000000
   64        1.283026   1.000000
   65        1.407228   1.000000
   66        1.581317   1.000000
   67        1.664650   1.000000
   68        1.754531   1.000000
   69        1.842460   1.000000
   70        1.982747   1.000000
   71        2.197912   1.000000
   72        2.322888   1.000000
   73        2.344821   1.000000
   74        2.414625   1.000000
   75        2.539101   1.000000
   76        2.628056   1.000000
   77        2.762105   1.000000
   78        2.802722   1.000000
   79        2.845251   1.000000
   80        3.007593   1.000000
   81        3.035731   1.000000
   82        3.140302   1.000000
   83        3.196572   1.000000
   84        3.242681   1.000000
   85        3.329251   1.000000
   86        3.529256   1.000000
   87        3.646739   1.000000
   88        3.725614   1.000000
   89        3.830835   1.000000
   90        4.071969   1.000000
   91        4.170613   1.000000
   92        4.216884   1.000000
   93        4.329543   1.000000
   94        4.411931   1.000000
   95        4.649726   1.000000
   96        4.776567   1.000000
   97        6.634858   1.000000
   98        6.820007   0.951918
   99        6.978865  -0.017752
  100        7.051961   0.000000
  101        7.164757   0.000000
  102        7.402883   0.000000
  103        7.738199   0.000000
  104        7.775704   0.000000
  105        8.271368   0.000000
  106        8.482294   0.000000
  107        8.674152   0.000000
  108        9.124136   0.000000
  109        9.344622   0.000000
  110        9.576673   0.000000
  111        9.667607   0.000000
  112        9.823468   0.000000
  113       10.033903   0.000000
  114       10.271534   0.000000
  115       10.408307   0.000000
  116       10.485990   0.000000
  117       10.668036   0.000000
  118       10.783148   0.000000
  119       10.852718   0.000000
  120       10.977075   0.000000
  121       11.288939   0.000000
  122       11.410923   0.000000
  123       11.490832   0.000000
  124       11.578496   0.000000
  125       11.673358   0.000000
  126       11.997486   0.000000
  127       12.208855   0.000000
  128       12.285184   0.000000
 
 -0.1666667E+00  0.0000000E+00  0.3636364E+00  0.6060606E-02
    1      -11.636517   1.000000
    2      -10.968594   1.000000
    3      -10.808428   1.000000
    4      -10.701434   1.000000
    5      -10.560129   1.000000
    6      -10.271141   1.000000
    7       -9.218068   1.000000
    8       -8.974424   1.000000
    9       -8.880477   1.000000
   10       -8.654979   1.000000
   11       -8.515581   1.000000
   12       -8.104230   1.000000
   13       -7.810970   1.000000
   14       -7.116929   1.000000
   15       -6.937314   1.000000
   16       -6.043465   1.000000
   17       -5.829410   1.000000
   18       -5.650773   1.000000
   19       -5.372182   1.000000
   20       -5.281848   1.000000
   21       -5.013788   1.000000
   22       -4.946266   1.000000
   23       -4.363042   1.000000
   24       -4.289381   1.000000
   25       -4.226542   1.000000
   26       -3.878387   1.000000
   27       -3.595471   1.000000
   28       -3.451924   1.000000
   29       -3.364048   1.000000
   30       -3.040621   1.000000
   31       -2.937972   1.000000
   32       -2.565702   1.000000
   33       -2.278928   1.000000
   34       -2.105273   1.000000
   35       -1.964187   1.000000
   36       -1.812236   1.000000
   37       -1.655855   1.000000
   38       -1.488483   1.000000
   39       -1.406683   1.000000
   40       -1.282266   1.000000
   41       -1.197532   1.000000
   42       -0.928942   1.000000
   43       -0.836496   1.000000
   44       -0.696271   1.000000
   45       -0.672963   1.000000
   46       -0.564653   1.000000
   47       -0.488436   1.000000
   48       -0.393717   1.000000
   49       -0.297055   1.000000
   50       -0.266147   1.000000
   51       -0.116117   1.000000
   52       -0.039725   1.000000
   53        0.102745   1.000000
   54        0.217692   1.000000
   55        0.308214   1.000000
   56        0.333546   1.000000
   57        0.418941   1.000000
   58        0.509308   1.000000
   59        0.732561   1.000000
   60        0.817292   1.000000
   61        0.926800   1.000000
   62        1.006112   1.000000
   63        1.078352   1.000000
   64        1.152746   1.000000
   65        1.290993   1.000000
   66        1.469718   1.000000
   67        1.582494   1.000000
   68        1.729306   1.000000
   69        1.905114   1.000000
   70        2.038405   1.000000
   71        2.110797   1.000000
   72        2.177351   1.000000
   73        2.311440   1.000000
   74        2.334585   1.000000
   75        2.476604   1.000000
   76        2.615606   1.000000
   77        2.700595   1.000000
   78        2.795131   1.000000
   79        2.873184   1.000000
   80        2.935302   1.000000
   81        3.085331   1.000000
   82        3.136152   1.000000
   83        3.214668   1.000000
   84        3.335319   1.000000
   85        3.357901   1.000000
   86        3.508573   1.000000
   87        3.713341   1.000000
   88        3.869386   1.000000
   89        4.004094   1.000000
   90        4.117446   1.000000
   91        4.245674   1.000000
   92        4.335870   1.000000
   93        4.400363   1.000000
   94        4.479185   1.000000
   95        4.611923   1.000000
   96        4.824165   1.000000
   97        6.635830   1.000000
   98        6.706021   1.085807
   99        6.970073  -0.080639
  100        7.060491   0.000000
  101        7.206360   0.000000
  102        7.448107   0.000000
  103        7.725920   0.000000
  104        7.797369   0.000000
  105        8.222541   0.000000
  106        8.405815   0.000000
  107        8.652851   0.000000
  108        9.028876   0.000000
  109        9.139680   0.000000
  110        9.440371   0.000000
  111        9.599548   0.000000
  112        9.985410   0.000000
  113       10.115745   0.000000
  114       10.203090   0.000000
  115       10.449151   0.000000
  116       10.607004   0.000000
  117       10.699808   0.000000
  118       10.860840   0.000000
  119       10.924149   0.000000
  120       11.204518   0.000000
  121       11.322737   0.000000
  122       11.525028   0.000000
  123       11.606720   0.000000
  124       11.658170   0.000000
  125       11.868027   0.000000
  126       12.018167   0.000000
  127       12.195668   0.000000
  128       12.261964   0.000000
 
  0.0000000E+00  0.2000000E+00  0.3636364E+00  0.6060606E-02
    1      -11.648962   1.000000
    2      -10.935726   1.000000
    3      -10.765058   1.000000
    4      -10.737533   1.000000
    5      -10.596280   1.000000
    6      -10.245677   1.000000
    7       -9.234401   1.000000
    8       -9.010868   1.000000
    9       -8.933254   1.000000
   10       -8.583508   1.000000
   11       -8.441285   1.000000
   12       -8.051356   1.000000
   13       -7.963736   1.000000
   14       -7.148977   1.000000
   15       -6.874781   1.000000
   16       -6.038092   1.000000
   17       -5.922926   1.000000
   18       -5.632661   1.000000
   19       -5.354430   1.000000
   20       -5.285604   1.000000
   21       -4.958551   1.000000
   22       -4.874432   1.000000
   23       -4.524074   1.000000
   24       -4.392948   1.000000
   25       -4.051552   1.000000
   26       -3.708399   1.000000
   27       -3.405885   1.000000
   28       -3.328000   1.000000
   29       -3.139774   1.000000
   30       -3.030626   1.000000
   31       -2.941689   1.000000
   32       -2.684632   1.000000
   33       -2.469487   1.000000
   34       -2.386473   1.000000
   35       -2.150515   1.000000
   36       -1.936128   1.000000
   37       -1.774555   1.000000
   38       -1.691092   1.000000
   39       -1.505170   1.000000
   40       -1.361570   1.000000
   41       -1.220156   1.000000
   42       -1.079909   1.000000
   43       -0.928149   1.000000
   44       -0.793010   1.000000
   45       -0.668180   1.000000
   46       -0.471013   1.000000
   47       -0.390930   1.000000
   48       -0.265501   1.000000
   49       -0.200581   1.000000
   50       -0.079102   1.000000
   51       -0.029206   1.000000
   52        0.054605   1.000000
   53        0.181679   1.000000
   54        0.251866   1.000000
   55        0.376846   1.000000
   56        0.451118   1.000000
   57        0.626678   1.000000
   58        0.708413   1.000000
   59        0.746483   1.000000
   60        0.832024   1.000000
   61        0.906173   1.000000
   62        1.007281   1.000000
   63        1.120069   1.000000
   64        1.157923   1.000000
   65        1.259910   1.000000
   66        1.383481   1.000000
   67        1.574912   1.000000
   68        1.705386   1.000000
   69        1.875126   1.000000
   70        1.991927   1.000000
   71        2.114473   1.000000
   72        2.239803   1.000000
   73        2.326814   1.000000
   74        2.436720   1.000000
   75        2.514949   1.000000
   76        2.613401   1.000000
   77        2.661129   1.000000
   78        2.770692   1.000000
   79        2.845901   1.000000
   80        2.932004   1.000000
   81        3.036485   1.000000
   82        3.138721   1.000000
   83        3.263690   1.000000
   84        3.320867   1.000000
   85        3.426228   1.000000
   86        3.459186   1.000000
   87        3.647868   1.000000
   88        3.798193   1.000000
   89        3.887868   1.000000
   90        4.128547   1.000000
   91        4.234884   1.000000
   92        4.326391   1.000000
   93        4.409485   1.000000
   94        4.418149   1.000000
   95        4.480395   1.000000
   96        4.707985   1.000000
   97        6.725270   1.000000
   98        6.833430   0.745783
   99        6.839185   0.390133
  100        7.023375   0.000000
  101        7.232516   0.000000
  102        7.396504   0.000000
  103        7.635814   0.000000
  104        7.830280   0.000000
  105        8.234561   0.000000
  106        8.409222   0.000000
  107        8.718489   0.000000
  108        8.958482   0.000000
  109        9.138548   0.000000
  110        9.582485   0.000000
  111        9.637229   0.000000
  112        9.959887   0.000000
  113       10.005293   0.000000
  114       10.147680   0.000000
  115       10.347559   0.000000
  116       10.535037   0.000000
  117       10.639016   0.000000
  118       10.829705   0.000000
  119       11.012872   0.000000
  120       11.211142   0.000000
  121       11.325868   0.000000
  122       11.453693   0.000000
  123       11.671662   0.000000
  124       11.712127   0.000000
  125       12.005419   0.000000
  126       12.148281   0.000000
  127       12.263899   0.000000
  128       12.298247   0.000000
 
  0.1666667E+00  0.2000000E+00  0.3636364E+00  0.6060606E-02
    1      -11.657633   1.000000
    2      -10.935748   1.000000
    3      -10.763201   1.000000
    4      -10.707748   1.000000
    5      -10.597765   1.000000
    6      -10.256844   1.000000
    7       -9.267574   1.000000
    8       -8.962915   1.000000
    9       -8.901432   1.000000
   10       -8.606005   1.000000
   11       -8.517046   1.000000
   12       -8.034947   1.000000
   13       -7.985542   1.000000
   14       -7.108321   1.000000
   15       -6.864887   1.000000
   16       -6.021846   1.000000
   17       -5.887972   1.000000
   18       -5.589759   1.000000
   19       -5.415020   1.000000
   20       -5.310201   1.000000
   21       -4.981925   1.000000
   22       -4.970490   1.000000
   23       -4.584772   1.000000
   24       -4.443925   1.000000
   25       -3.911130   1.000000
   26       -3.599072   1.000000
   27       -3.313857   1.000000
   28       -3.252235   1.000000
   29       -3.064555   1.000000
   30       -2.954384   1.000000
   31       -2.866247   1.000000
   32       -2.656331   1.000000
   33       -2.495026   1.000000
   34       -2.374465   1.000000
   35       -2.223287   1.000000
   36       -2.144711   1.000000
   37       -1.822120   1.000000
   38       -1.754769   1.000000
   39       -1.571593   1.000000
   40       -1.460490   1.000000
   41       -1.354548   1.000000
   42       -0.989548   1.000000
   43       -0.944018   1.000000
   44       -0.682245   1.000000
   45       -0.602429   1.000000
   46       -0.529925   1.000000
   47       -0.431682   1.000000
   48       -0.375087   1.000000
   49       -0.273172   1.000000
   50       -0.219199   1.000000
   51       -0.121015   1.000000
   52        0.027746   1.000000
   53        0.159803   1.000000
   54        0.239570   1.000000
   55        0.397465   1.000000
   56        0.510818   1.000000
   57        0.623761   1.000000
   58        0.716609   1.000000
   59        0.797349   1.000000
   60        0.860462   1.000000
   61        0.967863   1.000000
   62        1.086076   1.000000
   63        1.141152   1.000000
   64        1.224471   1.000000
   65        1.336271   1.000000
   66        1.451381   1.000000
   67        1.538488   1.000000
   68        1.710333   1.000000
   69        2.010130   1.000000
   70        2.042533   1.000000
   71        2.161943   1.000000
   72        2.267925   1.000000
   73        2.347090   1.000000
   74        2.432203   1.000000
   75        2.555448   1.000000
   76        2.651950   1.000000
   77        2.698513   1.000000
   78        2.801566   1.000000
   79        2.879089   1.000000
   80        2.942706   1.000000
   81        3.004480   1.000000
   82        3.179376   1.000000
   83        3.287915   1.000000
   84        3.298537   1.000000
   85        3.408293   1.000000
   86        3.526284   1.000000
   87        3.624516   1.000000
   88        3.678934   1.000000
   89        3.912000   1.000000
   90        4.011435   1.000000
   91        4.149086   1.000000
   92        4.229644   1.000000
   93        4.345831   1.000000
   94        4.468522   1.000000
   95        4.511138   1.000000
   96        4.651905   1.000000
   97        6.734102   1.000000
   98        6.895265   0.225405
   99        6.903445  -0.008355
  100        7.041506   0.000000
  101        7.240901   0.000000
  102        7.331096   0.000000
  103        7.630352   0.000000
  104        7.746549   0.000000
  105        8.232391   0.000000
  106        8.359362   0.000000
  107        8.750068   0.000000
  108        8.905660   0.000000
  109        9.189943   0.000000
  110        9.590755   0.000000
  111        9.652339   0.000000
  112        9.951775   0.000000
  113       10.066559   0.000000
  114       10.101977   0.000000
  115       10.317070   0.000000
  116       10.465488   0.000000
  117       10.640194   0.000000
  118       10.765000   0.000000
  119       10.936686   0.000000
  120       11.142077   0.000000
  121       11.304304   0.000000
  122       11.400025   0.000000
  123       11.670741   0.000000
  124       11.741389   0.000000
  125       11.786601   0.000000
  126       12.026429   0.000000
  127       12.159296   0.000000
  128       12.370150   0.000000
 
  0.3333333E+00  0.2000000E+00  0.3636364E+00  0.6060606E-02
    1      -11.662154   1.000000
    2      -10.926381   1.000000
    3      -10.766443   1.000000
    4      -10.699795   1.000000
    5      -10.596938   1.000000
    6      -10.268973   1.000000
    7       -9.282602   1.000000
    8       -8.964673   1.000000
    9       -8.799599   1.000000
   10       -8.644102   1.000000
   11       -8.538934   1.000000
   12       -8.078187   1.000000
   13       -8.009245   1.000000
   14       -7.091694   1.000000
   15       -6.837379   1.000000
   16       -6.028136   1.000000
   17       -5.758165   1.000000
   18       -5.546012   1.000000
   19       -5.456437   1.000000
   20       -5.363371   1.000000
   21       -5.107606   1.000000
   22       -5.067995   1.000000
   23       -4.602163   1.000000
   24       -4.552878   1.000000
   25       -3.794817   1.000000
   26       -3.459268   1.000000
   27       -3.242149   1.000000
   28       -3.140995   1.000000
   29       -2.923008   1.000000
   30       -2.836392   1.000000
   31       -2.745455   1.000000
   32       -2.615934   1.000000
   33       -2.449076   1.000000
   34       -2.430621   1.000000
   35       -2.264314   1.000000
   36       -2.185133   1.000000
   37       -1.933474   1.000000
   38       -1.800476   1.000000
   39       -1.626442   1.000000
   40       -1.572010   1.000000
   41       -1.443307   1.000000
   42       -1.180951   1.000000
   43       -0.982738   1.000000
   44       -0.851304   1.000000
   45       -0.697817   1.000000
   46       -0.641020   1.000000
   47       -0.544647   1.000000
   48       -0.465875   1.000000
   49       -0.255294   1.000000
   50       -0.173695   1.000000
   51       -0.072099   1.000000
   52        0.057996   1.000000
   53        0.182868   1.000000
   54        0.304516   1.000000
   55        0.379053   1.000000
   56        0.478259   1.000000
   57        0.682249   1.000000
   58        0.737911   1.000000
   59        0.833155   1.000000
   60        0.941416   1.000000
   61        0.983459   1.000000
   62        1.142637   1.000000
   63        1.259612   1.000000
   64        1.328889   1.000000
   65        1.370167   1.000000
   66        1.425449   1.000000
   67        1.552454   1.000000
   68        1.827452   1.000000
   69        2.003569   1.000000
   70        2.113561   1.000000
   71        2.227516   1.000000
   72        2.308161   1.000000
   73        2.398457   1.000000
   74        2.495298   1.000000
   75        2.598013   1.000000
   76        2.700403   1.000000
   77        2.739716   1.000000
   78        2.830881   1.000000
   79        2.879161   1.000000
   80        2.939108   1.000000
   81        3.030551   1.000000
   82        3.174963   1.000000
   83        3.206759   1.000000
   84        3.299741   1.000000
   85        3.504550   1.000000
   86        3.518708   1.000000
   87        3.606114   1.000000
   88        3.672735   1.000000
   89        3.790125   1.000000
   90        3.845307   1.000000
   91        4.034249   1.000000
   92        4.096608   1.000000
   93        4.298789   1.000000
   94        4.465283   1.000000
   95        4.534274   1.000000
   96        4.574397   1.000000
   97        6.781346   1.000000
   98        6.928094  -0.072676
   99        6.959546   0.000000
  100        7.029845   0.000000
  101        7.245272   0.000000
  102        7.396083   0.000000
  103        7.567499   0.000000
  104        7.687831   0.000000
  105        8.227441   0.000000
  106        8.407038   0.000000
  107        8.771415   0.000000
  108        8.976825   0.000000
  109        9.327080   0.000000
  110        9.604828   0.000000
  111        9.718993   0.000000
  112        9.902507   0.000000
  113       10.079336   0.000000
  114       10.117557   0.000000
  115       10.247660   0.000000
  116       10.390203   0.000000
  117       10.600621   0.000000
  118       10.745335   0.000000
  119       10.837171   0.000000
  120       11.014344   0.000000
  121       11.121028   0.000000
  122       11.338347   0.000000
  123       11.482384   0.000000
  124       11.573964   0.000000
  125       11.762589   0.000000
  126       11.925935   0.000000
  127       12.165516   0.000000
  128       12.349586   0.000000
 
  0.5000000E+00  0.2000000E+00  0.3636364E+00  0.6060606E-02
    1      -11.658254   1.000000
    2      -10.914559   1.000000
    3      -10.774410   1.000000
    4      -10.721436   1.000000
    5      -10.595888   1.000000
    6      -10.268051   1.000000
    7       -9.272204   1.000000
    8       -8.994653   1.000000
    9       -8.757566   1.000000
   10       -8.605582   1.000000
   11       -8.529987   1.000000
   12       -8.112476   1.000000
   13       -8.032279   1.000000
   14       -7.109556   1.000000
   15       -6.823496   1.000000
   16       -6.038338   1.000000
   17       -5.644591   1.000000
   18       -5.583632   1.000000
   19       -5.424002   1.000000
   20       -5.396551   1.000000
   21       -5.194064   1.000000
   22       -5.098462   1.000000
   23       -4.647539   1.000000
   24       -4.517597   1.000000
   25       -3.835051   1.000000
   26       -3.436533   1.000000
   27       -3.281721   1.000000
   28       -3.103414   1.000000
   29       -2.925166   1.000000
   30       -2.788596   1.000000
   31       -2.679163   1.000000
   32       -2.539681   1.000000
   33       -2.502432   1.000000
   34       -2.299785   1.000000
   35       -2.224552   1.000000
   36       -2.108690   1.000000
   37       -1.868136   1.000000
   38       -1.819806   1.000000
   39       -1.729976   1.000000
   40       -1.529569   1.000000
   41       -1.416749   1.000000
   42       -1.296037   1.000000
   43       -1.084279   1.000000
   44       -1.005299   1.000000
   45       -0.910688   1.000000
   46       -0.684327   1.000000
   47       -0.619003   1.000000
   48       -0.464118   1.000000
   49       -0.266397   1.000000
   50       -0.085009   1.000000
   51       -0.017310   1.000000
   52        0.163034   1.000000
   53        0.235230   1.000000
   54        0.278671   1.000000
   55        0.412213   1.000000
   56        0.553104   1.000000
   57        0.671285   1.000000
   58        0.727894   1.000000
   59        0.877776   1.000000
   60        0.901767   1.000000
   61        1.074516   1.000000
   62        1.138894   1.000000
   63        1.272376   1.000000
   64        1.329458   1.000000
   65        1.414446   1.000000
   66        1.479194   1.000000
   67        1.640648   1.000000
   68        1.718594   1.000000
   69        1.918536   1.000000
   70        2.118657   1.000000
   71        2.200213   1.000000
   72        2.334967   1.000000
   73        2.408020   1.000000
   74        2.501607   1.000000
   75        2.603096   1.000000
   76        2.682667   1.000000
   77        2.716589   1.000000
   78        2.805581   1.000000
   79        2.902360   1.000000
   80        3.002201   1.000000
   81        3.121410   1.000000
   82        3.140092   1.000000
   83        3.217742   1.000000
   84        3.308866   1.000000
   85        3.421305   1.000000
   86        3.513097   1.000000
   87        3.544903   1.000000
   88        3.699638   1.000000
   89        3.730039   1.000000
   90        3.823289   1.000000
   91        4.013030   1.000000
   92        4.064129   1.000000
   93        4.285131   1.000000
   94        4.421229   1.000000
   95        4.550124   1.000000
   96        4.596231   1.000000
   97        6.812900   1.000000
   98        6.853199   0.591900
   99        6.918467   0.000000
  100        7.105837   0.000000
  101        7.269312   0.000000
  102        7.426493   0.000000
  103        7.541531   0.000000
  104        7.722440   0.000000
  105        8.242268   0.000000
  106        8.496869   0.000000
  107        8.723642   0.000000
  108        9.082101   0.000000
  109        9.476264   0.000000
  110        9.664123   0.000000
  111        9.777038   0.000000
  112        9.851499   0.000000
  113       10.010776   0.000000
  114       10.154274   0.000000
  115       10.296144   0.000000
  116       10.380541   0.000000
  117       10.545027   0.000000
  118       10.601527   0.000000
  119       10.862988   0.000000
  120       10.887712   0.000000
  121       11.053483   0.000000
  122       11.323503   0.000000
  123       11.393190   0.000000
  124       11.473010   0.000000
  125       11.806406   0.000000
  126       11.911962   0.000000
  127       12.190307   0.000000
  128       12.392685   0.000000
 
 -0.3333333E+00  0.2000000E+00  0.3636364E+00  0.6060606E-02
    1      -11.649633   1.000000
    2      -10.910585   1.000000
    3      -10.785766   1.000000
    4      -10.745306   1.000000
    5      -10.594874   1.000000
    6      -10.256680   1.000000
    7       -9.245208   1.000000
    8       -9.018542   1.000000
    9       -8.840045   1.000000
   10       -8.573776   1.000000
   11       -8.403737   1.000000
   12       -8.162566   1.000000
   13       -8.008992   1.000000
   14       -7.139276   1.000000
   15       -6.838067   1.000000
   16       -6.057379   1.000000
   17       -5.722704   1.000000
   18       -5.589784   1.000000
   19       -5.430136   1.000000
   20       -5.328907   1.000000
   21       -5.163999   1.000000
   22       -5.008477   1.000000
   23       -4.590468   1.000000
   24       -4.450246   1.000000
   25       -4.004877   1.000000
   26       -3.509944   1.000000
   27       -3.405229   1.000000
   28       -3.144845   1.000000
   29       -3.071964   1.000000
   30       -2.810582   1.000000
   31       -2.735906   1.000000
   32       -2.536043   1.000000
   33       -2.453891   1.000000
   34       -2.257798   1.000000
   35       -2.181136   1.000000
   36       -2.055231   1.000000
   37       -1.928501   1.000000
   38       -1.798209   1.000000
   39       -1.651389   1.000000
   40       -1.502753   1.000000
   41       -1.311683   1.000000
   42       -1.180172   1.000000
   43       -1.029852   1.000000
   44       -0.906604   1.000000
   45       -0.774036   1.000000
   46       -0.558289   1.000000
   47       -0.442245   1.000000
   48       -0.365013   1.000000
   49       -0.275378   1.000000
   50       -0.211620   1.000000
   51       -0.125224   1.000000
   52       -0.028582   1.000000
   53        0.141044   1.000000
   54        0.273151   1.000000
   55        0.382899   1.000000
   56        0.516616   1.000000
   57        0.680009   1.000000
   58        0.800203   1.000000
   59        0.874376   1.000000
   60        0.974459   1.000000
   61        1.080685   1.000000
   62        1.111486   1.000000
   63        1.230807   1.000000
   64        1.247727   1.000000
   65        1.348362   1.000000
   66        1.506762   1.000000
   67        1.662318   1.000000
   68        1.767420   1.000000
   69        1.872783   1.000000
   70        2.036929   1.000000
   71        2.168244   1.000000
   72        2.295206   1.000000
   73        2.375134   1.000000
   74        2.484857   1.000000
   75        2.542738   1.000000
   76        2.584259   1.000000
   77        2.694868   1.000000
   78        2.788680   1.000000
   79        2.830868   1.000000
   80        2.996973   1.000000
   81        3.054092   1.000000
   82        3.082446   1.000000
   83        3.144266   1.000000
   84        3.201364   1.000000
   85        3.363277   1.000000
   86        3.530208   1.000000
   87        3.662908   1.000000
   88        3.763413   1.000000
   89        3.797298   1.000000
   90        4.031466   1.000000
   91        4.112092   1.000000
   92        4.161335   1.000000
   93        4.309621   1.000000
   94        4.360601   1.000000
   95        4.610888   1.000000
   96        4.626049   1.000000
   97        6.760073   1.000000
   98        6.828430   0.947731
   99        6.870128   0.040016
  100        7.094583   0.000000
  101        7.205090   0.000000
  102        7.430493   0.000000
  103        7.692751   0.000000
  104        7.761173   0.000000
  105        8.265540   0.000000
  106        8.501894   0.000000
  107        8.671080   0.000000
  108        9.162199   0.000000
  109        9.449297   0.000000
  110        9.668750   0.000000
  111        9.755352   0.000000
  112        9.848399   0.000000
  113        9.962964   0.000000
  114       10.106332   0.000000
  115       10.250026   0.000000
  116       10.385716   0.000000
  117       10.601200   0.000000
  118       10.734866   0.000000
  119       10.929243   0.000000
  120       11.043238   0.000000
  121       11.153261   0.000000
  122       11.328947   0.000000
  123       11.444006   0.000000
  124       11.521103   0.000000
  125       11.882888   0.000000
  126       11.973699   0.000000
  127       12.201441   0.000000
  128       12.464897   0.000000
 
 -0.1666667E+00  0.2000000E+00  0.3636364E+00  0.6060606E-02
    1      -11.644853   1.000000
    2      -10.923122   1.000000
    3      -10.780212   1.000000
    4      -10.752083   1.000000
    5      -10.594668   1.000000
    6      -10.246297   1.000000
    7       -9.221832   1.000000
    8       -9.028642   1.000000
    9       -8.916966   1.000000
   10       -8.575278   1.000000
   11       -8.353510   1.000000
   12       -8.141850   1.000000
   13       -7.970607   1.000000
   14       -7.161216   1.000000
   15       -6.862223   1.000000
   16       -6.066184   1.000000
   17       -5.847372   1.000000
   18       -5.613090   1.000000
   19       -5.404110   1.000000
   20       -5.264642   1.000000
   21       -5.052098   1.000000
   22       -4.892808   1.000000
   23       -4.477965   1.000000
   24       -4.440076   1.000000
   25       -4.104427   1.000000
   26       -3.653010   1.000000
   27       -3.462602   1.000000
   28       -3.284944   1.000000
   29       -3.119067   1.000000
   30       -2.975064   1.000000
   31       -2.819988   1.000000
   32       -2.615539   1.000000
   33       -2.451018   1.000000
   34       -2.376753   1.000000
   35       -2.112109   1.000000
   36       -1.992416   1.000000
   37       -1.887928   1.000000
   38       -1.668811   1.000000
   39       -1.594523   1.000000
   40       -1.339653   1.000000
   41       -1.208355   1.000000
   42       -1.136193   1.000000
   43       -0.855492   1.000000
   44       -0.771107   1.000000
   45       -0.588434   1.000000
   46       -0.540089   1.000000
   47       -0.428506   1.000000
   48       -0.359479   1.000000
   49       -0.281529   1.000000
   50       -0.185837   1.000000
   51       -0.063370   1.000000
   52        0.038221   1.000000
   53        0.210135   1.000000
   54        0.260690   1.000000
   55        0.372810   1.000000
   56        0.472497   1.000000
   57        0.541875   1.000000
   58        0.695901   1.000000
   59        0.765191   1.000000
   60        0.867516   1.000000
   61        0.992533   1.000000
   62        1.045895   1.000000
   63        1.142186   1.000000
   64        1.276894   1.000000
   65        1.308739   1.000000
   66        1.483072   1.000000
   67        1.582294   1.000000
   68        1.783872   1.000000
   69        1.906253   1.000000
   70        2.018756   1.000000
   71        2.160863   1.000000
   72        2.191155   1.000000
   73        2.257917   1.000000
   74        2.391218   1.000000
   75        2.505611   1.000000
   76        2.572197   1.000000
   77        2.655586   1.000000
   78        2.773619   1.000000
   79        2.850859   1.000000
   80        2.973617   1.000000
   81        3.010445   1.000000
   82        3.100804   1.000000
   83        3.164990   1.000000
   84        3.262589   1.000000
   85        3.359637   1.000000
   86        3.521636   1.000000
   87        3.677088   1.000000
   88        3.767002   1.000000
   89        3.962238   1.000000
   90        4.094904   1.000000
   91        4.207041   1.000000
   92        4.308824   1.000000
   93        4.346846   1.000000
   94        4.387631   1.000000
   95        4.565780   1.000000
   96        4.680237   1.000000
   97        6.739464   1.000000
   98        6.807388   0.940586
   99        6.826327   0.458370
  100        7.048653   0.000000
  101        7.194088   0.000000
  102        7.434981   0.000000
  103        7.716027   0.000000
  104        7.816599   0.000000
  105        8.254176   0.000000
  106        8.465289   0.000000
  107        8.677311   0.000000
  108        9.109448   0.000000
  109        9.239765   0.000000
  110        9.623145   0.000000
  111        9.688785   0.000000
  112        9.821613   0.000000
  113       10.059230   0.000000
  114       10.118072   0.000000
  115       10.334270   0.000000
  116       10.403952   0.000000
  117       10.626311   0.000000
  118       10.851138   0.000000
  119       11.061630   0.000000
  120       11.186521   0.000000
  121       11.310552   0.000000
  122       11.385720   0.000000
  123       11.552401   0.000000
  124       11.627166   0.000000
  125       11.978670   0.000000
  126       12.074356   0.000000
  127       12.244893   0.000000
  128       12.463782   0.000000
 
  0.0000000E+00  0.4000000E+00  0.3636364E+00  0.6060606E-02
    1      -11.644023   1.000000
    2      -10.956587   1.000000
    3      -10.797678   1.000000
    4      -10.686899   1.000000
    5      -10.604951   1.000000
    6      -10.240876   1.000000
    7       -9.184978   1.000000
    8       -9.103833   1.000000
    9       -8.911283   1.000000
   10       -8.496870   1.000000
   11       -8.349166   1.000000
   12       -8.171478   1.000000
   13       -8.022292   1.000000
   14       -7.181152   1.000000
   15       -6.846905   1.000000
   16       -6.031238   1.000000
   17       -5.932137   1.000000
   18       -5.574643   1.000000
   19       -5.401639   1.000000
   20       -5.237984   1.000000
   21       -4.995401   1.000000
   22       -4.941235   1.000000
   23       -4.558657   1.000000
   24       -4.532465   1.000000
   25       -3.871979   1.000000
   26       -3.605766   1.000000
   27       -3.386707   1.000000
   28       -3.210570   1.000000
   29       -3.040243   1.000000
   30       -2.888519   1.000000
   31       -2.755399   1.000000
   32       -2.588264   1.000000
   33       -2.514005   1.000000
   34       -2.387967   1.000000
   35       -2.254341   1.000000
   36       -2.139047   1.000000
   37       -1.864499   1.000000
   38       -1.758528   1.000000
   39       -1.643090   1.000000
   40       -1.463794   1.000000
   41       -1.345752   1.000000
   42       -1.183638   1.000000
   43       -1.108035   1.000000
   44       -0.942713   1.000000
   45       -0.791654   1.000000
   46       -0.627743   1.000000
   47       -0.355882   1.000000
   48       -0.298511   1.000000
   49       -0.208146   1.000000
   50       -0.073198   1.000000
   51        0.049745   1.000000
   52        0.239463   1.000000
   53        0.322599   1.000000
   54        0.358248   1.000000
   55        0.462289   1.000000
   56        0.482551   1.000000
   57        0.554109   1.000000
   58        0.729547   1.000000
   59        0.802244   1.000000
   60        0.898306   1.000000
   61        1.009263   1.000000
   62        1.113242   1.000000
   63        1.254490   1.000000
   64        1.292437   1.000000
   65        1.349126   1.000000
   66        1.460088   1.000000
   67        1.587621   1.000000
   68        1.741669   1.000000
   69        1.843915   1.000000
   70        1.988691   1.000000
   71        2.074234   1.000000
   72        2.193487   1.000000
   73        2.270101   1.000000
   74        2.438290   1.000000
   75        2.477080   1.000000
   76        2.548164   1.000000
   77        2.653605   1.000000
   78        2.790546   1.000000
   79        2.902269   1.000000
   80        2.956345   1.000000
   81        3.121617   1.000000
   82        3.226073   1.000000
   83        3.278806   1.000000
   84        3.378634   1.000000
   85        3.461183   1.000000
   86        3.529485   1.000000
   87        3.668503   1.000000
   88        3.696438   1.000000
   89        3.867142   1.000000
   90        3.994710   1.000000
   91        4.109696   1.000000
   92        4.236302   1.000000
   93        4.322064   1.000000
   94        4.344325   1.000000
   95        4.410416   1.000000
   96        4.446163   1.000000
   97        6.574486   1.000000
   98        6.956021  -0.069142
   99        7.016509  -0.058253
  100        7.103678   0.000000
  101        7.186506   0.000000
  102        7.383061   0.000000
  103        7.599123   0.000000
  104        7.824808   0.000000
  105        8.345577   0.000000
  106        8.502515   0.000000
  107        8.814463   0.000000
  108        9.086874   0.000000
  109        9.270049   0.000000
  110        9.500600   0.000000
  111        9.616079   0.000000
  112        9.861252   0.000000
  113        9.997816   0.000000
  114       10.193781   0.000000
  115       10.274259   0.000000
  116       10.403195   0.000000
  117       10.510318   0.000000
  118       10.671312   0.000000
  119       10.854570   0.000000
  120       10.918949   0.000000
  121       11.381161   0.000000
  122       11.521393   0.000000
  123       11.621576   0.000000
  124       11.806054   0.000000
  125       11.912940   0.000000
  126       12.054082   0.000000
  127       12.236196   0.000000
  128       12.332643   0.000000
 
  0.1666667E+00  0.4000000E+00  0.3636364E+00  0.6060606E-02
    1      -11.651860   1.000000
    2      -10.969028   1.000000
    3      -10.770934   1.000000
    4      -10.659926   1.000000
    5      -10.616678   1.000000
    6      -10.254810   1.000000
    7       -9.161547   1.000000
    8       -9.069389   1.000000
    9       -8.941938   1.000000
   10       -8.548609   1.000000
   11       -8.411967   1.000000
   12       -8.173932   1.000000
   13       -7.987464   1.000000
   14       -7.136564   1.000000
   15       -6.836807   1.000000
   16       -6.041348   1.000000
   17       -5.886927   1.000000
   18       -5.581175   1.000000
   19       -5.359820   1.000000
   20       -5.225258   1.000000
   21       -5.072216   1.000000
   22       -5.003891   1.000000
   23       -4.599919   1.000000
   24       -4.574894   1.000000
   25       -3.814753   1.000000
   26       -3.476687   1.000000
   27       -3.335087   1.000000
   28       -3.110201   1.000000
   29       -2.994450   1.000000
   30       -2.861287   1.000000
   31       -2.717201   1.000000
   32       -2.621547   1.000000
   33       -2.487453   1.000000
   34       -2.432731   1.000000
   35       -2.174983   1.000000
   36       -2.142644   1.000000
   37       -2.013432   1.000000
   38       -1.828737   1.000000
   39       -1.755365   1.000000
   40       -1.570389   1.000000
   41       -1.424601   1.000000
   42       -1.129003   1.000000
   43       -1.029483   1.000000
   44       -0.950681   1.000000
   45       -0.849580   1.000000
   46       -0.515647   1.000000
   47       -0.482125   1.000000
   48       -0.355808   1.000000
   49       -0.210315   1.000000
   50       -0.146264   1.000000
   51        0.032693   1.000000
   52        0.104608   1.000000
   53        0.231544   1.000000
   54        0.362914   1.000000
   55        0.439688   1.000000
   56        0.512778   1.000000
   57        0.614428   1.000000
   58        0.726568   1.000000
   59        0.845971   1.000000
   60        0.952447   1.000000
   61        0.972473   1.000000
   62        1.162904   1.000000
   63        1.264586   1.000000
   64        1.316776   1.000000
   65        1.450409   1.000000
   66        1.526073   1.000000
   67        1.583590   1.000000
   68        1.732245   1.000000
   69        1.942934   1.000000
   70        2.047444   1.000000
   71        2.121358   1.000000
   72        2.282614   1.000000
   73        2.356363   1.000000
   74        2.427216   1.000000
   75        2.452927   1.000000
   76        2.627964   1.000000
   77        2.710252   1.000000
   78        2.719382   1.000000
   79        2.858046   1.000000
   80        3.037633   1.000000
   81        3.190892   1.000000
   82        3.205560   1.000000
   83        3.291065   1.000000
   84        3.345287   1.000000
   85        3.521605   1.000000
   86        3.571847   1.000000
   87        3.638118   1.000000
   88        3.703371   1.000000
   89        3.746689   1.000000
   90        3.935051   1.000000
   91        4.016755   1.000000
   92        4.181390   1.000000
   93        4.279176   1.000000
   94        4.345707   1.000000
   95        4.377276   1.000000
   96        4.453493   1.000000
   97        6.580179   1.000000
   98        6.983148  -0.072263
   99        7.068129  -0.009695
  100        7.077949   0.000000
  101        7.205839   0.000000
  102        7.330024   0.000000
  103        7.592573   0.000000
  104        7.833688   0.000000
  105        8.300234   0.000000
  106        8.478451   0.000000
  107        8.818018   0.000000
  108        9.026280   0.000000
  109        9.240274   0.000000
  110        9.549250   0.000000
  111        9.659356   0.000000
  112        9.879497   0.000000
  113        9.930595   0.000000
  114       10.254031   0.000000
  115       10.317578   0.000000
  116       10.326864   0.000000
  117       10.550026   0.000000
  118       10.579081   0.000000
  119       10.825102   0.000000
  120       10.886214   0.000000
  121       11.370428   0.000000
  122       11.490376   0.000000
  123       11.590464   0.000000
  124       11.678938   0.000000
  125       11.756213   0.000000
  126       11.998034   0.000000
  127       12.207736   0.000000
  128       12.404042   0.000000
 
  0.3333333E+00  0.4000000E+00  0.3636364E+00  0.6060606E-02
    1      -11.657863   1.000000
    2      -10.967606   1.000000
    3      -10.754068   1.000000
    4      -10.649055   1.000000
    5      -10.624731   1.000000
    6      -10.266680   1.000000
    7       -9.182934   1.000000
    8       -9.026532   1.000000
    9       -8.891143   1.000000
   10       -8.612634   1.000000
   11       -8.503242   1.000000
   12       -8.179272   1.000000
   13       -7.937734   1.000000
   14       -7.091642   1.000000
   15       -6.812079   1.000000
   16       -6.062618   1.000000
   17       -5.802449   1.000000
   18       -5.579754   1.000000
   19       -5.352406   1.000000
   20       -5.250281   1.000000
   21       -5.154596   1.000000
   22       -5.045583   1.000000
   23       -4.663615   1.000000
   24       -4.608800   1.000000
   25       -3.803755   1.000000
   26       -3.405862   1.000000
   27       -3.224356   1.000000
   28       -3.119430   1.000000
   29       -2.943304   1.000000
   30       -2.843628   1.000000
   31       -2.683039   1.000000
   32       -2.596386   1.000000
   33       -2.521658   1.000000
   34       -2.394803   1.000000
   35       -2.309115   1.000000
   36       -2.134728   1.000000
   37       -1.998928   1.000000
   38       -1.853714   1.000000
   39       -1.760004   1.000000
   40       -1.493410   1.000000
   41       -1.374421   1.000000
   42       -1.063766   1.000000
   43       -0.995978   1.000000
   44       -0.909235   1.000000
   45       -0.704579   1.000000
   46       -0.612911   1.000000
   47       -0.506575   1.000000
   48       -0.402311   1.000000
   49       -0.243757   1.000000
   50       -0.167853   1.000000
   51       -0.100243   1.000000
   52       -0.011544   1.000000
   53        0.114357   1.000000
   54        0.194636   1.000000
   55        0.299060   1.000000
   56        0.443097   1.000000
   57        0.581387   1.000000
   58        0.718744   1.000000
   59        0.875343   1.000000
   60        0.930586   1.000000
   61        0.988611   1.000000
   62        1.166874   1.000000
   63        1.256169   1.000000
   64        1.332622   1.000000
   65        1.429431   1.000000
   66        1.530145   1.000000
   67        1.662774   1.000000
   68        1.820098   1.000000
   69        2.003007   1.000000
   70        2.075419   1.000000
   71        2.249499   1.000000
   72        2.306750   1.000000
   73        2.391335   1.000000
   74        2.523871   1.000000
   75        2.644417   1.000000
   76        2.728646   1.000000
   77        2.751942   1.000000
   78        2.840840   1.000000
   79        2.911144   1.000000
   80        2.979800   1.000000
   81        3.113919   1.000000
   82        3.153847   1.000000
   83        3.281650   1.000000
   84        3.351006   1.000000
   85        3.531469   1.000000
   86        3.597039   1.000000
   87        3.650785   1.000000
   88        3.756716   1.000000
   89        3.778471   1.000000
   90        3.847580   1.000000
   91        3.925245   1.000000
   92        4.018909   1.000000
   93        4.233621   1.000000
   94        4.282642   1.000000
   95        4.387083   1.000000
   96        4.482969   1.000000
   97        6.637043   1.000000
   98        6.951651  -0.050714
   99        7.023617   0.000000
  100        7.164920   0.000000
  101        7.246373   0.000000
  102        7.332529   0.000000
  103        7.589250   0.000000
  104        7.745237   0.000000
  105        8.261880   0.000000
  106        8.498213   0.000000
  107        8.874956   0.000000
  108        9.032461   0.000000
  109        9.329771   0.000000
  110        9.505691   0.000000
  111        9.664508   0.000000
  112        9.827091   0.000000
  113       10.015227   0.000000
  114       10.183657   0.000000
  115       10.258991   0.000000
  116       10.414010   0.000000
  117       10.556010   0.000000
  118       10.584561   0.000000
  119       10.842730   0.000000
  120       10.947206   0.000000
  121       11.095144   0.000000
  122       11.287042   0.000000
  123       11.404037   0.000000
  124       11.573988   0.000000
  125       11.633710   0.000000
  126       11.920193   0.000000
  127       12.116932   0.000000
  128       12.442957   0.000000
 
  0.5000000E+00  0.4000000E+00  0.3636364E+00  0.6060606E-02
    1      -11.656267   1.000000
    2      -10.954968   1.000000
    3      -10.763253   1.000000
    4      -10.666320   1.000000
    5      -10.621497   1.000000
    6      -10.262345   1.000000
    7       -9.214729   1.000000
    8       -9.035931   1.000000
    9       -8.776906   1.000000
   10       -8.644974   1.000000
   11       -8.552416   1.000000
   12       -8.181916   1.000000
   13       -7.909559   1.000000
   14       -7.094606   1.000000
   15       -6.798192   1.000000
   16       -6.071842   1.000000
   17       -5.726744   1.000000
   18       -5.619352   1.000000
   19       -5.416650   1.000000
   20       -5.273798   1.000000
   21       -5.120876   1.000000
   22       -5.031148   1.000000
   23       -4.718871   1.000000
   24       -4.585488   1.000000
   25       -3.803660   1.000000
   26       -3.433848   1.000000
   27       -3.334693   1.000000
   28       -3.095357   1.000000
   29       -2.995018   1.000000
   30       -2.879902   1.000000
   31       -2.779692   1.000000
   32       -2.635693   1.000000
   33       -2.528486   1.000000
   34       -2.441677   1.000000
   35       -2.090881   1.000000
   36       -2.028464   1.000000
   37       -1.916941   1.000000
   38       -1.773692   1.000000
   39       -1.537406   1.000000
   40       -1.357045   1.000000
   41       -1.237007   1.000000
   42       -1.157715   1.000000
   43       -1.001035   1.000000
   44       -0.923323   1.000000
   45       -0.827663   1.000000
   46       -0.708761   1.000000
   47       -0.600010   1.000000
   48       -0.368296   1.000000
   49       -0.271977   1.000000
   50       -0.227111   1.000000
   51       -0.072334   1.000000
   52       -0.025914   1.000000
   53        0.129105   1.000000
   54        0.194704   1.000000
   55        0.318488   1.000000
   56        0.465516   1.000000
   57        0.578869   1.000000
   58        0.708406   1.000000
   59        0.769208   1.000000
   60        0.839477   1.000000
   61        0.906362   1.000000
   62        1.092343   1.000000
   63        1.182321   1.000000
   64        1.353103   1.000000
   65        1.449908   1.000000
   66        1.538270   1.000000
   67        1.582375   1.000000
   68        1.818809   1.000000
   69        1.941210   1.000000
   70        2.124282   1.000000
   71        2.276163   1.000000
   72        2.341842   1.000000
   73        2.419022   1.000000
   74        2.515081   1.000000
   75        2.679896   1.000000
   76        2.783521   1.000000
   77        2.843139   1.000000
   78        2.877147   1.000000
   79        2.966510   1.000000
   80        3.046357   1.000000
   81        3.088708   1.000000
   82        3.180199   1.000000
   83        3.245135   1.000000
   84        3.377958   1.000000
   85        3.481527   1.000000
   86        3.554778   1.000000
   87        3.626789   1.000000
   88        3.695184   1.000000
   89        3.802032   1.000000
   90        3.910145   1.000000
   91        3.945004   1.000000
   92        3.980929   1.000000
   93        4.173052   1.000000
   94        4.360702   1.000000
   95        4.395502   1.000000
   96        4.489243   1.000000
   97        6.754294   1.000000
   98        6.812869   0.956170
   99        6.982017   0.000000
  100        7.208815   0.000000
  101        7.321761   0.000000
  102        7.384904   0.000000
  103        7.550869   0.000000
  104        7.655138   0.000000
  105        8.267413   0.000000
  106        8.547274   0.000000
  107        8.886918   0.000000
  108        9.103540   0.000000
  109        9.406926   0.000000
  110        9.484814   0.000000
  111        9.730417   0.000000
  112        9.843570   0.000000
  113        9.947384   0.000000
  114       10.124524   0.000000
  115       10.337829   0.000000
  116       10.496163   0.000000
  117       10.529836   0.000000
  118       10.634743   0.000000
  119       10.807633   0.000000
  120       10.874729   0.000000
  121       10.984207   0.000000
  122       11.135974   0.000000
  123       11.369423   0.000000
  124       11.518372   0.000000
  125       11.691581   0.000000
  126       11.836012   0.000000
  127       12.080137   0.000000
  128       12.432326   0.000000
 
 -0.3333333E+00  0.4000000E+00  0.3636364E+00  0.6060606E-02
    1      -11.648574   1.000000
    2      -10.941918   1.000000
    3      -10.785778   1.000000
    4      -10.699354   1.000000
    5      -10.609350   1.000000
    6      -10.247612   1.000000
    7       -9.229392   1.000000
    8       -9.074644   1.000000
    9       -8.771432   1.000000
   10       -8.560797   1.000000
   11       -8.517819   1.000000
   12       -8.190377   1.000000
   13       -7.917716   1.000000
   14       -7.133367   1.000000
   15       -6.815181   1.000000
   16       -6.083487   1.000000
   17       -5.761250   1.000000
   18       -5.631657   1.000000
   19       -5.389381   1.000000
   20       -5.300884   1.000000
   21       -5.088653   1.000000
   22       -4.947229   1.000000
   23       -4.690236   1.000000
   24       -4.552939   1.000000
   25       -3.833043   1.000000
   26       -3.545682   1.000000
   27       -3.359138   1.000000
   28       -3.167771   1.000000
   29       -3.102368   1.000000
   30       -2.965970   1.000000
   31       -2.824025   1.000000
   32       -2.625126   1.000000
   33       -2.557441   1.000000
   34       -2.429743   1.000000
   35       -1.987860   1.000000
   36       -1.915010   1.000000
   37       -1.806516   1.000000
   38       -1.631663   1.000000
   39       -1.548678   1.000000
   40       -1.375597   1.000000
   41       -1.311106   1.000000
   42       -1.084615   1.000000
   43       -1.016630   1.000000
   44       -0.900138   1.000000
   45       -0.749595   1.000000
   46       -0.610531   1.000000
   47       -0.534680   1.000000
   48       -0.397483   1.000000
   49       -0.330144   1.000000
   50       -0.188769   1.000000
   51       -0.153180   1.000000
   52        0.018876   1.000000
   53        0.131292   1.000000
   54        0.247810   1.000000
   55        0.356679   1.000000
   56        0.454379   1.000000
   57        0.592999   1.000000
   58        0.672493   1.000000
   59        0.730817   1.000000
   60        0.831134   1.000000
   61        0.978999   1.000000
   62        1.083074   1.000000
   63        1.172969   1.000000
   64        1.343005   1.000000
   65        1.400414   1.000000
   66        1.484192   1.000000
   67        1.587788   1.000000
   68        1.763360   1.000000
   69        1.972227   1.000000
   70        2.053493   1.000000
   71        2.159493   1.000000
   72        2.298346   1.000000
   73        2.380668   1.000000
   74        2.520346   1.000000
   75        2.605366   1.000000
   76        2.731426   1.000000
   77        2.784632   1.000000
   78        2.874532   1.000000
   79        2.909045   1.000000
   80        3.005995   1.000000
   81        3.056741   1.000000
   82        3.093223   1.000000
   83        3.192075   1.000000
   84        3.272463   1.000000
   85        3.503197   1.000000
   86        3.618997   1.000000
   87        3.688499   1.000000
   88        3.774091   1.000000
   89        3.886585   1.000000
   90        3.993478   1.000000
   91        4.041158   1.000000
   92        4.114094   1.000000
   93        4.218003   1.000000
   94        4.339975   1.000000
   95        4.373598   1.000000
   96        4.507324   1.000000
   97        6.647827   1.000000
   98        6.915795   0.025394
   99        6.955835   0.000000
  100        7.164062   0.000000
  101        7.285182   0.000000
  102        7.422518   0.000000
  103        7.597063   0.000000
  104        7.654824   0.000000
  105        8.296883   0.000000
  106        8.581532   0.000000
  107        8.811576   0.000000
  108        9.186190   0.000000
  109        9.426337   0.000000
  110        9.486800   0.000000
  111        9.779192   0.000000
  112        9.862623   0.000000
  113        9.968869   0.000000
  114       10.043850   0.000000
  115       10.314262   0.000000
  116       10.481372   0.000000
  117       10.545525   0.000000
  118       10.650595   0.000000
  119       10.786631   0.000000
  120       10.866004   0.000000
  121       11.092908   0.000000
  122       11.179334   0.000000
  123       11.482191   0.000000
  124       11.591835   0.000000
  125       11.782209   0.000000
  126       11.939504   0.000000
  127       12.070493   0.000000
  128       12.482348   0.000000
 
 -0.1666667E+00  0.4000000E+00  0.3636364E+00  0.6060606E-02
    1      -11.642336   1.000000
    2      -10.941698   1.000000
    3      -10.804906   1.000000
    4      -10.707145   1.000000
    5      -10.601793   1.000000
    6      -10.237857   1.000000
    7       -9.218419   1.000000
    8       -9.102947   1.000000
    9       -8.843342   1.000000
   10       -8.492348   1.000000
   11       -8.402787   1.000000
   12       -8.192355   1.000000
   13       -7.972308   1.000000
   14       -7.175329   1.000000
   15       -6.838607   1.000000
   16       -6.074454   1.000000
   17       -5.865819   1.000000
   18       -5.581077   1.000000
   19       -5.395899   1.000000
   20       -5.290015   1.000000
   21       -5.032536   1.000000
   22       -4.887337   1.000000
   23       -4.603385   1.000000
   24       -4.532762   1.000000
   25       -3.885810   1.000000
   26       -3.631317   1.000000
   27       -3.326255   1.000000
   28       -3.276515   1.000000
   29       -3.113078   1.000000
   30       -2.977390   1.000000
   31       -2.779042   1.000000
   32       -2.593745   1.000000
   33       -2.491400   1.000000
   34       -2.378957   1.000000
   35       -2.172516   1.000000
   36       -2.041483   1.000000
   37       -1.861103   1.000000
   38       -1.758572   1.000000
   39       -1.557401   1.000000
   40       -1.373883   1.000000
   41       -1.271906   1.000000
   42       -1.083613   1.000000
   43       -0.953397   1.000000
   44       -0.832437   1.000000
   45       -0.682865   1.000000
   46       -0.610446   1.000000
   47       -0.554984   1.000000
   48       -0.316088   1.000000
   49       -0.231849   1.000000
   50       -0.188592   1.000000
   51       -0.002420   1.000000
   52        0.126039   1.000000
   53        0.196034   1.000000
   54        0.299040   1.000000
   55        0.327012   1.000000
   56        0.364981   1.000000
   57        0.598121   1.000000
   58        0.687923   1.000000
   59        0.801846   1.000000
   60        0.875500   1.000000
   61        1.079172   1.000000
   62        1.136489   1.000000
   63        1.186059   1.000000
   64        1.277442   1.000000
   65        1.417673   1.000000
   66        1.445567   1.000000
   67        1.539937   1.000000
   68        1.735722   1.000000
   69        1.888521   1.000000
   70        2.057121   1.000000
   71        2.077689   1.000000
   72        2.206913   1.000000
   73        2.323138   1.000000
   74        2.440798   1.000000
   75        2.510413   1.000000
   76        2.600385   1.000000
   77        2.703209   1.000000
   78        2.782610   1.000000
   79        2.910338   1.000000
   80        2.987544   1.000000
   81        3.091896   1.000000
   82        3.136679   1.000000
   83        3.169353   1.000000
   84        3.279977   1.000000
   85        3.484653   1.000000
   86        3.564243   1.000000
   87        3.732532   1.000000
   88        3.807508   1.000000
   89        3.888902   1.000000
   90        4.054129   1.000000
   91        4.124361   1.000000
   92        4.249480   1.000000
   93        4.277004   1.000000
   94        4.345821   1.000000
   95        4.384173   1.000000
   96        4.446581   1.000000
   97        6.585753   1.000000
   98        6.944162  -0.024901
   99        6.988402  -0.043550
  100        7.122947   0.000000
  101        7.210060   0.000000
  102        7.420959   0.000000
  103        7.629797   0.000000
  104        7.733730   0.000000
  105        8.334134   0.000000
  106        8.555990   0.000000
  107        8.798066   0.000000
  108        9.179747   0.000000
  109        9.352228   0.000000
  110        9.513501   0.000000
  111        9.652067   0.000000
  112        9.879869   0.000000
  113        9.973034   0.000000
  114       10.089898   0.000000
  115       10.249122   0.000000
  116       10.457708   0.000000
  117       10.534660   0.000000
  118       10.654283   0.000000
  119       10.905207   0.000000
  120       10.933170   0.000000
  121       11.193185   0.000000
  122       11.413799   0.000000
  123       11.583287   0.000000
  124       11.752972   0.000000
  125       11.851262   0.000000
  126       12.017975   0.000000
  127       12.171427   0.000000
  128       12.456657   0.000000
 
  0.0000000E+00 -0.4000000E+00  0.3636364E+00  0.6060606E-02
    1      -11.632678   1.000000
    2      -11.006496   1.000000
    3      -10.783210   1.000000
    4      -10.705109   1.000000
    5      -10.545418   1.000000
    6      -10.265397   1.000000
    7       -9.209939   1.000000
    8       -9.086313   1.000000
    9       -8.839048   1.000000
   10       -8.470035   1.000000
   11       -8.428501   1.000000
   12       -8.274832   1.000000
   13       -7.890535   1.000000
   14       -7.178265   1.000000
   15       -6.906663   1.000000
   16       -6.003649   1.000000
   17       -5.880624   1.000000
   18       -5.536311   1.000000
   19       -5.344803   1.000000
   20       -5.304584   1.000000
   21       -5.202005   1.000000
   22       -4.955533   1.000000
   23       -4.560189   1.000000
   24       -4.359152   1.000000
   25       -3.979843   1.000000
   26       -3.645066   1.000000
   27       -3.456654   1.000000
   28       -3.230802   1.000000
   29       -3.087176   1.000000
   30       -2.888813   1.000000
   31       -2.849800   1.000000
   32       -2.507544   1.000000
   33       -2.399474   1.000000
   34       -2.207399   1.000000
   35       -2.121848   1.000000
   36       -1.995986   1.000000
   37       -1.769763   1.000000
   38       -1.680810   1.000000
   39       -1.625610   1.000000
   40       -1.474652   1.000000
   41       -1.298056   1.000000
   42       -1.183724   1.000000
   43       -1.119172   1.000000
   44       -1.049849   1.000000
   45       -0.866235   1.000000
   46       -0.755479   1.000000
   47       -0.477960   1.000000
   48       -0.441461   1.000000
   49       -0.202701   1.000000
   50       -0.112118   1.000000
   51       -0.015702   1.000000
   52        0.139151   1.000000
   53        0.264658   1.000000
   54        0.371859   1.000000
   55        0.459714   1.000000
   56        0.560002   1.000000
   57        0.615831   1.000000
   58        0.670428   1.000000
   59        0.840182   1.000000
   60        0.970497   1.000000
   61        1.037935   1.000000
   62        1.052698   1.000000
   63        1.172564   1.000000
   64        1.282032   1.000000
   65        1.351769   1.000000
   66        1.519504   1.000000
   67        1.627287   1.000000
   68        1.699496   1.000000
   69        1.879209   1.000000
   70        1.955579   1.000000
   71        2.015985   1.000000
   72        2.160626   1.000000
   73        2.344183   1.000000
   74        2.407938   1.000000
   75        2.470683   1.000000
   76        2.601849   1.000000
   77        2.703294   1.000000
   78        2.760089   1.000000
   79        2.990305   1.000000
   80        3.040010   1.000000
   81        3.129670   1.000000
   82        3.176289   1.000000
   83        3.238334   1.000000
   84        3.280145   1.000000
   85        3.441499   1.000000
   86        3.627572   1.000000
   87        3.717002   1.000000
   88        3.785796   1.000000
   89        3.980610   1.000000
   90        4.014530   1.000000
   91        4.122407   1.000000
   92        4.183559   1.000000
   93        4.224715   1.000000
   94        4.312113   1.000000
   95        4.392125   1.000000
   96        4.505614   1.000000
   97        6.523710   1.000000
   98        6.846257   0.536051
   99        7.164781   0.000000
  100        7.234929   0.000000
  101        7.272486   0.000000
  102        7.374779   0.000000
  103        7.533962   0.000000
  104        7.744277   0.000000
  105        8.310429   0.000000
  106        8.566132   0.000000
  107        8.889578   0.000000
  108        8.983637   0.000000
  109        9.293805   0.000000
  110        9.415799   0.000000
  111        9.627280   0.000000
  112        9.820747   0.000000
  113        9.955786   0.000000
  114       10.147924   0.000000
  115       10.388583   0.000000
  116       10.447213   0.000000
  117       10.557373   0.000000
  118       10.717798   0.000000
  119       10.813364   0.000000
  120       10.992770   0.000000
  121       11.223710   0.000000
  122       11.361442   0.000000
  123       11.566298   0.000000
  124       11.748119   0.000000
  125       11.822280   0.000000
  126       11.968138   0.000000
  127       12.175837   0.000000
  128       12.326758   0.000000
 
  0.1666667E+00 -0.4000000E+00  0.3636364E+00  0.6060606E-02
    1      -11.637928   1.000000
    2      -11.022469   1.000000
    3      -10.756619   1.000000
    4      -10.683613   1.000000
    5      -10.557465   1.000000
    6      -10.276323   1.000000
    7       -9.181742   1.000000
    8       -9.053141   1.000000
    9       -8.903208   1.000000
   10       -8.458003   1.000000
   11       -8.399897   1.000000
   12       -8.310442   1.000000
   13       -7.951250   1.000000
   14       -7.149470   1.000000
   15       -6.900553   1.000000
   16       -6.016880   1.000000
   17       -5.813894   1.000000
   18       -5.498061   1.000000
   19       -5.397466   1.000000
   20       -5.318288   1.000000
   21       -5.234935   1.000000
   22       -5.010541   1.000000
   23       -4.624356   1.000000
   24       -4.422757   1.000000
   25       -3.847689   1.000000
   26       -3.513148   1.000000
   27       -3.235152   1.000000
   28       -3.099112   1.000000
   29       -2.985749   1.000000
   30       -2.826304   1.000000
   31       -2.695468   1.000000
   32       -2.489972   1.000000
   33       -2.454469   1.000000
   34       -2.305826   1.000000
   35       -2.205619   1.000000
   36       -2.099337   1.000000
   37       -2.004331   1.000000
   38       -1.816728   1.000000
   39       -1.720515   1.000000
   40       -1.546772   1.000000
   41       -1.482855   1.000000
   42       -1.301378   1.000000
   43       -1.155490   1.000000
   44       -1.125454   1.000000
   45       -0.782894   1.000000
   46       -0.704100   1.000000
   47       -0.610147   1.000000
   48       -0.468422   1.000000
   49       -0.237875   1.000000
   50       -0.063435   1.000000
   51        0.001271   1.000000
   52        0.085489   1.000000
   53        0.186279   1.000000
   54        0.333668   1.000000
   55        0.448551   1.000000
   56        0.628400   1.000000
   57        0.692986   1.000000
   58        0.776893   1.000000
   59        0.905172   1.000000
   60        1.019291   1.000000
   61        1.091411   1.000000
   62        1.219535   1.000000
   63        1.273095   1.000000
   64        1.393198   1.000000
   65        1.495661   1.000000
   66        1.521716   1.000000
   67        1.594574   1.000000
   68        1.733555   1.000000
   69        1.924451   1.000000
   70        2.043205   1.000000
   71        2.134572   1.000000
   72        2.256189   1.000000
   73        2.331113   1.000000
   74        2.429623   1.000000
   75        2.478553   1.000000
   76        2.622426   1.000000
   77        2.671988   1.000000
   78        2.737160   1.000000
   79        2.870179   1.000000
   80        2.988645   1.000000
   81        3.186876   1.000000
   82        3.250292   1.000000
   83        3.326506   1.000000
   84        3.355691   1.000000
   85        3.440409   1.000000
   86        3.475999   1.000000
   87        3.687103   1.000000
   88        3.733448   1.000000
   89        3.789591   1.000000
   90        3.850590   1.000000
   91        4.115619   1.000000
   92        4.154681   1.000000
   93        4.203131   1.000000
   94        4.295154   1.000000
   95        4.334725   1.000000
   96        4.482799   1.000000
   97        6.538076   1.000000
   98        6.887380   0.156835
   99        7.142294   0.000000
  100        7.192968   0.000000
  101        7.237836   0.000000
  102        7.338382   0.000000
  103        7.551312   0.000000
  104        7.814213   0.000000
  105        8.258396   0.000000
  106        8.611110   0.000000
  107        8.856471   0.000000
  108        9.006595   0.000000
  109        9.431536   0.000000
  110        9.470633   0.000000
  111        9.630516   0.000000
  112        9.822167   0.000000
  113       10.008885   0.000000
  114       10.067251   0.000000
  115       10.272684   0.000000
  116       10.451984   0.000000
  117       10.505216   0.000000
  118       10.612312   0.000000
  119       10.812272   0.000000
  120       10.865234   0.000000
  121       11.238054   0.000000
  122       11.342071   0.000000
  123       11.617954   0.000000
  124       11.665400   0.000000
  125       11.770522   0.000000
  126       11.907341   0.000000
  127       12.227326   0.000000
  128       12.376749   0.000000
 
  0.3333333E+00 -0.4000000E+00  0.3636364E+00  0.6060606E-02
    1      -11.642587   1.000000
    2      -11.028727   1.000000
    3      -10.736022   1.000000
    4      -10.668736   1.000000
    5      -10.572450   1.000000
    6      -10.281544   1.000000
    7       -9.138659   1.000000
    8       -9.037918   1.000000
    9       -8.920479   1.000000
   10       -8.567343   1.000000
   11       -8.425625   1.000000
   12       -8.298893   1.000000
   13       -7.911356   1.000000
   14       -7.094293   1.000000
   15       -6.880584   1.000000
   16       -6.042143   1.000000
   17       -5.758461   1.000000
   18       -5.542454   1.000000
   19       -5.378758   1.000000
   20       -5.353350   1.000000
   21       -5.178669   1.000000
   22       -5.086282   1.000000
   23       -4.661326   1.000000
   24       -4.472908   1.000000
   25       -3.813177   1.000000
   26       -3.447194   1.000000
   27       -3.236863   1.000000
   28       -3.024422   1.000000
   29       -2.893561   1.000000
   30       -2.829032   1.000000
   31       -2.711758   1.000000
   32       -2.586149   1.000000
   33       -2.475838   1.000000
   34       -2.321183   1.000000
   35       -2.256005   1.000000
   36       -2.131917   1.000000
   37       -1.986125   1.000000
   38       -1.886859   1.000000
   39       -1.708901   1.000000
   40       -1.489913   1.000000
   41       -1.321037   1.000000
   42       -1.220564   1.000000
   43       -1.084571   1.000000
   44       -0.930445   1.000000
   45       -0.802271   1.000000
   46       -0.746047   1.000000
   47       -0.609196   1.000000
   48       -0.572330   1.000000
   49       -0.330182   1.000000
   50       -0.084495   1.000000
   51       -0.032260   1.000000
   52        0.031486   1.000000
   53        0.134718   1.000000
   54        0.225412   1.000000
   55        0.398275   1.000000
   56        0.509683   1.000000
   57        0.559855   1.000000
   58        0.668036   1.000000
   59        0.803842   1.000000
   60        0.985255   1.000000
   61        1.033963   1.000000
   62        1.186470   1.000000
   63        1.299707   1.000000
   64        1.405130   1.000000
   65        1.497253   1.000000
   66        1.529131   1.000000
   67        1.687116   1.000000
   68        1.847764   1.000000
   69        1.968104   1.000000
   70        2.079757   1.000000
   71        2.219537   1.000000
   72        2.305252   1.000000
   73        2.446105   1.000000
   74        2.556301   1.000000
   75        2.610897   1.000000
   76        2.714193   1.000000
   77        2.771515   1.000000
   78        2.852782   1.000000
   79        2.884013   1.000000
   80        3.031983   1.000000
   81        3.143075   1.000000
   82        3.222423   1.000000
   83        3.310051   1.000000
   84        3.392693   1.000000
   85        3.445294   1.000000
   86        3.544506   1.000000
   87        3.621033   1.000000
   88        3.656389   1.000000
   89        3.747914   1.000000
   90        3.775745   1.000000
   91        4.030225   1.000000
   92        4.114028   1.000000
   93        4.161394   1.000000
   94        4.270976   1.000000
   95        4.331099   1.000000
   96        4.453791   1.000000
   97        6.588385   1.000000
   98        6.926333  -0.039190
   99        6.997044   0.000000
  100        7.201917   0.000000
  101        7.248335   0.000000
  102        7.323394   0.000000
  103        7.561934   0.000000
  104        7.801031   0.000000
  105        8.256361   0.000000
  106        8.644808   0.000000
  107        8.918856   0.000000
  108        9.040421   0.000000
  109        9.459428   0.000000
  110        9.540234   0.000000
  111        9.656598   0.000000
  112        9.777746   0.000000
  113       10.039193   0.000000
  114       10.130054   0.000000
  115       10.258849   0.000000
  116       10.380230   0.000000
  117       10.459458   0.000000
  118       10.576376   0.000000
  119       10.796858   0.000000
  120       10.968199   0.000000
  121       11.064431   0.000000
  122       11.242009   0.000000
  123       11.406972   0.000000
  124       11.502643   0.000000
  125       11.711631   0.000000
  126       11.808730   0.000000
  127       12.164609   0.000000
  128       12.358163   0.000000
 
  0.5000000E+00 -0.4000000E+00  0.3636364E+00  0.6060606E-02
    1      -11.642128   1.000000
    2      -11.020051   1.000000
    3      -10.754094   1.000000
    4      -10.656675   1.000000
    5      -10.582577   1.000000
    6      -10.274063   1.000000
    7       -9.136689   1.000000
    8       -9.055143   1.000000
    9       -8.844248   1.000000
   10       -8.658588   1.000000
   11       -8.514945   1.000000
   12       -8.238107   1.000000
   13       -7.838428   1.000000
   14       -7.072565   1.000000
   15       -6.861003   1.000000
   16       -6.042934   1.000000
   17       -5.752811   1.000000
   18       -5.623153   1.000000
   19       -5.415759   1.000000
   20       -5.316946   1.000000
   21       -5.174227   1.000000
   22       -4.994842   1.000000
   23       -4.645810   1.000000
   24       -4.455395   1.000000
   25       -3.908199   1.000000
   26       -3.537282   1.000000
   27       -3.400369   1.000000
   28       -3.164703   1.000000
   29       -3.093814   1.000000
   30       -2.928714   1.000000
   31       -2.800158   1.000000
   32       -2.536811   1.000000
   33       -2.467365   1.000000
   34       -2.208862   1.000000
   35       -2.048238   1.000000
   36       -1.962375   1.000000
   37       -1.814771   1.000000
   38       -1.735158   1.000000
   39       -1.655567   1.000000
   40       -1.384926   1.000000
   41       -1.213990   1.000000
   42       -1.109564   1.000000
   43       -0.939983   1.000000
   44       -0.796942   1.000000
   45       -0.705307   1.000000
   46       -0.676361   1.000000
   47       -0.573654   1.000000
   48       -0.513070   1.000000
   49       -0.389700   1.000000
   50       -0.167987   1.000000
   51       -0.060649   1.000000
   52       -0.012067   1.000000
   53        0.092405   1.000000
   54        0.144297   1.000000
   55        0.273774   1.000000
   56        0.314501   1.000000
   57        0.452765   1.000000
   58        0.506738   1.000000
   59        0.663439   1.000000
   60        0.785610   1.000000
   61        0.973559   1.000000
   62        1.030581   1.000000
   63        1.133096   1.000000
   64        1.351182   1.000000
   65        1.429388   1.000000
   66        1.531083   1.000000
   67        1.691530   1.000000
   68        1.853075   1.000000
   69        1.955984   1.000000
   70        2.165700   1.000000
   71        2.273050   1.000000
   72        2.335819   1.000000
   73        2.446093   1.000000
   74        2.630865   1.000000
   75        2.693756   1.000000
   76        2.739773   1.000000
   77        2.861222   1.000000
   78        2.962892   1.000000
   79        3.024253   1.000000
   80        3.094789   1.000000
   81        3.148280   1.000000
   82        3.234076   1.000000
   83        3.298153   1.000000
   84        3.391715   1.000000
   85        3.461559   1.000000
   86        3.508617   1.000000
   87        3.548182   1.000000
   88        3.625578   1.000000
   89        3.746242   1.000000
   90        3.910584   1.000000
   91        4.016875   1.000000
   92        4.038483   1.000000
   93        4.212354   1.000000
   94        4.333065   1.000000
   95        4.382622   1.000000
   96        4.484788   1.000000
   97        6.656515   1.000000
   98        6.778839   1.082565
   99        7.067745   0.000000
  100        7.204773   0.000000
  101        7.289500   0.000000
  102        7.322798   0.000000
  103        7.545302   0.000000
  104        7.702515   0.000000
  105        8.293066   0.000000
  106        8.641210   0.000000
  107        9.001787   0.000000
  108        9.086923   0.000000
  109        9.399387   0.000000
  110        9.446672   0.000000
  111        9.635656   0.000000
  112        9.873249   0.000000
  113        9.993266   0.000000
  114       10.148748   0.000000
  115       10.341563   0.000000
  116       10.472462   0.000000
  117       10.521399   0.000000
  118       10.667014   0.000000
  119       10.771674   0.000000
  120       10.877479   0.000000
  121       11.087318   0.000000
  122       11.122404   0.000000
  123       11.303897   0.000000
  124       11.438706   0.000000
  125       11.625433   0.000000
  126       11.820688   0.000000
  127       12.057906   0.000000
  128       12.332365   0.000000
 
 -0.3333333E+00 -0.4000000E+00  0.3636364E+00  0.6060606E-02
    1      -11.636941   1.000000
    2      -11.005011   1.000000
    3      -10.777856   1.000000
    4      -10.685264   1.000000
    5      -10.565762   1.000000
    6      -10.262880   1.000000
    7       -9.185752   1.000000
    8       -9.054910   1.000000
    9       -8.784799   1.000000
   10       -8.653816   1.000000
   11       -8.550143   1.000000
   12       -8.207882   1.000000
   13       -7.789588   1.000000
   14       -7.100429   1.000000
   15       -6.870876   1.000000
   16       -6.042988   1.000000
   17       -5.790585   1.000000
   18       -5.675129   1.000000
   19       -5.407692   1.000000
   20       -5.237332   1.000000
   21       -5.114855   1.000000
   22       -4.981005   1.000000
   23       -4.587639   1.000000
   24       -4.415195   1.000000
   25       -3.983323   1.000000
   26       -3.638948   1.000000
   27       -3.569150   1.000000
   28       -3.364164   1.000000
   29       -3.196635   1.000000
   30       -3.008317   1.000000
   31       -2.849123   1.000000
   32       -2.630624   1.000000
   33       -2.419997   1.000000
   34       -2.182589   1.000000
   35       -2.026830   1.000000
   36       -1.728513   1.000000
   37       -1.627374   1.000000
   38       -1.517069   1.000000
   39       -1.385818   1.000000
   40       -1.241511   1.000000
   41       -1.103607   1.000000
   42       -1.053430   1.000000
   43       -0.936263   1.000000
   44       -0.829154   1.000000
   45       -0.761762   1.000000
   46       -0.636606   1.000000
   47       -0.511939   1.000000
   48       -0.418101   1.000000
   49       -0.342729   1.000000
   50       -0.207658   1.000000
   51       -0.173283   1.000000
   52       -0.025261   1.000000
   53       -0.005602   1.000000
   54        0.076098   1.000000
   55        0.205982   1.000000
   56        0.318431   1.000000
   57        0.412017   1.000000
   58        0.502836   1.000000
   59        0.628870   1.000000
   60        0.755094   1.000000
   61        0.883967   1.000000
   62        0.998487   1.000000
   63        1.097470   1.000000
   64        1.288008   1.000000
   65        1.423282   1.000000
   66        1.509516   1.000000
   67        1.577549   1.000000
   68        1.777296   1.000000
   69        1.903200   1.000000
   70        2.110052   1.000000
   71        2.243549   1.000000
   72        2.296291   1.000000
   73        2.358069   1.000000
   74        2.497454   1.000000
   75        2.616502   1.000000
   76        2.797965   1.000000
   77        2.861713   1.000000
   78        2.926456   1.000000
   79        2.996581   1.000000
   80        3.075252   1.000000
   81        3.143387   1.000000
   82        3.183859   1.000000
   83        3.337226   1.000000
   84        3.365793   1.000000
   85        3.431523   1.000000
   86        3.569544   1.000000
   87        3.636646   1.000000
   88        3.762428   1.000000
   89        3.857588   1.000000
   90        3.980117   1.000000
   91        4.075893   1.000000
   92        4.172495   1.000000
   93        4.287250   1.000000
   94        4.370415   1.000000
   95        4.416958   1.000000
   96        4.490858   1.000000
   97        6.539176   1.000000
   98        6.939680   0.029823
   99        7.087173   0.000000
  100        7.148880   0.000000
  101        7.301864   0.000000
  102        7.388662   0.000000
  103        7.519637   0.000000
  104        7.620185   0.000000
  105        8.320589   0.000000
  106        8.608210   0.000000
  107        8.938820   0.000000
  108        9.163673   0.000000
  109        9.294585   0.000000
  110        9.339287   0.000000
  111        9.638414   0.000000
  112        9.942427   0.000000
  113       10.030239   0.000000
  114       10.158300   0.000000
  115       10.359610   0.000000
  116       10.539555   0.000000
  117       10.627672   0.000000
  118       10.692844   0.000000
  119       10.812621   0.000000
  120       10.954518   0.000000
  121       11.125001   0.000000
  122       11.145796   0.000000
  123       11.249405   0.000000
  124       11.462766   0.000000
  125       11.636234   0.000000
  126       11.884274   0.000000
  127       12.100670   0.000000
  128       12.307875   0.000000
 
 -0.1666667E+00 -0.4000000E+00  0.3636364E+00  0.6060606E-02
    1      -11.632147   1.000000
    2      -10.997855   1.000000
    3      -10.787365   1.000000
    4      -10.714067   1.000000
    5      -10.547329   1.000000
    6      -10.259312   1.000000
    7       -9.213040   1.000000
    8       -9.081040   1.000000
    9       -8.793299   1.000000
   10       -8.552588   1.000000
   11       -8.511467   1.000000
   12       -8.224894   1.000000
   13       -7.805860   1.000000
   14       -7.152231   1.000000
   15       -6.895410   1.000000
   16       -6.031624   1.000000
   17       -5.867240   1.000000
   18       -5.626358   1.000000
   19       -5.324996   1.000000
   20       -5.241559   1.000000
   21       -5.113286   1.000000
   22       -5.003057   1.000000
   23       -4.537860   1.000000
   24       -4.373487   1.000000
   25       -4.016685   1.000000
   26       -3.713230   1.000000
   27       -3.605163   1.000000
   28       -3.291050   1.000000
   29       -3.165673   1.000000
   30       -3.040692   1.000000
   31       -2.922134   1.000000
   32       -2.611947   1.000000
   33       -2.407620   1.000000
   34       -2.172722   1.000000
   35       -2.061348   1.000000
   36       -1.814891   1.000000
   37       -1.610315   1.000000
   38       -1.521678   1.000000
   39       -1.340768   1.000000
   40       -1.248430   1.000000
   41       -1.151389   1.000000
   42       -1.065688   1.000000
   43       -0.983784   1.000000
   44       -0.836982   1.000000
   45       -0.797186   1.000000
   46       -0.691711   1.000000
   47       -0.600048   1.000000
   48       -0.458965   1.000000
   49       -0.335829   1.000000
   50       -0.242738   1.000000
   51       -0.089471   1.000000
   52        0.003023   1.000000
   53        0.177118   1.000000
   54        0.207776   1.000000
   55        0.314857   1.000000
   56        0.419538   1.000000
   57        0.519236   1.000000
   58        0.588038   1.000000
   59        0.775322   1.000000
   60        0.815918   1.000000
   61        0.901716   1.000000
   62        1.050467   1.000000
   63        1.145475   1.000000
   64        1.224757   1.000000
   65        1.387404   1.000000
   66        1.457686   1.000000
   67        1.598625   1.000000
   68        1.649022   1.000000
   69        1.891128   1.000000
   70        1.976685   1.000000
   71        2.132260   1.000000
   72        2.211524   1.000000
   73        2.277759   1.000000
   74        2.413522   1.000000
   75        2.519619   1.000000
   76        2.674436   1.000000
   77        2.823082   1.000000
   78        2.856658   1.000000
   79        3.009051   1.000000
   80        3.073728   1.000000
   81        3.106732   1.000000
   82        3.158629   1.000000
   83        3.211442   1.000000
   84        3.349593   1.000000
   85        3.467800   1.000000
   86        3.649798   1.000000
   87        3.703169   1.000000
   88        3.789860   1.000000
   89        4.006455   1.000000
   90        4.052622   1.000000
   91        4.200269   1.000000
   92        4.247114   1.000000
   93        4.267658   1.000000
   94        4.327199   1.000000
   95        4.376313   1.000000
   96        4.481800   1.000000
   97        6.507794   1.000000
   98        6.909573   0.263705
   99        7.151505   0.000000
  100        7.175636   0.000000
  101        7.304220   0.000000
  102        7.387628   0.000000
  103        7.535401   0.000000
  104        7.645798   0.000000
  105        8.333785   0.000000
  106        8.568918   0.000000
  107        8.895607   0.000000
  108        9.088109   0.000000
  109        9.251351   0.000000
  110        9.335444   0.000000
  111        9.628922   0.000000
  112        9.890837   0.000000
  113       10.014891   0.000000
  114       10.141604   0.000000
  115       10.438352   0.000000
  116       10.493856   0.000000
  117       10.591679   0.000000
  118       10.788477   0.000000
  119       10.827380   0.000000
  120       11.080081   0.000000
  121       11.114727   0.000000
  122       11.198086   0.000000
  123       11.433115   0.000000
  124       11.623684   0.000000
  125       11.764337   0.000000
  126       11.896397   0.000000
  127       12.129785   0.000000
  128       12.322684   0.000000
 
  0.0000000E+00 -0.2000000E+00  0.3636364E+00  0.6060606E-02
    1      -11.630761   1.000000
    2      -11.015207   1.000000
    3      -10.785485   1.000000
    4      -10.695646   1.000000
    5      -10.527801   1.000000
    6      -10.286391   1.000000
    7       -9.262478   1.000000
    8       -8.977650   1.000000
    9       -8.802363   1.000000
   10       -8.632261   1.000000
   11       -8.530105   1.000000
   12       -8.147668   1.000000
   13       -7.800071   1.000000
   14       -7.133960   1.000000
   15       -6.975661   1.000000
   16       -6.008836   1.000000
   17       -5.824694   1.000000
   18       -5.587970   1.000000
   19       -5.370487   1.000000
   20       -5.310786   1.000000
   21       -5.124414   1.000000
   22       -5.018944   1.000000
   23       -4.414504   1.000000
   24       -4.250505   1.000000
   25       -4.090366   1.000000
   26       -3.841592   1.000000
   27       -3.614234   1.000000
   28       -3.339972   1.000000
   29       -3.197722   1.000000
   30       -3.075797   1.000000
   31       -2.889228   1.000000
   32       -2.454599   1.000000
   33       -2.363154   1.000000
   34       -2.153277   1.000000
   35       -1.964218   1.000000
   36       -1.883282   1.000000
   37       -1.632286   1.000000
   38       -1.525653   1.000000
   39       -1.452897   1.000000
   40       -1.271863   1.000000
   41       -1.140802   1.000000
   42       -1.077418   1.000000
   43       -0.932995   1.000000
   44       -0.881163   1.000000
   45       -0.818356   1.000000
   46       -0.743918   1.000000
   47       -0.678473   1.000000
   48       -0.543699   1.000000
   49       -0.291546   1.000000
   50       -0.259132   1.000000
   51        0.044463   1.000000
   52        0.097581   1.000000
   53        0.214033   1.000000
   54        0.254576   1.000000
   55        0.326946   1.000000
   56        0.405673   1.000000
   57        0.593732   1.000000
   58        0.725738   1.000000
   59        0.837582   1.000000
   60        0.866142   1.000000
   61        0.912801   1.000000
   62        1.009381   1.000000
   63        1.093189   1.000000
   64        1.153553   1.000000
   65        1.297758   1.000000
   66        1.380231   1.000000
   67        1.580137   1.000000
   68        1.682458   1.000000
   69        1.919844   1.000000
   70        1.944023   1.000000
   71        2.077078   1.000000
   72        2.179370   1.000000
   73        2.236199   1.000000
   74        2.470425   1.000000
   75        2.563715   1.000000
   76        2.603886   1.000000
   77        2.733453   1.000000
   78        2.852597   1.000000
   79        2.863178   1.000000
   80        3.022113   1.000000
   81        3.061591   1.000000
   82        3.127933   1.000000
   83        3.212161   1.000000
   84        3.293587   1.000000
   85        3.495616   1.000000
   86        3.551829   1.000000
   87        3.795087   1.000000
   88        3.856623   1.000000
   89        3.929234   1.000000
   90        4.092068   1.000000
   91        4.183486   1.000000
   92        4.257180   1.000000
   93        4.361234   1.000000
   94        4.441707   1.000000
   95        4.520911   1.000000
   96        4.711802   1.000000
   97        6.564503   1.000000
   98        6.719070   1.087644
   99        7.119621  -0.008414
  100        7.233065   0.000000
  101        7.291035   0.000000
  102        7.427121   0.000000
  103        7.560837   0.000000
  104        7.689279   0.000000
  105        8.247091   0.000000
  106        8.446466   0.000000
  107        8.756511   0.000000
  108        8.916121   0.000000
  109        9.132753   0.000000
  110        9.446661   0.000000
  111        9.560544   0.000000
  112        9.920151   0.000000
  113       10.092195   0.000000
  114       10.299434   0.000000
  115       10.325182   0.000000
  116       10.441148   0.000000
  117       10.638826   0.000000
  118       10.881910   0.000000
  119       10.908332   0.000000
  120       11.129926   0.000000
  121       11.271485   0.000000
  122       11.503011   0.000000
  123       11.562311   0.000000
  124       11.706072   0.000000
  125       11.824420   0.000000
  126       12.010846   0.000000
  127       12.121615   0.000000
  128       12.274319   0.000000
 
  0.1666667E+00 -0.2000000E+00  0.3636364E+00  0.6060606E-02
    1      -11.635332   1.000000
    2      -11.027798   1.000000
    3      -10.758432   1.000000
    4      -10.683324   1.000000
    5      -10.540718   1.000000
    6      -10.291952   1.000000
    7       -9.269762   1.000000
    8       -8.972642   1.000000
    9       -8.824641   1.000000
   10       -8.578643   1.000000
   11       -8.445458   1.000000
   12       -8.224423   1.000000
   13       -7.898976   1.000000
   14       -7.129053   1.000000
   15       -6.962040   1.000000
   16       -5.990981   1.000000
   17       -5.750187   1.000000
   18       -5.555890   1.000000
   19       -5.414808   1.000000
   20       -5.360470   1.000000
   21       -5.245466   1.000000
   22       -5.082789   1.000000
   23       -4.478027   1.000000
   24       -4.322354   1.000000
   25       -3.921927   1.000000
   26       -3.641117   1.000000
   27       -3.347343   1.000000
   28       -3.166164   1.000000
   29       -3.002363   1.000000
   30       -2.912181   1.000000
   31       -2.674029   1.000000
   32       -2.632375   1.000000
   33       -2.442594   1.000000
   34       -2.190233   1.000000
   35       -2.110109   1.000000
   36       -2.022110   1.000000
   37       -1.913966   1.000000
   38       -1.727694   1.000000
   39       -1.594875   1.000000
   40       -1.448588   1.000000
   41       -1.387639   1.000000
   42       -1.235368   1.000000
   43       -1.130831   1.000000
   44       -0.980796   1.000000
   45       -0.817773   1.000000
   46       -0.739060   1.000000
   47       -0.680725   1.000000
   48       -0.505876   1.000000
   49       -0.311698   1.000000
   50       -0.154776   1.000000
   51        0.019364   1.000000
   52        0.135360   1.000000
   53        0.242610   1.000000
   54        0.309926   1.000000
   55        0.389906   1.000000
   56        0.485521   1.000000
   57        0.712607   1.000000
   58        0.767868   1.000000
   59        0.824679   1.000000
   60        0.949046   1.000000
   61        1.109690   1.000000
   62        1.139743   1.000000
   63        1.209062   1.000000
   64        1.262991   1.000000
   65        1.398543   1.000000
   66        1.526007   1.000000
   67        1.690679   1.000000
   68        1.718464   1.000000
   69        1.919332   1.000000
   70        2.062850   1.000000
   71        2.166463   1.000000
   72        2.245502   1.000000
   73        2.284157   1.000000
   74        2.386348   1.000000
   75        2.544763   1.000000
   76        2.703160   1.000000
   77        2.736449   1.000000
   78        2.806883   1.000000
   79        2.850721   1.000000
   80        2.947065   1.000000
   81        3.029167   1.000000
   82        3.148063   1.000000
   83        3.202018   1.000000
   84        3.321567   1.000000
   85        3.401755   1.000000
   86        3.534036   1.000000
   87        3.710909   1.000000
   88        3.763311   1.000000
   89        3.824046   1.000000
   90        3.949506   1.000000
   91        4.058002   1.000000
   92        4.170970   1.000000
   93        4.299346   1.000000
   94        4.435863   1.000000
   95        4.502495   1.000000
   96        4.674110   1.000000
   97        6.598564   1.000000
   98        6.789715   1.018804
   99        7.111075   0.000000
  100        7.188853   0.000000
  101        7.301431   0.000000
  102        7.336558   0.000000
  103        7.505534   0.000000
  104        7.749526   0.000000
  105        8.215365   0.000000
  106        8.546371   0.000000
  107        8.751917   0.000000
  108        8.926288   0.000000
  109        9.292997   0.000000
  110        9.594374   0.000000
  111        9.665855   0.000000
  112        9.886841   0.000000
  113       10.006678   0.000000
  114       10.144961   0.000000
  115       10.258958   0.000000
  116       10.333369   0.000000
  117       10.578050   0.000000
  118       10.806721   0.000000
  119       10.903027   0.000000
  120       11.067602   0.000000
  121       11.207245   0.000000
  122       11.412371   0.000000
  123       11.597742   0.000000
  124       11.685982   0.000000
  125       11.810204   0.000000
  126       11.941373   0.000000
  127       12.271293   0.000000
  128       12.301954   0.000000
 
  0.3333333E+00 -0.2000000E+00  0.3636364E+00  0.6060606E-02
    1      -11.637442   1.000000
    2      -11.036532   1.000000
    3      -10.740759   1.000000
    4      -10.673797   1.000000
    5      -10.555891   1.000000
    6      -10.292724   1.000000
    7       -9.244055   1.000000
    8       -8.937443   1.000000
    9       -8.888439   1.000000
   10       -8.496867   1.000000
   11       -8.455534   1.000000
   12       -8.320947   1.000000
   13       -7.919635   1.000000
   14       -7.097800   1.000000
   15       -6.936773   1.000000
   16       -5.987079   1.000000
   17       -5.689889   1.000000
   18       -5.587138   1.000000
   19       -5.455662   1.000000
   20       -5.372625   1.000000
   21       -5.230874   1.000000
   22       -5.164663   1.000000
   23       -4.511694   1.000000
   24       -4.395750   1.000000
   25       -3.832240   1.000000
   26       -3.540822   1.000000
   27       -3.204947   1.000000
   28       -2.993638   1.000000
   29       -2.943818   1.000000
   30       -2.747766   1.000000
   31       -2.713467   1.000000
   32       -2.613649   1.000000
   33       -2.485544   1.000000
   34       -2.403682   1.000000
   35       -2.140214   1.000000
   36       -2.046402   1.000000
   37       -1.919953   1.000000
   38       -1.712153   1.000000
   39       -1.648319   1.000000
   40       -1.541204   1.000000
   41       -1.484267   1.000000
   42       -1.347081   1.000000
   43       -1.205312   1.000000
   44       -0.988120   1.000000
   45       -0.896701   1.000000
   46       -0.770754   1.000000
   47       -0.621664   1.000000
   48       -0.415862   1.000000
   49       -0.256621   1.000000
   50       -0.209346   1.000000
   51       -0.124530   1.000000
   52        0.045148   1.000000
   53        0.210773   1.000000
   54        0.294184   1.000000
   55        0.365198   1.000000
   56        0.454163   1.000000
   57        0.597037   1.000000
   58        0.795826   1.000000
   59        0.942412   1.000000
   60        1.001305   1.000000
   61        1.118102   1.000000
   62        1.183047   1.000000
   63        1.269441   1.000000
   64        1.295966   1.000000
   65        1.514743   1.000000
   66        1.644673   1.000000
   67        1.706212   1.000000
   68        1.789991   1.000000
   69        1.920804   1.000000
   70        2.133431   1.000000
   71        2.190486   1.000000
   72        2.271755   1.000000
   73        2.392695   1.000000
   74        2.469283   1.000000
   75        2.604309   1.000000
   76        2.704980   1.000000
   77        2.795558   1.000000
   78        2.832043   1.000000
   79        2.926629   1.000000
   80        2.986756   1.000000
   81        3.084024   1.000000
   82        3.140308   1.000000
   83        3.285957   1.000000
   84        3.326706   1.000000
   85        3.379083   1.000000
   86        3.460005   1.000000
   87        3.558906   1.000000
   88        3.670801   1.000000
   89        3.710569   1.000000
   90        3.810205   1.000000
   91        4.040389   1.000000
   92        4.149254   1.000000
   93        4.216068   1.000000
   94        4.389150   1.000000
   95        4.474183   1.000000
   96        4.628858   1.000000
   97        6.652324   1.000000
   98        6.894433  -0.002010
   99        6.941151   0.000000
  100        7.121061   0.000000
  101        7.279268   0.000000
  102        7.323044   0.000000
  103        7.542464   0.000000
  104        7.780997   0.000000
  105        8.240594   0.000000
  106        8.638074   0.000000
  107        8.783275   0.000000
  108        9.017676   0.000000
  109        9.505906   0.000000
  110        9.686798   0.000000
  111        9.762141   0.000000
  112        9.934346   0.000000
  113        9.970743   0.000000
  114       10.008886   0.000000
  115       10.185884   0.000000
  116       10.256449   0.000000
  117       10.485884   0.000000
  118       10.681854   0.000000
  119       10.887998   0.000000
  120       11.003696   0.000000
  121       11.153306   0.000000
  122       11.320837   0.000000
  123       11.470815   0.000000
  124       11.565254   0.000000
  125       11.699233   0.000000
  126       11.941835   0.000000
  127       12.202470   0.000000
  128       12.288255   0.000000
 
  0.5000000E+00 -0.2000000E+00  0.3636364E+00  0.6060606E-02
    1      -11.635116   1.000000
    2      -11.032233   1.000000
    3      -10.765212   1.000000
    4      -10.658472   1.000000
    5      -10.562600   1.000000
    6      -10.286760   1.000000
    7       -9.195009   1.000000
    8       -8.967749   1.000000
    9       -8.875746   1.000000
   10       -8.605509   1.000000
   11       -8.459523   1.000000
   12       -8.300675   1.000000
   13       -7.850191   1.000000
   14       -7.071679   1.000000
   15       -6.920757   1.000000
   16       -5.994304   1.000000
   17       -5.690585   1.000000
   18       -5.638250   1.000000
   19       -5.454942   1.000000
   20       -5.396130   1.000000
   21       -5.202897   1.000000
   22       -5.072254   1.000000
   23       -4.478715   1.000000
   24       -4.386307   1.000000
   25       -3.974758   1.000000
   26       -3.623586   1.000000
   27       -3.365126   1.000000
   28       -3.215909   1.000000
   29       -3.109987   1.000000
   30       -2.828533   1.000000
   31       -2.688306   1.000000
   32       -2.482491   1.000000
   33       -2.391905   1.000000
   34       -2.169661   1.000000
   35       -2.088719   1.000000
   36       -1.931308   1.000000
   37       -1.782631   1.000000
   38       -1.712450   1.000000
   39       -1.605283   1.000000
   40       -1.445228   1.000000
   41       -1.330320   1.000000
   42       -1.291902   1.000000
   43       -1.113663   1.000000
   44       -0.894967   1.000000
   45       -0.872085   1.000000
   46       -0.806060   1.000000
   47       -0.518827   1.000000
   48       -0.411927   1.000000
   49       -0.363499   1.000000
   50       -0.244035   1.000000
   51       -0.131336   1.000000
   52        0.093343   1.000000
   53        0.180822   1.000000
   54        0.306646   1.000000
   55        0.379524   1.000000
   56        0.418116   1.000000
   57        0.494205   1.000000
   58        0.625194   1.000000
   59        0.657635   1.000000
   60        0.800388   1.000000
   61        0.972400   1.000000
   62        1.073709   1.000000
   63        1.208464   1.000000
   64        1.250726   1.000000
   65        1.456568   1.000000
   66        1.568684   1.000000
   67        1.747819   1.000000
   68        1.824480   1.000000
   69        1.925941   1.000000
   70        2.077221   1.000000
   71        2.224999   1.000000
   72        2.389864   1.000000
   73        2.545731   1.000000
   74        2.582022   1.000000
   75        2.637044   1.000000
   76        2.730324   1.000000
   77        2.808142   1.000000
   78        2.902704   1.000000
   79        2.965704   1.000000
   80        3.009010   1.000000
   81        3.089757   1.000000
   82        3.165795   1.000000
   83        3.236799   1.000000
   84        3.338829   1.000000
   85        3.416772   1.000000
   86        3.492707   1.000000
   87        3.501487   1.000000
   88        3.621804   1.000000
   89        3.695575   1.000000
   90        3.938066   1.000000
   91        4.027202   1.000000
   92        4.142318   1.000000
   93        4.280238   1.000000
   94        4.407443   1.000000
   95        4.476311   1.000000
   96        4.629558   1.000000
   97        6.637931   1.000000
   98        6.834781   0.874122
   99        7.030809   0.000000
  100        7.057670   0.000000
  101        7.232987   0.000000
  102        7.336306   0.000000
  103        7.612418   0.000000
  104        7.754893   0.000000
  105        8.291034   0.000000
  106        8.632066   0.000000
  107        8.836636   0.000000
  108        9.073429   0.000000
  109        9.478373   0.000000
  110        9.609080   0.000000
  111        9.702558   0.000000
  112        9.957669   0.000000
  113       10.015705   0.000000
  114       10.127486   0.000000
  115       10.250190   0.000000
  116       10.400894   0.000000
  117       10.538065   0.000000
  118       10.611826   0.000000
  119       10.749950   0.000000
  120       10.930752   0.000000
  121       11.207387   0.000000
  122       11.331015   0.000000
  123       11.383570   0.000000
  124       11.496486   0.000000
  125       11.556831   0.000000
  126       11.927286   0.000000
  127       12.164752   0.000000
  128       12.242515   0.000000
 
 -0.3333333E+00 -0.2000000E+00  0.3636364E+00  0.6060606E-02
    1      -11.630567   1.000000
    2      -11.018706   1.000000
    3      -10.797513   1.000000
    4      -10.667359   1.000000
    5      -10.548490   1.000000
    6      -10.281701   1.000000
    7       -9.176917   1.000000
    8       -8.995884   1.000000
    9       -8.821139   1.000000
   10       -8.701221   1.000000
   11       -8.538814   1.000000
   12       -8.188369   1.000000
   13       -7.774192   1.000000
   14       -7.066939   1.000000
   15       -6.941684   1.000000
   16       -6.007897   1.000000
   17       -5.755707   1.000000
   18       -5.681762   1.000000
   19       -5.415824   1.000000
   20       -5.340656   1.000000
   21       -5.110779   1.000000
   22       -4.981695   1.000000
   23       -4.412851   1.000000
   24       -4.306168   1.000000
   25       -4.148592   1.000000
   26       -3.790724   1.000000
   27       -3.587953   1.000000
   28       -3.498974   1.000000
   29       -3.277704   1.000000
   30       -2.970131   1.000000
   31       -2.811717   1.000000
   32       -2.474268   1.000000
   33       -2.303361   1.000000
   34       -2.058507   1.000000
   35       -1.866585   1.000000
   36       -1.788859   1.000000
   37       -1.632624   1.000000
   38       -1.499481   1.000000
   39       -1.417377   1.000000
   40       -1.331821   1.000000
   41       -1.148887   1.000000
   42       -1.054840   1.000000
   43       -0.956168   1.000000
   44       -0.841719   1.000000
   45       -0.765369   1.000000
   46       -0.679310   1.000000
   47       -0.522026   1.000000
   48       -0.433216   1.000000
   49       -0.394238   1.000000
   50       -0.293184   1.000000
   51       -0.064726   1.000000
   52        0.021265   1.000000
   53        0.119424   1.000000
   54        0.198196   1.000000
   55        0.247742   1.000000
   56        0.326451   1.000000
   57        0.392747   1.000000
   58        0.448940   1.000000
   59        0.592777   1.000000
   60        0.698708   1.000000
   61        0.876825   1.000000
   62        0.941421   1.000000
   63        1.085694   1.000000
   64        1.213704   1.000000
   65        1.421400   1.000000
   66        1.503054   1.000000
   67        1.663513   1.000000
   68        1.760655   1.000000
   69        1.813633   1.000000
   70        2.113372   1.000000
   71        2.217842   1.000000
   72        2.335878   1.000000
   73        2.415178   1.000000
   74        2.501774   1.000000
   75        2.617107   1.000000
   76        2.710222   1.000000
   77        2.818480   1.000000
   78        2.880430   1.000000
   79        2.954303   1.000000
   80        3.019990   1.000000
   81        3.112044   1.000000
   82        3.214133   1.000000
   83        3.256093   1.000000
   84        3.340858   1.000000
   85        3.358833   1.000000
   86        3.522494   1.000000
   87        3.649512   1.000000
   88        3.732055   1.000000
   89        3.833647   1.000000
   90        4.046943   1.000000
   91        4.143906   1.000000
   92        4.230920   1.000000
   93        4.384842   1.000000
   94        4.447269   1.000000
   95        4.534791   1.000000
   96        4.653376   1.000000
   97        6.539971   1.000000
   98        6.924112   0.198866
   99        7.003706   0.000000
  100        7.110306   0.000000
  101        7.175534   0.000000
  102        7.392752   0.000000
  103        7.635198   0.000000
  104        7.720052   0.000000
  105        8.300957   0.000000
  106        8.548008   0.000000
  107        8.795516   0.000000
  108        9.099329   0.000000
  109        9.295431   0.000000
  110        9.463470   0.000000
  111        9.572159   0.000000
  112       10.065995   0.000000
  113       10.117360   0.000000
  114       10.231655   0.000000
  115       10.333632   0.000000
  116       10.474544   0.000000
  117       10.593442   0.000000
  118       10.731974   0.000000
  119       10.866051   0.000000
  120       10.959578   0.000000
  121       11.250338   0.000000
  122       11.351866   0.000000
  123       11.388197   0.000000
  124       11.497331   0.000000
  125       11.570824   0.000000
  126       11.898574   0.000000
  127       12.118966   0.000000
  128       12.271236   0.000000
 
 -0.1666667E+00 -0.2000000E+00  0.3636364E+00  0.6060606E-02
    1      -11.628321   1.000000
    2      -11.010526   1.000000
    3      -10.803263   1.000000
    4      -10.690543   1.000000
    5      -10.530091   1.000000
    6      -10.282064   1.000000
    7       -9.223240   1.000000
    8       -8.973115   1.000000
    9       -8.807821   1.000000
   10       -8.686625   1.000000
   11       -8.576389   1.000000
   12       -8.130372   1.000000
   13       -7.745591   1.000000
   14       -7.097865   1.000000
   15       -6.971155   1.000000
   16       -6.018636   1.000000
   17       -5.833279   1.000000
   18       -5.654110   1.000000
   19       -5.331154   1.000000
   20       -5.300880   1.000000
   21       -5.045890   1.000000
   22       -4.993865   1.000000
   23       -4.377110   1.000000
   24       -4.275272   1.000000
   25       -4.172693   1.000000
   26       -3.885430   1.000000
   27       -3.709231   1.000000
   28       -3.527591   1.000000
   29       -3.294237   1.000000
   30       -3.085082   1.000000
   31       -2.978953   1.000000
   32       -2.456346   1.000000
   33       -2.277150   1.000000
   34       -2.109614   1.000000
   35       -1.818432   1.000000
   36       -1.733670   1.000000
   37       -1.612982   1.000000
   38       -1.359372   1.000000
   39       -1.289564   1.000000
   40       -1.160054   1.000000
   41       -1.074245   1.000000
   42       -0.970823   1.000000
   43       -0.874241   1.000000
   44       -0.821702   1.000000
   45       -0.709102   1.000000
   46       -0.606267   1.000000
   47       -0.564257   1.000000
   48       -0.509691   1.000000
   49       -0.331414   1.000000
   50       -0.294583   1.000000
   51       -0.222607   1.000000
   52       -0.076060   1.000000
   53        0.000307   1.000000
   54        0.146270   1.000000
   55        0.212408   1.000000
   56        0.390896   1.000000
   57        0.455954   1.000000
   58        0.543849   1.000000
   59        0.712553   1.000000
   60        0.818780   1.000000
   61        0.890197   1.000000
   62        0.967901   1.000000
   63        1.058303   1.000000
   64        1.163517   1.000000
   65        1.349099   1.000000
   66        1.422481   1.000000
   67        1.557219   1.000000
   68        1.660166   1.000000
   69        1.781087   1.000000
   70        2.019823   1.000000
   71        2.130364   1.000000
   72        2.215893   1.000000
   73        2.281695   1.000000
   74        2.383711   1.000000
   75        2.598484   1.000000
   76        2.712356   1.000000
   77        2.747322   1.000000
   78        2.862889   1.000000
   79        2.938615   1.000000
   80        3.010256   1.000000
   81        3.087549   1.000000
   82        3.208387   1.000000
   83        3.240073   1.000000
   84        3.339970   1.000000
   85        3.409826   1.000000
   86        3.555443   1.000000
   87        3.745324   1.000000
   88        3.885963   1.000000
   89        3.992067   1.000000
   90        4.091667   1.000000
   91        4.207621   1.000000
   92        4.311211   1.000000
   93        4.399779   1.000000
   94        4.478166   1.000000
   95        4.520269   1.000000
   96        4.693945   1.000000
   97        6.531117   1.000000
   98        6.784021   0.989116
   99        7.087753  -0.024356
  100        7.187005   0.000000
  101        7.209846   0.000000
  102        7.456890   0.000000
  103        7.614697   0.000000
  104        7.690308   0.000000
  105        8.278663   0.000000
  106        8.459470   0.000000
  107        8.750390   0.000000
  108        9.030683   0.000000
  109        9.146724   0.000000
  110        9.383669   0.000000
  111        9.512413   0.000000
  112       10.046051   0.000000
  113       10.152330   0.000000
  114       10.288568   0.000000
  115       10.369470   0.000000
  116       10.500396   0.000000
  117       10.626508   0.000000
  118       10.842821   0.000000
  119       10.895750   0.000000
  120       11.179342   0.000000
  121       11.224362   0.000000
  122       11.404058   0.000000
  123       11.499117   0.000000
  124       11.634228   0.000000
  125       11.743055   0.000000
  126       11.881592   0.000000
  127       12.068161   0.000000
  128       12.264658   0.000000
 
  0.0000000E+00  0.0000000E+00  0.4545455E+00  0.6060606E-02
    1      -11.554217   1.000000
    2      -10.885249   1.000000
    3      -10.802020   1.000000
    4      -10.694567   1.000000
    5      -10.571138   1.000000
    6      -10.355965   1.000000
    7       -9.245537   1.000000
    8       -8.993659   1.000000
    9       -8.885869   1.000000
   10       -8.762227   1.000000
   11       -8.621619   1.000000
   12       -8.056887   1.000000
   13       -7.717842   1.000000
   14       -7.112663   1.000000
   15       -7.015393   1.000000
   16       -6.073277   1.000000
   17       -5.857288   1.000000
   18       -5.647138   1.000000
   19       -5.395381   1.000000
   20       -5.309381   1.000000
   21       -4.994986   1.000000
   22       -4.979727   1.000000
   23       -4.383925   1.000000
   24       -4.217108   1.000000
   25       -4.105611   1.000000
   26       -4.044204   1.000000
   27       -3.764117   1.000000
   28       -3.711214   1.000000
   29       -3.371006   1.000000
   30       -3.287872   1.000000
   31       -2.779129   1.000000
   32       -2.338745   1.000000
   33       -2.121050   1.000000
   34       -1.978205   1.000000
   35       -1.896880   1.000000
   36       -1.766163   1.000000
   37       -1.646607   1.000000
   38       -1.461688   1.000000
   39       -1.175084   1.000000
   40       -1.041018   1.000000
   41       -0.969627   1.000000
   42       -0.889147   1.000000
   43       -0.799397   1.000000
   44       -0.672522   1.000000
   45       -0.611521   1.000000
   46       -0.516890   1.000000
   47       -0.491438   1.000000
   48       -0.393291   1.000000
   49       -0.346785   1.000000
   50       -0.241692   1.000000
   51       -0.162122   1.000000
   52       -0.048368   1.000000
   53        0.005191   1.000000
   54        0.134891   1.000000
   55        0.233522   1.000000
   56        0.358076   1.000000
   57        0.456978   1.000000
   58        0.572039   1.000000
   59        0.698197   1.000000
   60        0.794215   1.000000
   61        0.986714   1.000000
   62        1.036164   1.000000
   63        1.073500   1.000000
   64        1.205928   1.000000
   65        1.309128   1.000000
   66        1.464373   1.000000
   67        1.676687   1.000000
   68        1.774973   1.000000
   69        1.848738   1.000000
   70        1.942433   1.000000
   71        2.019772   1.000000
   72        2.103498   1.000000
   73        2.269496   1.000000
   74        2.399486   1.000000
   75        2.513077   1.000000
   76        2.562396   1.000000
   77        2.659403   1.000000
   78        2.759711   1.000000
   79        2.802061   1.000000
   80        2.859237   1.000000
   81        2.959216   1.000000
   82        3.076648   1.000000
   83        3.121238   1.000000
   84        3.227146   1.000000
   85        3.321500   1.000000
   86        3.574808   1.000000
   87        3.822099   1.000000
   88        3.894652   1.000000
   89        4.021001   1.000000
   90        4.179038   1.000000
   91        4.292574   1.000000
   92        4.428157   1.000000
   93        4.544993   1.000000
   94        4.664578   1.000000
   95        4.721224   1.000000
   96        4.803599   1.000000
   97        6.497751   1.000000
   98        6.575781   1.000000
   99        6.828729   0.531082
  100        7.139373   0.000000
  101        7.371297   0.000000
  102        7.399729   0.000000
  103        7.713373   0.000000
  104        7.837117   0.000000
  105        8.043466   0.000000
  106        8.248352   0.000000
  107        8.605775   0.000000
  108        8.866748   0.000000
  109        8.908845   0.000000
  110        9.194671   0.000000
  111        9.359128   0.000000
  112       10.014244   0.000000
  113       10.113569   0.000000
  114       10.230162   0.000000
  115       10.307845   0.000000
  116       10.541380   0.000000
  117       10.676926   0.000000
  118       10.705801   0.000000
  119       10.898972   0.000000
  120       11.256789   0.000000
  121       11.373671   0.000000
  122       11.475898   0.000000
  123       11.609825   0.000000
  124       11.686312   0.000000
  125       11.969137   0.000000
  126       12.075830   0.000000
  127       12.162304   0.000000
  128       12.224518   0.000000
 
  0.1666667E+00  0.0000000E+00  0.4545455E+00  0.6060606E-02
    1      -11.557631   1.000000
    2      -10.891119   1.000000
    3      -10.794139   1.000000
    4      -10.694417   1.000000
    5      -10.570983   1.000000
    6      -10.345757   1.000000
    7       -9.297488   1.000000
    8       -8.959657   1.000000
    9       -8.878074   1.000000
   10       -8.728436   1.000000
   11       -8.589250   1.000000
   12       -8.100404   1.000000
   13       -7.782437   1.000000
   14       -7.113174   1.000000
   15       -6.997119   1.000000
   16       -6.057995   1.000000
   17       -5.811662   1.000000
   18       -5.614511   1.000000
   19       -5.451471   1.000000
   20       -5.375262   1.000000
   21       -5.101897   1.000000
   22       -5.074201   1.000000
   23       -4.368519   1.000000
   24       -4.214266   1.000000
   25       -4.101766   1.000000
   26       -3.887110   1.000000
   27       -3.602520   1.000000
   28       -3.470937   1.000000
   29       -3.226515   1.000000
   30       -3.129523   1.000000
   31       -2.748649   1.000000
   32       -2.372453   1.000000
   33       -2.295143   1.000000
   34       -2.068604   1.000000
   35       -1.998604   1.000000
   36       -1.817340   1.000000
   37       -1.746927   1.000000
   38       -1.529173   1.000000
   39       -1.418744   1.000000
   40       -1.252551   1.000000
   41       -1.105877   1.000000
   42       -1.026890   1.000000
   43       -0.889337   1.000000
   44       -0.788990   1.000000
   45       -0.703869   1.000000
   46       -0.569131   1.000000
   47       -0.525321   1.000000
   48       -0.401945   1.000000
   49       -0.285938   1.000000
   50       -0.154817   1.000000
   51       -0.130498   1.000000
   52        0.032079   1.000000
   53        0.171831   1.000000
   54        0.208258   1.000000
   55        0.368828   1.000000
   56        0.390822   1.000000
   57        0.483986   1.000000
   58        0.587747   1.000000
   59        0.781253   1.000000
   60        0.967851   1.000000
   61        1.050592   1.000000
   62        1.084171   1.000000
   63        1.160539   1.000000
   64        1.251588   1.000000
   65        1.385519   1.000000
   66        1.486400   1.000000
   67        1.680014   1.000000
   68        1.782882   1.000000
   69        1.929895   1.000000
   70        1.982923   1.000000
   71        2.109649   1.000000
   72        2.192572   1.000000
   73        2.247772   1.000000
   74        2.430217   1.000000
   75        2.474524   1.000000
   76        2.545750   1.000000
   77        2.642517   1.000000
   78        2.732683   1.000000
   79        2.802445   1.000000
   80        2.844653   1.000000
   81        2.994535   1.000000
   82        3.090815   1.000000
   83        3.149737   1.000000
   84        3.266919   1.000000
   85        3.355138   1.000000
   86        3.543925   1.000000
   87        3.780246   1.000000
   88        3.806349   1.000000
   89        3.925774   1.000000
   90        4.062087   1.000000
   91        4.204301   1.000000
   92        4.321526   1.000000
   93        4.451258   1.000000
   94        4.618232   1.000000
   95        4.690897   1.000000
   96        4.772901   1.000000
   97        6.537892   1.000000
   98        6.676683   1.040437
   99        6.903265  -0.004491
  100        7.131688   0.000000
  101        7.307859   0.000000
  102        7.408112   0.000000
  103        7.616222   0.000000
  104        7.724470   0.000000
  105        8.072132   0.000000
  106        8.288133   0.000000
  107        8.680106   0.000000
  108        8.821050   0.000000
  109        9.022561   0.000000
  110        9.296895   0.000000
  111        9.430205   0.000000
  112        9.943341   0.000000
  113       10.072562   0.000000
  114       10.180705   0.000000
  115       10.278174   0.000000
  116       10.424174   0.000000
  117       10.615297   0.000000
  118       10.726029   0.000000
  119       10.888314   0.000000
  120       11.119906   0.000000
  121       11.334183   0.000000
  122       11.433171   0.000000
  123       11.606144   0.000000
  124       11.689662   0.000000
  125       11.909561   0.000000
  126       12.047907   0.000000
  127       12.180198   0.000000
  128       12.268862   0.000000
 
  0.3333333E+00 -0.2775558E-16  0.4545455E+00  0.6060606E-02
    1      -11.561081   1.000000
    2      -10.891857   1.000000
    3      -10.787752   1.000000
    4      -10.705109   1.000000
    5      -10.566788   1.000000
    6      -10.333519   1.000000
    7       -9.335397   1.000000
    8       -8.991562   1.000000
    9       -8.842187   1.000000
   10       -8.627231   1.000000
   11       -8.515515   1.000000
   12       -8.210938   1.000000
   13       -7.883798   1.000000
   14       -7.117144   1.000000
   15       -6.958701   1.000000
   16       -6.032201   1.000000
   17       -5.738757   1.000000
   18       -5.589670   1.000000
   19       -5.535168   1.000000
   20       -5.436090   1.000000
   21       -5.232758   1.000000
   22       -5.169934   1.000000
   23       -4.412746   1.000000
   24       -4.331900   1.000000
   25       -3.898825   1.000000
   26       -3.629292   1.000000
   27       -3.291560   1.000000
   28       -3.148890   1.000000
   29       -2.996065   1.000000
   30       -2.814967   1.000000
   31       -2.744656   1.000000
   32       -2.565485   1.000000
   33       -2.430224   1.000000
   34       -2.263701   1.000000
   35       -2.145118   1.000000
   36       -1.999935   1.000000
   37       -1.904829   1.000000
   38       -1.743622   1.000000
   39       -1.494100   1.000000
   40       -1.424527   1.000000
   41       -1.286363   1.000000
   42       -1.187493   1.000000
   43       -1.090975   1.000000
   44       -0.956443   1.000000
   45       -0.877339   1.000000
   46       -0.682583   1.000000
   47       -0.537576   1.000000
   48       -0.418018   1.000000
   49       -0.250114   1.000000
   50       -0.121613   1.000000
   51       -0.099172   1.000000
   52        0.071623   1.000000
   53        0.155891   1.000000
   54        0.376347   1.000000
   55        0.504672   1.000000
   56        0.545772   1.000000
   57        0.678873   1.000000
   58        0.790489   1.000000
   59        0.944717   1.000000
   60        1.000563   1.000000
   61        1.075804   1.000000
   62        1.119442   1.000000
   63        1.265016   1.000000
   64        1.327019   1.000000
   65        1.471782   1.000000
   66        1.618767   1.000000
   67        1.718015   1.000000
   68        1.856104   1.000000
   69        1.915201   1.000000
   70        2.065661   1.000000
   71        2.161716   1.000000
   72        2.276413   1.000000
   73        2.301005   1.000000
   74        2.440675   1.000000
   75        2.513733   1.000000
   76        2.562092   1.000000
   77        2.652512   1.000000
   78        2.727471   1.000000
   79        2.796669   1.000000
   80        2.889428   1.000000
   81        3.027031   1.000000
   82        3.087258   1.000000
   83        3.223263   1.000000
   84        3.327293   1.000000
   85        3.454424   1.000000
   86        3.467060   1.000000
   87        3.601604   1.000000
   88        3.702276   1.000000
   89        3.810106   1.000000
   90        3.863368   1.000000
   91        4.016360   1.000000
   92        4.116862   1.000000
   93        4.327501   1.000000
   94        4.526665   1.000000
   95        4.658765   1.000000
   96        4.725049   1.000000
   97        6.635237   1.000000
   98        6.850882   0.838013
   99        6.975787   0.000000
  100        7.084885   0.000000
  101        7.177861   0.000000
  102        7.388561   0.000000
  103        7.517522   0.000000
  104        7.616370   0.000000
  105        8.071821   0.000000
  106        8.443354   0.000000
  107        8.752568   0.000000
  108        8.858914   0.000000
  109        9.276044   0.000000
  110        9.452816   0.000000
  111        9.586356   0.000000
  112        9.787281   0.000000
  113        9.942517   0.000000
  114       10.089831   0.000000
  115       10.238802   0.000000
  116       10.313653   0.000000
  117       10.605470   0.000000
  118       10.685867   0.000000
  119       10.822785   0.000000
  120       10.878482   0.000000
  121       11.288509   0.000000
  122       11.409763   0.000000
  123       11.481072   0.000000
  124       11.593290   0.000000
  125       11.791729   0.000000
  126       12.056580   0.000000
  127       12.207287   0.000000
  128       12.295248   0.000000
 
  0.5000000E+00  0.0000000E+00  0.4545455E+00  0.6060606E-02
    1      -11.561169   1.000000
    2      -10.887705   1.000000
    3      -10.786871   1.000000
    4      -10.716066   1.000000
    5      -10.564454   1.000000
    6      -10.331176   1.000000
    7       -9.336453   1.000000
    8       -9.004999   1.000000
    9       -8.851852   1.000000
   10       -8.519570   1.000000
   11       -8.487459   1.000000
   12       -8.313702   1.000000
   13       -7.912384   1.000000
   14       -7.120618   1.000000
   15       -6.938284   1.000000
   16       -6.020410   1.000000
   17       -5.713246   1.000000
   18       -5.603558   1.000000
   19       -5.557354   1.000000
   20       -5.445177   1.000000
   21       -5.273874   1.000000
   22       -5.187304   1.000000
   23       -4.413708   1.000000
   24       -4.384395   1.000000
   25       -3.849407   1.000000
   26       -3.529317   1.000000
   27       -3.184581   1.000000
   28       -3.030486   1.000000
   29       -2.916187   1.000000
   30       -2.816710   1.000000
   31       -2.671821   1.000000
   32       -2.551660   1.000000
   33       -2.421395   1.000000
   34       -2.368349   1.000000
   35       -2.164585   1.000000
   36       -2.008228   1.000000
   37       -1.955355   1.000000
   38       -1.799352   1.000000
   39       -1.696972   1.000000
   40       -1.535665   1.000000
   41       -1.371674   1.000000
   42       -1.232620   1.000000
   43       -1.052776   1.000000
   44       -1.023092   1.000000
   45       -0.838020   1.000000
   46       -0.736596   1.000000
   47       -0.543148   1.000000
   48       -0.480239   1.000000
   49       -0.322133   1.000000
   50       -0.126811   1.000000
   51       -0.066040   1.000000
   52        0.068994   1.000000
   53        0.216957   1.000000
   54        0.463204   1.000000
   55        0.526026   1.000000
   56        0.687983   1.000000
   57        0.775773   1.000000
   58        0.806958   1.000000
   59        0.926711   1.000000
   60        0.997925   1.000000
   61        1.070481   1.000000
   62        1.108975   1.000000
   63        1.243700   1.000000
   64        1.394132   1.000000
   65        1.538527   1.000000
   66        1.602149   1.000000
   67        1.742723   1.000000
   68        1.824525   1.000000
   69        1.970215   1.000000
   70        2.077020   1.000000
   71        2.216746   1.000000
   72        2.243801   1.000000
   73        2.337480   1.000000
   74        2.452137   1.000000
   75        2.509956   1.000000
   76        2.607064   1.000000
   77        2.653021   1.000000
   78        2.750135   1.000000
   79        2.828695   1.000000
   80        2.949944   1.000000
   81        3.028989   1.000000
   82        3.097297   1.000000
   83        3.209711   1.000000
   84        3.388387   1.000000
   85        3.454089   1.000000
   86        3.472239   1.000000
   87        3.530450   1.000000
   88        3.641807   1.000000
   89        3.719943   1.000000
   90        3.857237   1.000000
   91        3.929535   1.000000
   92        4.053325   1.000000
   93        4.258302   1.000000
   94        4.471292   1.000000
   95        4.650471   1.000000
   96        4.714232   1.000000
   97        6.722137   1.000000
   98        6.864788   0.569798
   99        6.970311   0.000000
  100        6.994391   0.000000
  101        7.197568   0.000000
  102        7.361999   0.000000
  103        7.484555   0.000000
  104        7.633720   0.000000
  105        8.080610   0.000000
  106        8.536524   0.000000
  107        8.767917   0.000000
  108        8.927765   0.000000
  109        9.371752   0.000000
  110        9.500405   0.000000
  111        9.701041   0.000000
  112        9.773868   0.000000
  113        9.828562   0.000000
  114        9.991984   0.000000
  115       10.302492   0.000000
  116       10.419806   0.000000
  117       10.454364   0.000000
  118       10.608604   0.000000
  119       10.776387   0.000000
  120       10.819153   0.000000
  121       11.234943   0.000000
  122       11.405334   0.000000
  123       11.458342   0.000000
  124       11.583338   0.000000
  125       11.665963   0.000000
  126       12.073787   0.000000
  127       12.210934   0.000000
  128       12.268351   0.000000
 
 -0.3333333E+00  0.2775558E-16  0.4545455E+00  0.6060606E-02
    1      -11.557828   1.000000
    2      -10.880490   1.000000
    3      -10.797042   1.000000
    4      -10.715286   1.000000
    5      -10.564406   1.000000
    6      -10.342046   1.000000
    7       -9.299662   1.000000
    8       -8.986184   1.000000
    9       -8.899636   1.000000
   10       -8.592906   1.000000
   11       -8.534710   1.000000
   12       -8.229587   1.000000
   13       -7.835797   1.000000
   14       -7.121443   1.000000
   15       -6.954393   1.000000
   16       -6.037104   1.000000
   17       -5.740671   1.000000
   18       -5.622683   1.000000
   19       -5.520876   1.000000
   20       -5.415794   1.000000
   21       -5.203250   1.000000
   22       -5.123636   1.000000
   23       -4.369192   1.000000
   24       -4.306261   1.000000
   25       -4.035600   1.000000
   26       -3.729839   1.000000
   27       -3.416273   1.000000
   28       -3.352651   1.000000
   29       -3.162737   1.000000
   30       -2.753576   1.000000
   31       -2.643892   1.000000
   32       -2.534503   1.000000
   33       -2.299533   1.000000
   34       -2.197347   1.000000
   35       -2.016065   1.000000
   36       -1.885013   1.000000
   37       -1.799996   1.000000
   38       -1.699024   1.000000
   39       -1.547665   1.000000
   40       -1.435248   1.000000
   41       -1.307201   1.000000
   42       -1.182942   1.000000
   43       -1.015368   1.000000
   44       -0.918923   1.000000
   45       -0.708169   1.000000
   46       -0.658503   1.000000
   47       -0.552741   1.000000
   48       -0.488327   1.000000
   49       -0.272518   1.000000
   50       -0.117638   1.000000
   51       -0.012288   1.000000
   52        0.088833   1.000000
   53        0.201577   1.000000
   54        0.356662   1.000000
   55        0.455896   1.000000
   56        0.572241   1.000000
   57        0.592148   1.000000
   58        0.734644   1.000000
   59        0.771175   1.000000
   60        0.914838   1.000000
   61        0.959467   1.000000
   62        0.988813   1.000000
   63        1.224876   1.000000
   64        1.357244   1.000000
   65        1.518746   1.000000
   66        1.617979   1.000000
   67        1.740149   1.000000
   68        1.850186   1.000000
   69        1.897342   1.000000
   70        1.977713   1.000000
   71        2.125826   1.000000
   72        2.288926   1.000000
   73        2.320209   1.000000
   74        2.441709   1.000000
   75        2.534704   1.000000
   76        2.603369   1.000000
   77        2.674937   1.000000
   78        2.703492   1.000000
   79        2.757962   1.000000
   80        2.864276   1.000000
   81        2.986711   1.000000
   82        3.108696   1.000000
   83        3.252956   1.000000
   84        3.303053   1.000000
   85        3.402758   1.000000
   86        3.472287   1.000000
   87        3.645534   1.000000
   88        3.710896   1.000000
   89        3.813767   1.000000
   90        3.942978   1.000000
   91        4.107387   1.000000
   92        4.264815   1.000000
   93        4.323591   1.000000
   94        4.508870   1.000000
   95        4.685713   1.000000
   96        4.738827   1.000000
   97        6.585398   1.000000
   98        6.829980   0.994945
   99        6.954207   0.000000
  100        7.078642   0.000000
  101        7.112617   0.000000
  102        7.355554   0.000000
  103        7.640111   0.000000
  104        7.699131   0.000000
  105        8.097540   0.000000
  106        8.434999   0.000000
  107        8.727701   0.000000
  108        8.914653   0.000000
  109        9.230682   0.000000
  110        9.411682   0.000000
  111        9.508957   0.000000
  112        9.851022   0.000000
  113        9.953484   0.000000
  114       10.197186   0.000000
  115       10.267791   0.000000
  116       10.368469   0.000000
  117       10.592823   0.000000
  118       10.746628   0.000000
  119       10.808780   0.000000
  120       10.930545   0.000000
  121       11.296487   0.000000
  122       11.375392   0.000000
  123       11.491229   0.000000
  124       11.559523   0.000000
  125       11.712794   0.000000
  126       12.082920   0.000000
  127       12.203223   0.000000
  128       12.250512   0.000000
 
 -0.1666667E+00  0.0000000E+00  0.4545455E+00  0.6060606E-02
    1      -11.554327   1.000000
    2      -10.878331   1.000000
    3      -10.806032   1.000000
    4      -10.704696   1.000000
    5      -10.566818   1.000000
    6      -10.354652   1.000000
    7       -9.247111   1.000000
    8       -8.990108   1.000000
    9       -8.923157   1.000000
   10       -8.692348   1.000000
   11       -8.603754   1.000000
   12       -8.105780   1.000000
   13       -7.744810   1.000000
   14       -7.117735   1.000000
   15       -6.992300   1.000000
   16       -6.063806   1.000000
   17       -5.820023   1.000000
   18       -5.647552   1.000000
   19       -5.435837   1.000000
   20       -5.336676   1.000000
   21       -5.064283   1.000000
   22       -5.010633   1.000000
   23       -4.358147   1.000000
   24       -4.201735   1.000000
   25       -4.172043   1.000000
   26       -3.967199   1.000000
   27       -3.681562   1.000000
   28       -3.642692   1.000000
   29       -3.341536   1.000000
   30       -3.129510   1.000000
   31       -2.751380   1.000000
   32       -2.377713   1.000000
   33       -2.106227   1.000000
   34       -2.026265   1.000000
   35       -1.886733   1.000000
   36       -1.747544   1.000000
   37       -1.680795   1.000000
   38       -1.501675   1.000000
   39       -1.373916   1.000000
   40       -1.271217   1.000000
   41       -1.054582   1.000000
   42       -0.964761   1.000000
   43       -0.806097   1.000000
   44       -0.745255   1.000000
   45       -0.622762   1.000000
   46       -0.547870   1.000000
   47       -0.534300   1.000000
   48       -0.407289   1.000000
   49       -0.270862   1.000000
   50       -0.199577   1.000000
   51       -0.057828   1.000000
   52       -0.016873   1.000000
   53        0.158220   1.000000
   54        0.197398   1.000000
   55        0.253403   1.000000
   56        0.361241   1.000000
   57        0.412301   1.000000
   58        0.539983   1.000000
   59        0.759183   1.000000
   60        0.852652   1.000000
   61        0.909946   1.000000
   62        0.992539   1.000000
   63        1.130006   1.000000
   64        1.290047   1.000000
   65        1.374985   1.000000
   66        1.538459   1.000000
   67        1.684750   1.000000
   68        1.736602   1.000000
   69        1.861260   1.000000
   70        2.016282   1.000000
   71        2.041203   1.000000
   72        2.133221   1.000000
   73        2.305924   1.000000
   74        2.420466   1.000000
   75        2.521677   1.000000
   76        2.588941   1.000000
   77        2.652093   1.000000
   78        2.730323   1.000000
   79        2.790357   1.000000
   80        2.835533   1.000000
   81        2.977470   1.000000
   82        3.088070   1.000000
   83        3.162919   1.000000
   84        3.221816   1.000000
   85        3.363882   1.000000
   86        3.523479   1.000000
   87        3.762263   1.000000
   88        3.834776   1.000000
   89        4.005684   1.000000
   90        4.104733   1.000000
   91        4.261324   1.000000
   92        4.404525   1.000000
   93        4.480568   1.000000
   94        4.610011   1.000000
   95        4.726696   1.000000
   96        4.783007   1.000000
   97        6.507401   1.000000
   98        6.656133   1.051226
   99        6.863708   0.105232
  100        7.111166   0.000000
  101        7.270326   0.000000
  102        7.375866   0.000000
  103        7.732938   0.000000
  104        7.811571   0.000000
  105        8.067992   0.000000
  106        8.304081   0.000000
  107        8.638638   0.000000
  108        8.895468   0.000000
  109        9.002243   0.000000
  110        9.253002   0.000000
  111        9.378991   0.000000
  112       10.001504   0.000000
  113       10.110717   0.000000
  114       10.199332   0.000000
  115       10.343205   0.000000
  116       10.452409   0.000000
  117       10.629315   0.000000
  118       10.744381   0.000000
  119       10.877018   0.000000
  120       11.205054   0.000000
  121       11.318134   0.000000
  122       11.410541   0.000000
  123       11.564255   0.000000
  124       11.689067   0.000000
  125       11.845457   0.000000
  126       12.079252   0.000000
  127       12.144986   0.000000
  128       12.235635   0.000000
 
  0.0000000E+00  0.2000000E+00  0.4545455E+00  0.6060606E-02
    1      -11.557841   1.000000
    2      -10.894122   1.000000
    3      -10.773823   1.000000
    4      -10.696400   1.000000
    5      -10.590067   1.000000
    6      -10.341171   1.000000
    7       -9.250643   1.000000
    8       -9.059501   1.000000
    9       -8.951961   1.000000
   10       -8.615578   1.000000
   11       -8.557172   1.000000
   12       -8.086652   1.000000
   13       -7.811791   1.000000
   14       -7.171011   1.000000
   15       -6.925149   1.000000
   16       -6.071642   1.000000
   17       -5.895815   1.000000
   18       -5.661978   1.000000
   19       -5.425399   1.000000
   20       -5.294472   1.000000
   21       -5.023715   1.000000
   22       -4.912017   1.000000
   23       -4.394734   1.000000
   24       -4.282954   1.000000
   25       -4.166680   1.000000
   26       -3.920804   1.000000
   27       -3.564808   1.000000
   28       -3.473638   1.000000
   29       -3.235995   1.000000
   30       -3.186083   1.000000
   31       -2.946271   1.000000
   32       -2.565031   1.000000
   33       -2.274323   1.000000
   34       -2.153178   1.000000
   35       -1.975630   1.000000
   36       -1.711528   1.000000
   37       -1.690508   1.000000
   38       -1.548884   1.000000
   39       -1.418982   1.000000
   40       -1.285794   1.000000
   41       -1.061237   1.000000
   42       -0.964361   1.000000
   43       -0.804625   1.000000
   44       -0.644719   1.000000
   45       -0.579530   1.000000
   46       -0.477779   1.000000
   47       -0.454362   1.000000
   48       -0.306139   1.000000
   49       -0.234959   1.000000
   50       -0.162196   1.000000
   51       -0.031477   1.000000
   52       -0.016729   1.000000
   53        0.156833   1.000000
   54        0.288537   1.000000
   55        0.310871   1.000000
   56        0.441896   1.000000
   57        0.530454   1.000000
   58        0.580328   1.000000
   59        0.731666   1.000000
   60        0.889870   1.000000
   61        0.968918   1.000000
   62        1.053477   1.000000
   63        1.097367   1.000000
   64        1.204920   1.000000
   65        1.279813   1.000000
   66        1.390719   1.000000
   67        1.659638   1.000000
   68        1.790317   1.000000
   69        1.915790   1.000000
   70        1.953946   1.000000
   71        2.043317   1.000000
   72        2.135450   1.000000
   73        2.279550   1.000000
   74        2.392781   1.000000
   75        2.493610   1.000000
   76        2.597975   1.000000
   77        2.642872   1.000000
   78        2.727480   1.000000
   79        2.744867   1.000000
   80        2.843087   1.000000
   81        2.968633   1.000000
   82        3.089264   1.000000
   83        3.154820   1.000000
   84        3.267436   1.000000
   85        3.312580   1.000000
   86        3.488587   1.000000
   87        3.723948   1.000000
   88        3.791365   1.000000
   89        4.045548   1.000000
   90        4.174693   1.000000
   91        4.294031   1.000000
   92        4.399069   1.000000
   93        4.514723   1.000000
   94        4.582410   1.000000
   95        4.609150   1.000000
   96        4.691722   1.000000
   97        6.590717   1.000000
   98        6.692656   1.000000
   99        6.869531   0.153671
  100        7.007283   0.000000
  101        7.272690   0.000000
  102        7.371151   0.000000
  103        7.664843   0.000000
  104        7.830410   0.000000
  105        8.082451   0.000000
  106        8.314512   0.000000
  107        8.755194   0.000000
  108        8.848668   0.000000
  109        8.976978   0.000000
  110        9.319978   0.000000
  111        9.425969   0.000000
  112        9.964109   0.000000
  113       10.025480   0.000000
  114       10.169837   0.000000
  115       10.340714   0.000000
  116       10.384714   0.000000
  117       10.676844   0.000000
  118       10.797673   0.000000
  119       10.969373   0.000000
  120       11.126405   0.000000
  121       11.209910   0.000000
  122       11.588624   0.000000
  123       11.632006   0.000000
  124       11.733921   0.000000
  125       11.892113   0.000000
  126       12.082243   0.000000
  127       12.200785   0.000000
  128       12.335599   0.000000
 
  0.1666667E+00  0.2000000E+00  0.4545455E+00  0.6060606E-02
    1      -11.561907   1.000000
    2      -10.909493   1.000000
    3      -10.758692   1.000000
    4      -10.691175   1.000000
    5      -10.587147   1.000000
    6      -10.334713   1.000000
    7       -9.242916   1.000000
    8       -9.012894   1.000000
    9       -8.948223   1.000000
   10       -8.694499   1.000000
   11       -8.599190   1.000000
   12       -8.053032   1.000000
   13       -7.835671   1.000000
   14       -7.133924   1.000000
   15       -6.914829   1.000000
   16       -6.070908   1.000000
   17       -5.872641   1.000000
   18       -5.646507   1.000000
   19       -5.410520   1.000000
   20       -5.334526   1.000000
   21       -5.040197   1.000000
   22       -4.981171   1.000000
   23       -4.477515   1.000000
   24       -4.299141   1.000000
   25       -4.104188   1.000000
   26       -3.817436   1.000000
   27       -3.568505   1.000000
   28       -3.373933   1.000000
   29       -3.210131   1.000000
   30       -3.079642   1.000000
   31       -2.949331   1.000000
   32       -2.544042   1.000000
   33       -2.283453   1.000000
   34       -2.136398   1.000000
   35       -1.971580   1.000000
   36       -1.863615   1.000000
   37       -1.729346   1.000000
   38       -1.581246   1.000000
   39       -1.471939   1.000000
   40       -1.283111   1.000000
   41       -1.121433   1.000000
   42       -0.878876   1.000000
   43       -0.809199   1.000000
   44       -0.687182   1.000000
   45       -0.641617   1.000000
   46       -0.565319   1.000000
   47       -0.479682   1.000000
   48       -0.329935   1.000000
   49       -0.213746   1.000000
   50       -0.155603   1.000000
   51       -0.080459   1.000000
   52       -0.010079   1.000000
   53        0.034704   1.000000
   54        0.197330   1.000000
   55        0.286612   1.000000
   56        0.447780   1.000000
   57        0.522607   1.000000
   58        0.641149   1.000000
   59        0.749216   1.000000
   60        0.877090   1.000000
   61        0.945620   1.000000
   62        1.095693   1.000000
   63        1.158412   1.000000
   64        1.213839   1.000000
   65        1.380846   1.000000
   66        1.451066   1.000000
   67        1.713126   1.000000
   68        1.785475   1.000000
   69        1.953556   1.000000
   70        2.009534   1.000000
   71        2.141428   1.000000
   72        2.264190   1.000000
   73        2.315952   1.000000
   74        2.477782   1.000000
   75        2.510294   1.000000
   76        2.582342   1.000000
   77        2.681116   1.000000
   78        2.757139   1.000000
   79        2.804016   1.000000
   80        2.890419   1.000000
   81        2.980305   1.000000
   82        3.045845   1.000000
   83        3.117621   1.000000
   84        3.220822   1.000000
   85        3.337718   1.000000
   86        3.486307   1.000000
   87        3.708503   1.000000
   88        3.818693   1.000000
   89        3.891415   1.000000
   90        4.095972   1.000000
   91        4.227954   1.000000
   92        4.307941   1.000000
   93        4.464560   1.000000
   94        4.595422   1.000000
   95        4.619152   1.000000
   96        4.655198   1.000000
   97        6.613797   1.000000
   98        6.760704   1.121210
   99        6.864040   0.098395
  100        7.022843   0.000000
  101        7.252828   0.000000
  102        7.382781   0.000000
  103        7.595877   0.000000
  104        7.823917   0.000000
  105        8.094342   0.000000
  106        8.285508   0.000000
  107        8.785274   0.000000
  108        8.829165   0.000000
  109        9.002464   0.000000
  110        9.343285   0.000000
  111        9.471630   0.000000
  112        9.907008   0.000000
  113       10.048032   0.000000
  114       10.182355   0.000000
  115       10.287947   0.000000
  116       10.364933   0.000000
  117       10.671866   0.000000
  118       10.785741   0.000000
  119       10.912154   0.000000
  120       11.046401   0.000000
  121       11.166703   0.000000
  122       11.544305   0.000000
  123       11.590862   0.000000
  124       11.704688   0.000000
  125       11.795131   0.000000
  126       11.966519   0.000000
  127       12.171879   0.000000
  128       12.372133   0.000000
 
  0.3333333E+00  0.2000000E+00  0.4545455E+00  0.6060606E-02
    1      -11.566340   1.000000
    2      -10.913719   1.000000
    3      -10.745921   1.000000
    4      -10.697168   1.000000
    5      -10.584058   1.000000
    6      -10.328651   1.000000
    7       -9.280447   1.000000
    8       -8.963420   1.000000
    9       -8.903857   1.000000
   10       -8.728644   1.000000
   11       -8.576846   1.000000
   12       -8.088558   1.000000
   13       -7.915198   1.000000
   14       -7.112897   1.000000
   15       -6.888698   1.000000
   16       -6.070758   1.000000
   17       -5.763395   1.000000
   18       -5.587737   1.000000
   19       -5.487637   1.000000
   20       -5.399865   1.000000
   21       -5.172566   1.000000
   22       -5.079357   1.000000
   23       -4.532813   1.000000
   24       -4.422625   1.000000
   25       -3.927545   1.000000
   26       -3.585906   1.000000
   27       -3.379421   1.000000
   28       -3.145327   1.000000
   29       -3.029963   1.000000
   30       -2.927340   1.000000
   31       -2.790812   1.000000
   32       -2.513047   1.000000
   33       -2.457378   1.000000
   34       -2.240567   1.000000
   35       -2.107243   1.000000
   36       -2.001225   1.000000
   37       -1.893411   1.000000
   38       -1.689919   1.000000
   39       -1.608442   1.000000
   40       -1.380416   1.000000
   41       -1.299681   1.000000
   42       -1.078640   1.000000
   43       -0.982592   1.000000
   44       -0.774107   1.000000
   45       -0.710061   1.000000
   46       -0.646031   1.000000
   47       -0.520457   1.000000
   48       -0.398868   1.000000
   49       -0.265027   1.000000
   50       -0.126528   1.000000
   51       -0.056623   1.000000
   52       -0.045076   1.000000
   53        0.108477   1.000000
   54        0.208943   1.000000
   55        0.432816   1.000000
   56        0.551003   1.000000
   57        0.603639   1.000000
   58        0.797644   1.000000
   59        0.857177   1.000000
   60        0.959809   1.000000
   61        1.045995   1.000000
   62        1.124085   1.000000
   63        1.199946   1.000000
   64        1.288460   1.000000
   65        1.444766   1.000000
   66        1.622419   1.000000
   67        1.693411   1.000000
   68        1.865531   1.000000
   69        1.982004   1.000000
   70        2.124709   1.000000
   71        2.187113   1.000000
   72        2.339194   1.000000
   73        2.388591   1.000000
   74        2.457946   1.000000
   75        2.535629   1.000000
   76        2.591058   1.000000
   77        2.680677   1.000000
   78        2.736589   1.000000
   79        2.839475   1.000000
   80        2.963692   1.000000
   81        3.029623   1.000000
   82        3.117414   1.000000
   83        3.206899   1.000000
   84        3.231611   1.000000
   85        3.362336   1.000000
   86        3.433724   1.000000
   87        3.616409   1.000000
   88        3.671125   1.000000
   89        3.785627   1.000000
   90        3.880795   1.000000
   91        4.064333   1.000000
   92        4.166091   1.000000
   93        4.353309   1.000000
   94        4.527220   1.000000
   95        4.588243   1.000000
   96        4.625069   1.000000
   97        6.716442   1.000000
   98        6.862451   0.475541
   99        6.929338   0.000000
  100        7.041538   0.000000
  101        7.144267   0.000000
  102        7.399779   0.000000
  103        7.571736   0.000000
  104        7.704115   0.000000
  105        8.099376   0.000000
  106        8.339661   0.000000
  107        8.808058   0.000000
  108        8.874439   0.000000
  109        9.179031   0.000000
  110        9.446310   0.000000
  111        9.600778   0.000000
  112        9.768129   0.000000
  113        9.959646   0.000000
  114       10.171398   0.000000
  115       10.258645   0.000000
  116       10.339538   0.000000
  117       10.562398   0.000000
  118       10.734428   0.000000
  119       10.796248   0.000000
  120       10.936027   0.000000
  121       11.103205   0.000000
  122       11.330604   0.000000
  123       11.446795   0.000000
  124       11.652889   0.000000
  125       11.708266   0.000000
  126       11.897756   0.000000
  127       12.194114   0.000000
  128       12.455086   0.000000
 
  0.5000000E+00  0.2000000E+00  0.4545455E+00  0.6060606E-02
    1      -11.566767   1.000000
    2      -10.904775   1.000000
    3      -10.738661   1.000000
    4      -10.716732   1.000000
    5      -10.582904   1.000000
    6      -10.328978   1.000000
    7       -9.311516   1.000000
    8       -9.022423   1.000000
    9       -8.833738   1.000000
   10       -8.636910   1.000000
   11       -8.528238   1.000000
   12       -8.162881   1.000000
   13       -7.978265   1.000000
   14       -7.125442   1.000000
   15       -6.878669   1.000000
   16       -6.068884   1.000000
   17       -5.669047   1.000000
   18       -5.574972   1.000000
   19       -5.516875   1.000000
   20       -5.429443   1.000000
   21       -5.258289   1.000000
   22       -5.161626   1.000000
   23       -4.524034   1.000000
   24       -4.498282   1.000000
   25       -3.813693   1.000000
   26       -3.438204   1.000000
   27       -3.157860   1.000000
   28       -3.090263   1.000000
   29       -2.927530   1.000000
   30       -2.768120   1.000000
   31       -2.655092   1.000000
   32       -2.520936   1.000000
   33       -2.476764   1.000000
   34       -2.412963   1.000000
   35       -2.162820   1.000000
   36       -2.043527   1.000000
   37       -2.011274   1.000000
   38       -1.863339   1.000000
   39       -1.612471   1.000000
   40       -1.551215   1.000000
   41       -1.375817   1.000000
   42       -1.304994   1.000000
   43       -1.137022   1.000000
   44       -0.944050   1.000000
   45       -0.753594   1.000000
   46       -0.690069   1.000000
   47       -0.605946   1.000000
   48       -0.424026   1.000000
   49       -0.273738   1.000000
   50       -0.135726   1.000000
   51       -0.062327   1.000000
   52        0.138687   1.000000
   53        0.276917   1.000000
   54        0.440664   1.000000
   55        0.519001   1.000000
   56        0.624254   1.000000
   57        0.753360   1.000000
   58        0.809363   1.000000
   59        0.859830   1.000000
   60        1.013628   1.000000
   61        1.137986   1.000000
   62        1.231214   1.000000
   63        1.252257   1.000000
   64        1.374862   1.000000
   65        1.446788   1.000000
   66        1.567544   1.000000
   67        1.723952   1.000000
   68        1.867977   1.000000
   69        1.963903   1.000000
   70        2.070460   1.000000
   71        2.184945   1.000000
   72        2.307483   1.000000
   73        2.370579   1.000000
   74        2.447986   1.000000
   75        2.543814   1.000000
   76        2.597556   1.000000
   77        2.666287   1.000000
   78        2.742448   1.000000
   79        2.800123   1.000000
   80        2.926191   1.000000
   81        3.029743   1.000000
   82        3.159559   1.000000
   83        3.280239   1.000000
   84        3.349252   1.000000
   85        3.411205   1.000000
   86        3.496670   1.000000
   87        3.547042   1.000000
   88        3.574028   1.000000
   89        3.731530   1.000000
   90        3.777053   1.000000
   91        3.932721   1.000000
   92        4.145214   1.000000
   93        4.236511   1.000000
   94        4.437886   1.000000
   95        4.576937   1.000000
   96        4.618097   1.000000
   97        6.776936   1.000000
   98        6.898157  -0.100330
   99        6.968497   0.000000
  100        6.994158   0.000000
  101        7.230314   0.000000
  102        7.404486   0.000000
  103        7.508017   0.000000
  104        7.612371   0.000000
  105        8.089930   0.000000
  106        8.449639   0.000000
  107        8.787244   0.000000
  108        8.939634   0.000000
  109        9.350129   0.000000
  110        9.498940   0.000000
  111        9.615807   0.000000
  112        9.786357   0.000000
  113        9.985436   0.000000
  114       10.105609   0.000000
  115       10.183991   0.000000
  116       10.367705   0.000000
  117       10.461341   0.000000
  118       10.595211   0.000000
  119       10.723490   0.000000
  120       10.897489   0.000000
  121       11.087174   0.000000
  122       11.262166   0.000000
  123       11.394927   0.000000
  124       11.525749   0.000000
  125       11.728970   0.000000
  126       11.908400   0.000000
  127       12.254448   0.000000
  128       12.525419   0.000000
 
 -0.3333333E+00  0.2000000E+00  0.4545455E+00  0.6060606E-02
    1      -11.562792   1.000000
    2      -10.888032   1.000000
    3      -10.759485   1.000000
    4      -10.718747   1.000000
    5      -10.583998   1.000000
    6      -10.336289   1.000000
    7       -9.316194   1.000000
    8       -9.066449   1.000000
    9       -8.840911   1.000000
   10       -8.544864   1.000000
   11       -8.468673   1.000000
   12       -8.234176   1.000000
   13       -7.954000   1.000000
   14       -7.154959   1.000000
   15       -6.894425   1.000000
   16       -6.068650   1.000000
   17       -5.672230   1.000000
   18       -5.628608   1.000000
   19       -5.503086   1.000000
   20       -5.430410   1.000000
   21       -5.230615   1.000000
   22       -5.110153   1.000000
   23       -4.476743   1.000000
   24       -4.426744   1.000000
   25       -3.916823   1.000000
   26       -3.583429   1.000000
   27       -3.229332   1.000000
   28       -3.096718   1.000000
   29       -3.027037   1.000000
   30       -2.858937   1.000000
   31       -2.629622   1.000000
   32       -2.496512   1.000000
   33       -2.423707   1.000000
   34       -2.217822   1.000000
   35       -2.166482   1.000000
   36       -2.074828   1.000000
   37       -1.995180   1.000000
   38       -1.839506   1.000000
   39       -1.744849   1.000000
   40       -1.601391   1.000000
   41       -1.286578   1.000000
   42       -1.189148   1.000000
   43       -0.970291   1.000000
   44       -0.900543   1.000000
   45       -0.717375   1.000000
   46       -0.636757   1.000000
   47       -0.555677   1.000000
   48       -0.412902   1.000000
   49       -0.288921   1.000000
   50       -0.245870   1.000000
   51       -0.020101   1.000000
   52        0.138606   1.000000
   53        0.269674   1.000000
   54        0.444904   1.000000
   55        0.587338   1.000000
   56        0.677743   1.000000
   57        0.747567   1.000000
   58        0.793951   1.000000
   59        0.945931   1.000000
   60        1.042588   1.000000
   61        1.081734   1.000000
   62        1.166895   1.000000
   63        1.268691   1.000000
   64        1.418698   1.000000
   65        1.495659   1.000000
   66        1.559067   1.000000
   67        1.649451   1.000000
   68        1.740518   1.000000
   69        1.846761   1.000000
   70        1.904743   1.000000
   71        2.166561   1.000000
   72        2.236516   1.000000
   73        2.347515   1.000000
   74        2.364278   1.000000
   75        2.511044   1.000000
   76        2.591682   1.000000
   77        2.654658   1.000000
   78        2.681603   1.000000
   79        2.777035   1.000000
   80        2.821451   1.000000
   81        2.944607   1.000000
   82        3.100677   1.000000
   83        3.240588   1.000000
   84        3.331929   1.000000
   85        3.459918   1.000000
   86        3.503282   1.000000
   87        3.639516   1.000000
   88        3.675823   1.000000
   89        3.772133   1.000000
   90        3.926154   1.000000
   91        4.061092   1.000000
   92        4.225068   1.000000
   93        4.295624   1.000000
   94        4.426538   1.000000
   95        4.603401   1.000000
   96        4.638425   1.000000
   97        6.674911   1.000000
   98        6.848528   0.874264
   99        6.975279   0.000000
  100        7.072423   0.000000
  101        7.190062   0.000000
  102        7.411459   0.000000
  103        7.542214   0.000000
  104        7.652699   0.000000
  105        8.102985   0.000000
  106        8.440131   0.000000
  107        8.742580   0.000000
  108        8.951345   0.000000
  109        9.322892   0.000000
  110        9.498926   0.000000
  111        9.647148   0.000000
  112        9.824560   0.000000
  113        9.885554   0.000000
  114        9.992729   0.000000
  115       10.188408   0.000000
  116       10.392829   0.000000
  117       10.514469   0.000000
  118       10.724519   0.000000
  119       10.863523   0.000000
  120       10.948888   0.000000
  121       11.163731   0.000000
  122       11.251070   0.000000
  123       11.487610   0.000000
  124       11.534983   0.000000
  125       11.735503   0.000000
  126       11.994678   0.000000
  127       12.311505   0.000000
  128       12.508088   0.000000
 
 -0.1666667E+00  0.2000000E+00  0.4545455E+00  0.6060606E-02
    1      -11.558305   1.000000
    2      -10.880532   1.000000
    3      -10.780077   1.000000
    4      -10.707390   1.000000
    5      -10.587985   1.000000
    6      -10.342428   1.000000
    7       -9.291707   1.000000
    8       -9.076656   1.000000
    9       -8.894580   1.000000
   10       -8.576557   1.000000
   11       -8.461152   1.000000
   12       -8.186251   1.000000
   13       -7.869006   1.000000
   14       -7.178371   1.000000
   15       -6.915156   1.000000
   16       -6.072970   1.000000
   17       -5.807761   1.000000
   18       -5.629277   1.000000
   19       -5.496128   1.000000
   20       -5.354720   1.000000
   21       -5.121509   1.000000
   22       -4.977508   1.000000
   23       -4.383966   1.000000
   24       -4.336213   1.000000
   25       -4.106867   1.000000
   26       -3.811731   1.000000
   27       -3.388327   1.000000
   28       -3.327331   1.000000
   29       -3.165508   1.000000
   30       -3.080484   1.000000
   31       -2.804531   1.000000
   32       -2.515742   1.000000
   33       -2.320440   1.000000
   34       -2.170141   1.000000
   35       -2.092921   1.000000
   36       -1.927659   1.000000
   37       -1.851080   1.000000
   38       -1.657269   1.000000
   39       -1.540664   1.000000
   40       -1.407401   1.000000
   41       -1.194268   1.000000
   42       -1.040542   1.000000
   43       -0.745383   1.000000
   44       -0.673569   1.000000
   45       -0.653602   1.000000
   46       -0.571042   1.000000
   47       -0.461232   1.000000
   48       -0.387157   1.000000
   49       -0.260620   1.000000
   50       -0.191823   1.000000
   51       -0.082440   1.000000
   52        0.055573   1.000000
   53        0.146045   1.000000
   54        0.323848   1.000000
   55        0.507678   1.000000
   56        0.558230   1.000000
   57        0.653265   1.000000
   58        0.762166   1.000000
   59        0.878556   1.000000
   60        0.940100   1.000000
   61        1.027294   1.000000
   62        1.062268   1.000000
   63        1.210231   1.000000
   64        1.327947   1.000000
   65        1.352295   1.000000
   66        1.460110   1.000000
   67        1.653775   1.000000
   68        1.773211   1.000000
   69        1.810677   1.000000
   70        1.907700   1.000000
   71        2.033841   1.000000
   72        2.144255   1.000000
   73        2.258056   1.000000
   74        2.379172   1.000000
   75        2.503217   1.000000
   76        2.584904   1.000000
   77        2.630557   1.000000
   78        2.672188   1.000000
   79        2.717270   1.000000
   80        2.878267   1.000000
   81        2.918134   1.000000
   82        3.070378   1.000000
   83        3.171967   1.000000
   84        3.317790   1.000000
   85        3.403877   1.000000
   86        3.472276   1.000000
   87        3.676399   1.000000
   88        3.764409   1.000000
   89        3.970610   1.000000
   90        4.093313   1.000000
   91        4.237662   1.000000
   92        4.366768   1.000000
   93        4.405597   1.000000
   94        4.510317   1.000000
   95        4.638309   1.000000
   96        4.669743   1.000000
   97        6.612943   1.000000
   98        6.747186   1.000000
   99        6.937104  -0.050605
  100        7.032348   0.000000
  101        7.188083   0.000000
  102        7.390413   0.000000
  103        7.701252   0.000000
  104        7.717072   0.000000
  105        8.103982   0.000000
  106        8.355073   0.000000
  107        8.743060   0.000000
  108        8.897158   0.000000
  109        9.126071   0.000000
  110        9.398960   0.000000
  111        9.518806   0.000000
  112        9.839230   0.000000
  113        9.999622   0.000000
  114       10.090652   0.000000
  115       10.254535   0.000000
  116       10.419062   0.000000
  117       10.603119   0.000000
  118       10.806775   0.000000
  119       10.965309   0.000000
  120       11.067699   0.000000
  121       11.223828   0.000000
  122       11.412775   0.000000
  123       11.587353   0.000000
  124       11.703968   0.000000
  125       11.805356   0.000000
  126       12.022871   0.000000
  127       12.348723   0.000000
  128       12.405890   0.000000
 
  0.0000000E+00  0.4000000E+00  0.4545455E+00  0.6060606E-02
    1      -11.557564   1.000000
    2      -10.915687   1.000000
    3      -10.765325   1.000000
    4      -10.676734   1.000000
    5      -10.598972   1.000000
    6      -10.327483   1.000000
    7       -9.273501   1.000000
    8       -9.168107   1.000000
    9       -8.883676   1.000000
   10       -8.530117   1.000000
   11       -8.431443   1.000000
   12       -8.111980   1.000000
   13       -7.990217   1.000000
   14       -7.209987   1.000000
   15       -6.858372   1.000000
   16       -6.077619   1.000000
   17       -5.912593   1.000000
   18       -5.644605   1.000000
   19       -5.486619   1.000000
   20       -5.353520   1.000000
   21       -4.979173   1.000000
   22       -4.851401   1.000000
   23       -4.519556   1.000000
   24       -4.453065   1.000000
   25       -3.945391   1.000000
   26       -3.644956   1.000000
   27       -3.459823   1.000000
   28       -3.213689   1.000000
   29       -3.088441   1.000000
   30       -3.034699   1.000000
   31       -2.839302   1.000000
   32       -2.696434   1.000000
   33       -2.523791   1.000000
   34       -2.358107   1.000000
   35       -2.244118   1.000000
   36       -2.100325   1.000000
   37       -1.786524   1.000000
   38       -1.638023   1.000000
   39       -1.448048   1.000000
   40       -1.355751   1.000000
   41       -1.136047   1.000000
   42       -1.011297   1.000000
   43       -0.857010   1.000000
   44       -0.759898   1.000000
   45       -0.654395   1.000000
   46       -0.537390   1.000000
   47       -0.398540   1.000000
   48       -0.315781   1.000000
   49       -0.187944   1.000000
   50       -0.121614   1.000000
   51        0.040430   1.000000
   52        0.204450   1.000000
   53        0.252446   1.000000
   54        0.333540   1.000000
   55        0.479117   1.000000
   56        0.568565   1.000000
   57        0.651940   1.000000
   58        0.758778   1.000000
   59        0.812349   1.000000
   60        0.955541   1.000000
   61        1.007810   1.000000
   62        1.147388   1.000000
   63        1.235793   1.000000
   64        1.280455   1.000000
   65        1.335507   1.000000
   66        1.381906   1.000000
   67        1.564462   1.000000
   68        1.774483   1.000000
   69        1.851449   1.000000
   70        1.930683   1.000000
   71        2.110701   1.000000
   72        2.159953   1.000000
   73        2.194229   1.000000
   74        2.332420   1.000000
   75        2.413982   1.000000
   76        2.531744   1.000000
   77        2.594758   1.000000
   78        2.685618   1.000000
   79        2.775901   1.000000
   80        2.886256   1.000000
   81        3.016431   1.000000
   82        3.048361   1.000000
   83        3.219521   1.000000
   84        3.320447   1.000000
   85        3.423129   1.000000
   86        3.548814   1.000000
   87        3.683152   1.000000
   88        3.719404   1.000000
   89        4.023003   1.000000
   90        4.122949   1.000000
   91        4.241587   1.000000
   92        4.301643   1.000000
   93        4.386605   1.000000
   94        4.413015   1.000000
   95        4.468765   1.000000
   96        4.548507   1.000000
   97        6.702734   1.000000
   98        6.804392   0.984502
   99        6.862206   0.140716
  100        7.089422   0.000000
  101        7.165351   0.000000
  102        7.358071   0.000000
  103        7.580906   0.000000
  104        7.709479   0.000000
  105        8.166445   0.000000
  106        8.429020   0.000000
  107        8.821607   0.000000
  108        9.047141   0.000000
  109        9.124631   0.000000
  110        9.359230   0.000000
  111        9.584935   0.000000
  112        9.824939   0.000000
  113        9.863261   0.000000
  114       10.118775   0.000000
  115       10.228843   0.000000
  116       10.417637   0.000000
  117       10.537113   0.000000
  118       10.665898   0.000000
  119       10.794143   0.000000
  120       11.077461   0.000000
  121       11.269382   0.000000
  122       11.470127   0.000000
  123       11.643005   0.000000
  124       11.749853   0.000000
  125       11.932109   0.000000
  126       12.088804   0.000000
  127       12.314484   0.000000
  128       12.475985   0.000000
 
  0.1666667E+00  0.4000000E+00  0.4545455E+00  0.6060606E-02
    1      -11.561213   1.000000
    2      -10.935004   1.000000
    3      -10.746995   1.000000
    4      -10.661571   1.000000
    5      -10.602577   1.000000
    6      -10.328366   1.000000
    7       -9.212498   1.000000
    8       -9.140936   1.000000
    9       -8.936864   1.000000
   10       -8.591667   1.000000
   11       -8.506929   1.000000
   12       -8.068671   1.000000
   13       -7.980505   1.000000
   14       -7.173860   1.000000
   15       -6.845293   1.000000
   16       -6.092179   1.000000
   17       -5.882078   1.000000
   18       -5.650455   1.000000
   19       -5.454587   1.000000
   20       -5.262895   1.000000
   21       -5.026037   1.000000
   22       -4.953520   1.000000
   23       -4.600673   1.000000
   24       -4.475924   1.000000
   25       -3.930676   1.000000
   26       -3.576152   1.000000
   27       -3.359474   1.000000
   28       -3.312396   1.000000
   29       -3.020176   1.000000
   30       -2.948104   1.000000
   31       -2.859453   1.000000
   32       -2.786026   1.000000
   33       -2.421531   1.000000
   34       -2.329601   1.000000
   35       -2.096747   1.000000
   36       -1.989161   1.000000
   37       -1.827777   1.000000
   38       -1.625989   1.000000
   39       -1.546552   1.000000
   40       -1.474320   1.000000
   41       -1.225757   1.000000
   42       -1.091735   1.000000
   43       -0.911968   1.000000
   44       -0.838050   1.000000
   45       -0.738474   1.000000
   46       -0.557957   1.000000
   47       -0.494239   1.000000
   48       -0.246790   1.000000
   49       -0.165473   1.000000
   50       -0.029544   1.000000
   51       -0.002696   1.000000
   52        0.078749   1.000000
   53        0.269953   1.000000
   54        0.405441   1.000000
   55        0.449536   1.000000
   56        0.564212   1.000000
   57        0.650395   1.000000
   58        0.694198   1.000000
   59        0.748196   1.000000
   60        0.858236   1.000000
   61        1.051412   1.000000
   62        1.162758   1.000000
   63        1.219933   1.000000
   64        1.319450   1.000000
   65        1.384712   1.000000
   66        1.473209   1.000000
   67        1.607878   1.000000
   68        1.785321   1.000000
   69        1.942671   1.000000
   70        2.044802   1.000000
   71        2.149888   1.000000
   72        2.189591   1.000000
   73        2.311265   1.000000
   74        2.398603   1.000000
   75        2.489769   1.000000
   76        2.578918   1.000000
   77        2.613934   1.000000
   78        2.671173   1.000000
   79        2.853686   1.000000
   80        2.876501   1.000000
   81        2.996241   1.000000
   82        3.042137   1.000000
   83        3.267620   1.000000
   84        3.303501   1.000000
   85        3.410459   1.000000
   86        3.580829   1.000000
   87        3.629276   1.000000
   88        3.668727   1.000000
   89        3.948117   1.000000
   90        4.045384   1.000000
   91        4.151190   1.000000
   92        4.260781   1.000000
   93        4.314125   1.000000
   94        4.367119   1.000000
   95        4.510780   1.000000
   96        4.540984   1.000000
   97        6.717513   1.000000
   98        6.811084   0.943566
   99        6.880027   0.000843
  100        7.086805   0.000000
  101        7.193783   0.000000
  102        7.320125   0.000000
  103        7.560770   0.000000
  104        7.790169   0.000000
  105        8.154544   0.000000
  106        8.384269   0.000000
  107        8.799632   0.000000
  108        9.019663   0.000000
  109        9.140508   0.000000
  110        9.356976   0.000000
  111        9.664211   0.000000
  112        9.815673   0.000000
  113        9.884988   0.000000
  114       10.121956   0.000000
  115       10.210618   0.000000
  116       10.371625   0.000000
  117       10.517755   0.000000
  118       10.605093   0.000000
  119       10.797668   0.000000
  120       11.038542   0.000000
  121       11.287361   0.000000
  122       11.411099   0.000000
  123       11.547368   0.000000
  124       11.710455   0.000000
  125       11.764890   0.000000
  126       12.040314   0.000000
  127       12.195763   0.000000
  128       12.456573   0.000000
 
  0.3333333E+00  0.4000000E+00  0.4545455E+00  0.6060606E-02
    1      -11.566118   1.000000
    2      -10.949096   1.000000
    3      -10.727301   1.000000
    4      -10.644720   1.000000
    5      -10.612748   1.000000
    6      -10.330003   1.000000
    7       -9.169431   1.000000
    8       -9.077625   1.000000
    9       -8.964121   1.000000
   10       -8.671806   1.000000
   11       -8.579421   1.000000
   12       -8.051920   1.000000
   13       -7.992021   1.000000
   14       -7.128151   1.000000
   15       -6.817063   1.000000
   16       -6.110269   1.000000
   17       -5.789087   1.000000
   18       -5.624313   1.000000
   19       -5.427870   1.000000
   20       -5.249440   1.000000
   21       -5.130841   1.000000
   22       -5.076506   1.000000
   23       -4.660153   1.000000
   24       -4.570426   1.000000
   25       -3.884905   1.000000
   26       -3.405730   1.000000
   27       -3.287332   1.000000
   28       -3.205158   1.000000
   29       -3.090480   1.000000
   30       -2.779729   1.000000
   31       -2.746119   1.000000
   32       -2.614315   1.000000
   33       -2.415679   1.000000
   34       -2.274024   1.000000
   35       -2.217915   1.000000
   36       -2.072511   1.000000
   37       -1.921882   1.000000
   38       -1.821915   1.000000
   39       -1.662150   1.000000
   40       -1.409606   1.000000
   41       -1.295064   1.000000
   42       -1.044760   1.000000
   43       -0.944992   1.000000
   44       -0.815854   1.000000
   45       -0.784391   1.000000
   46       -0.630822   1.000000
   47       -0.530574   1.000000
   48       -0.425384   1.000000
   49       -0.203871   1.000000
   50       -0.096378   1.000000
   51       -0.049970   1.000000
   52        0.023717   1.000000
   53        0.121839   1.000000
   54        0.211092   1.000000
   55        0.408640   1.000000
   56        0.598842   1.000000
   57        0.652076   1.000000
   58        0.789193   1.000000
   59        0.864768   1.000000
   60        0.943533   1.000000
   61        1.097391   1.000000
   62        1.184340   1.000000
   63        1.259392   1.000000
   64        1.366018   1.000000
   65        1.451437   1.000000
   66        1.580559   1.000000
   67        1.740398   1.000000
   68        1.777709   1.000000
   69        2.005318   1.000000
   70        2.126959   1.000000
   71        2.233249   1.000000
   72        2.292782   1.000000
   73        2.402860   1.000000
   74        2.458002   1.000000
   75        2.547906   1.000000
   76        2.606985   1.000000
   77        2.692143   1.000000
   78        2.758420   1.000000
   79        2.871506   1.000000
   80        2.972415   1.000000
   81        3.027302   1.000000
   82        3.083460   1.000000
   83        3.197077   1.000000
   84        3.292818   1.000000
   85        3.409487   1.000000
   86        3.520025   1.000000
   87        3.608979   1.000000
   88        3.690968   1.000000
   89        3.790587   1.000000
   90        3.817156   1.000000
   91        4.056652   1.000000
   92        4.137653   1.000000
   93        4.231952   1.000000
   94        4.279995   1.000000
   95        4.487493   1.000000
   96        4.577303   1.000000
   97        6.765766   1.000000
   98        6.886437   0.085228
   99        6.923937   0.000000
  100        7.054160   0.000000
  101        7.195472   0.000000
  102        7.337232   0.000000
  103        7.570390   0.000000
  104        7.775565   0.000000
  105        8.118433   0.000000
  106        8.378733   0.000000
  107        8.795541   0.000000
  108        9.037596   0.000000
  109        9.210733   0.000000
  110        9.436107   0.000000
  111        9.650946   0.000000
  112        9.743365   0.000000
  113        9.983106   0.000000
  114       10.088299   0.000000
  115       10.194009   0.000000
  116       10.336062   0.000000
  117       10.428444   0.000000
  118       10.585350   0.000000
  119       10.811814   0.000000
  120       10.987033   0.000000
  121       11.128662   0.000000
  122       11.212735   0.000000
  123       11.393907   0.000000
  124       11.525371   0.000000
  125       11.695480   0.000000
  126       11.906892   0.000000
  127       12.158933   0.000000
  128       12.470062   0.000000
 
  0.5000000E+00  0.4000000E+00  0.4545455E+00  0.6060606E-02
    1      -11.567426   1.000000
    2      -10.947337   1.000000
    3      -10.721299   1.000000
    4      -10.649718   1.000000
    5      -10.613855   1.000000
    6      -10.330579   1.000000
    7       -9.209019   1.000000
    8       -9.050631   1.000000
    9       -8.909254   1.000000
   10       -8.693512   1.000000
   11       -8.587051   1.000000
   12       -8.074353   1.000000
   13       -7.999206   1.000000
   14       -7.121127   1.000000
   15       -6.806113   1.000000
   16       -6.113456   1.000000
   17       -5.717972   1.000000
   18       -5.615160   1.000000
   19       -5.441875   1.000000
   20       -5.284456   1.000000
   21       -5.177149   1.000000
   22       -5.117873   1.000000
   23       -4.665315   1.000000
   24       -4.628013   1.000000
   25       -3.835273   1.000000
   26       -3.293932   1.000000
   27       -3.225947   1.000000
   28       -3.186477   1.000000
   29       -3.060570   1.000000
   30       -2.757821   1.000000
   31       -2.653378   1.000000
   32       -2.536782   1.000000
   33       -2.442716   1.000000
   34       -2.350879   1.000000
   35       -2.310168   1.000000
   36       -2.130426   1.000000
   37       -1.883231   1.000000
   38       -1.773794   1.000000
   39       -1.668018   1.000000
   40       -1.404989   1.000000
   41       -1.270133   1.000000
   42       -1.228844   1.000000
   43       -1.048116   1.000000
   44       -0.967774   1.000000
   45       -0.778009   1.000000
   46       -0.685640   1.000000
   47       -0.539582   1.000000
   48       -0.344597   1.000000
   49       -0.239004   1.000000
   50       -0.145174   1.000000
   51       -0.036745   1.000000
   52        0.066209   1.000000
   53        0.133373   1.000000
   54        0.255161   1.000000
   55        0.325696   1.000000
   56        0.561021   1.000000
   57        0.700199   1.000000
   58        0.805679   1.000000
   59        0.944736   1.000000
   60        1.079166   1.000000
   61        1.121271   1.000000
   62        1.180881   1.000000
   63        1.257681   1.000000
   64        1.359530   1.000000
   65        1.511142   1.000000
   66        1.570034   1.000000
   67        1.717624   1.000000
   68        1.817004   1.000000
   69        2.003115   1.000000
   70        2.057403   1.000000
   71        2.249709   1.000000
   72        2.385557   1.000000
   73        2.405554   1.000000
   74        2.528447   1.000000
   75        2.565302   1.000000
   76        2.602275   1.000000
   77        2.710135   1.000000
   78        2.789563   1.000000
   79        2.872999   1.000000
   80        2.925659   1.000000
   81        3.031651   1.000000
   82        3.145467   1.000000
   83        3.230482   1.000000
   84        3.347726   1.000000
   85        3.426868   1.000000
   86        3.499306   1.000000
   87        3.581652   1.000000
   88        3.627830   1.000000
   89        3.715201   1.000000
   90        3.856976   1.000000
   91        3.967950   1.000000
   92        4.082186   1.000000
   93        4.173643   1.000000
   94        4.233001   1.000000
   95        4.473158   1.000000
   96        4.572658   1.000000
   97        6.817749   1.000000
   98        6.912342  -0.071374
   99        6.947596   0.000000
  100        7.032059   0.000000
  101        7.239079   0.000000
  102        7.354809   0.000000
  103        7.583661   0.000000
  104        7.676232   0.000000
  105        8.100665   0.000000
  106        8.419531   0.000000
  107        8.824699   0.000000
  108        9.061311   0.000000
  109        9.222505   0.000000
  110        9.484271   0.000000
  111        9.651362   0.000000
  112        9.789933   0.000000
  113        9.882718   0.000000
  114       10.162789   0.000000
  115       10.199026   0.000000
  116       10.372161   0.000000
  117       10.465961   0.000000
  118       10.555803   0.000000
  119       10.758107   0.000000
  120       10.855716   0.000000
  121       10.900068   0.000000
  122       11.179212   0.000000
  123       11.341498   0.000000
  124       11.516724   0.000000
  125       11.665832   0.000000
  126       11.871761   0.000000
  127       12.212451   0.000000
  128       12.418132   0.000000
 
 -0.3333333E+00  0.4000000E+00  0.4545455E+00  0.6060606E-02
    1      -11.563873   1.000000
    2      -10.930913   1.000000
    3      -10.737800   1.000000
    4      -10.668706   1.000000
    5      -10.604988   1.000000
    6      -10.330007   1.000000
    7       -9.262381   1.000000
    8       -9.112127   1.000000
    9       -8.840864   1.000000
   10       -8.612176   1.000000
   11       -8.536566   1.000000
   12       -8.101384   1.000000
   13       -8.007906   1.000000
   14       -7.154737   1.000000
   15       -6.827620   1.000000
   16       -6.112485   1.000000
   17       -5.731380   1.000000
   18       -5.638591   1.000000
   19       -5.480035   1.000000
   20       -5.335840   1.000000
   21       -5.148303   1.000000
   22       -5.001249   1.000000
   23       -4.648921   1.000000
   24       -4.563151   1.000000
   25       -3.815313   1.000000
   26       -3.396985   1.000000
   27       -3.291623   1.000000
   28       -3.237702   1.000000
   29       -2.987371   1.000000
   30       -2.854499   1.000000
   31       -2.786648   1.000000
   32       -2.586290   1.000000
   33       -2.532739   1.000000
   34       -2.327566   1.000000
   35       -2.130151   1.000000
   36       -2.057446   1.000000
   37       -1.837292   1.000000
   38       -1.744051   1.000000
   39       -1.658414   1.000000
   40       -1.428711   1.000000
   41       -1.302716   1.000000
   42       -1.166132   1.000000
   43       -1.016903   1.000000
   44       -0.971805   1.000000
   45       -0.776923   1.000000
   46       -0.621315   1.000000
   47       -0.510251   1.000000
   48       -0.375022   1.000000
   49       -0.284688   1.000000
   50       -0.097741   1.000000
   51        0.039723   1.000000
   52        0.113141   1.000000
   53        0.176553   1.000000
   54        0.306110   1.000000
   55        0.483486   1.000000
   56        0.661898   1.000000
   57        0.741084   1.000000
   58        0.785289   1.000000
   59        0.866542   1.000000
   60        1.005104   1.000000
   61        1.117917   1.000000
   62        1.178743   1.000000
   63        1.251019   1.000000
   64        1.367372   1.000000
   65        1.506096   1.000000
   66        1.579824   1.000000
   67        1.597924   1.000000
   68        1.705532   1.000000
   69        1.938891   1.000000
   70        2.004736   1.000000
   71        2.200598   1.000000
   72        2.265621   1.000000
   73        2.353082   1.000000
   74        2.447485   1.000000
   75        2.535425   1.000000
   76        2.645158   1.000000
   77        2.678153   1.000000
   78        2.739422   1.000000
   79        2.823060   1.000000
   80        2.881910   1.000000
   81        2.916520   1.000000
   82        2.982900   1.000000
   83        3.211642   1.000000
   84        3.310010   1.000000
   85        3.438582   1.000000
   86        3.627548   1.000000
   87        3.662437   1.000000
   88        3.769662   1.000000
   89        3.844331   1.000000
   90        3.915223   1.000000
   91        4.082231   1.000000
   92        4.142518   1.000000
   93        4.210970   1.000000
   94        4.286572   1.000000
   95        4.469882   1.000000
   96        4.535764   1.000000
   97        6.776346   1.000000
   98        6.844957   0.795095
   99        6.917526   0.000000
  100        7.083811   0.000000
  101        7.293118   0.000000
  102        7.398745   0.000000
  103        7.521254   0.000000
  104        7.637131   0.000000
  105        8.126155   0.000000
  106        8.449448   0.000000
  107        8.807417   0.000000
  108        9.046727   0.000000
  109        9.244357   0.000000
  110        9.528300   0.000000
  111        9.599552   0.000000
  112        9.792604   0.000000
  113        9.931907   0.000000
  114       10.066532   0.000000
  115       10.208417   0.000000
  116       10.406670   0.000000
  117       10.469266   0.000000
  118       10.541474   0.000000
  119       10.764937   0.000000
  120       10.869051   0.000000
  121       11.057202   0.000000
  122       11.202581   0.000000
  123       11.492223   0.000000
  124       11.580829   0.000000
  125       11.730561   0.000000
  126       11.947073   0.000000
  127       12.218917   0.000000
  128       12.437727   0.000000
 
 -0.1666667E+00  0.4000000E+00  0.4545455E+00  0.6060606E-02
    1      -11.558921   1.000000
    2      -10.913173   1.000000
    3      -10.762305   1.000000
    4      -10.679245   1.000000
    5      -10.599949   1.000000
    6      -10.328540   1.000000
    7       -9.290024   1.000000
    8       -9.159723   1.000000
    9       -8.843944   1.000000
   10       -8.509931   1.000000
   11       -8.474403   1.000000
   12       -8.118245   1.000000
   13       -8.011499   1.000000
   14       -7.198050   1.000000
   15       -6.851608   1.000000
   16       -6.097009   1.000000
   17       -5.831682   1.000000
   18       -5.650973   1.000000
   19       -5.449084   1.000000
   20       -5.430347   1.000000
   21       -5.038444   1.000000
   22       -4.876456   1.000000
   23       -4.540916   1.000000
   24       -4.506920   1.000000
   25       -3.882615   1.000000
   26       -3.547284   1.000000
   27       -3.444791   1.000000
   28       -3.180811   1.000000
   29       -3.059799   1.000000
   30       -2.997280   1.000000
   31       -2.764768   1.000000
   32       -2.639126   1.000000
   33       -2.563190   1.000000
   34       -2.318391   1.000000
   35       -2.278114   1.000000
   36       -2.081081   1.000000
   37       -1.827429   1.000000
   38       -1.756253   1.000000
   39       -1.502863   1.000000
   40       -1.397213   1.000000
   41       -1.242504   1.000000
   42       -0.985238   1.000000
   43       -0.839886   1.000000
   44       -0.696265   1.000000
   45       -0.623365   1.000000
   46       -0.539895   1.000000
   47       -0.429578   1.000000
   48       -0.391776   1.000000
   49       -0.288662   1.000000
   50       -0.237540   1.000000
   51       -0.038496   1.000000
   52        0.133321   1.000000
   53        0.178662   1.000000
   54        0.412920   1.000000
   55        0.487136   1.000000
   56        0.629501   1.000000
   57        0.715309   1.000000
   58        0.809534   1.000000
   59        0.893580   1.000000
   60        0.995950   1.000000
   61        1.072375   1.000000
   62        1.225093   1.000000
   63        1.254818   1.000000
   64        1.310881   1.000000
   65        1.370088   1.000000
   66        1.413304   1.000000
   67        1.571335   1.000000
   68        1.723389   1.000000
   69        1.879888   1.000000
   70        1.954956   1.000000
   71        2.044986   1.000000
   72        2.177907   1.000000
   73        2.226588   1.000000
   74        2.354935   1.000000
   75        2.463880   1.000000
   76        2.537163   1.000000
   77        2.619891   1.000000
   78        2.736670   1.000000
   79        2.801112   1.000000
   80        2.865400   1.000000
   81        2.957959   1.000000
   82        3.020039   1.000000
   83        3.137792   1.000000
   84        3.251324   1.000000
   85        3.454893   1.000000
   86        3.629299   1.000000
   87        3.743078   1.000000
   88        3.792401   1.000000
   89        3.899174   1.000000
   90        4.116389   1.000000
   91        4.192322   1.000000
   92        4.238761   1.000000
   93        4.337722   1.000000
   94        4.371164   1.000000
   95        4.497706   1.000000
   96        4.516756   1.000000
   97        6.719387   1.000000
   98        6.810530   0.992058
   99        6.885870   0.015898
  100        7.088328   0.000000
  101        7.215331   0.000000
  102        7.414098   0.000000
  103        7.577117   0.000000
  104        7.618602   0.000000
  105        8.159476   0.000000
  106        8.451174   0.000000
  107        8.803943   0.000000
  108        9.049488   0.000000
  109        9.198484   0.000000
  110        9.499086   0.000000
  111        9.543149   0.000000
  112        9.795655   0.000000
  113        9.881202   0.000000
  114       10.057224   0.000000
  115       10.210557   0.000000
  116       10.389955   0.000000
  117       10.536275   0.000000
  118       10.593456   0.000000
  119       10.843474   0.000000
  120       10.998707   0.000000
  121       11.247645   0.000000
  122       11.348024   0.000000
  123       11.620409   0.000000
  124       11.687475   0.000000
  125       11.862376   0.000000
  126       12.034110   0.000000
  127       12.281701   0.000000
  128       12.478997   0.000000
 
  0.0000000E+00 -0.4000000E+00  0.4545455E+00  0.6060606E-02
    1      -11.553760   1.000000
    2      -10.923351   1.000000
    3      -10.777858   1.000000
    4      -10.681814   1.000000
    5      -10.572102   1.000000
    6      -10.336178   1.000000
    7       -9.281854   1.000000
    8       -9.165527   1.000000
    9       -8.848582   1.000000
   10       -8.517804   1.000000
   11       -8.457367   1.000000
   12       -8.194373   1.000000
   13       -7.904340   1.000000
   14       -7.209088   1.000000
   15       -6.884111   1.000000
   16       -6.069532   1.000000
   17       -5.881821   1.000000
   18       -5.645910   1.000000
   19       -5.442027   1.000000
   20       -5.401033   1.000000
   21       -5.045049   1.000000
   22       -4.887439   1.000000
   23       -4.497638   1.000000
   24       -4.385049   1.000000
   25       -3.987002   1.000000
   26       -3.713254   1.000000
   27       -3.356451   1.000000
   28       -3.265200   1.000000
   29       -3.173604   1.000000
   30       -3.054735   1.000000
   31       -2.865562   1.000000
   32       -2.654245   1.000000
   33       -2.379483   1.000000
   34       -2.294215   1.000000
   35       -2.204805   1.000000
   36       -1.975860   1.000000
   37       -1.884977   1.000000
   38       -1.633807   1.000000
   39       -1.423711   1.000000
   40       -1.343971   1.000000
   41       -1.146580   1.000000
   42       -0.993295   1.000000
   43       -0.870826   1.000000
   44       -0.778369   1.000000
   45       -0.671944   1.000000
   46       -0.544710   1.000000
   47       -0.394238   1.000000
   48       -0.321807   1.000000
   49       -0.278754   1.000000
   50       -0.216330   1.000000
   51       -0.054510   1.000000
   52        0.108290   1.000000
   53        0.242701   1.000000
   54        0.371974   1.000000
   55        0.518206   1.000000
   56        0.589451   1.000000
   57        0.699841   1.000000
   58        0.792272   1.000000
   59        0.872655   1.000000
   60        0.970110   1.000000
   61        1.024347   1.000000
   62        1.102395   1.000000
   63        1.174066   1.000000
   64        1.299953   1.000000
   65        1.396737   1.000000
   66        1.444031   1.000000
   67        1.579667   1.000000
   68        1.734950   1.000000
   69        1.835416   1.000000
   70        1.909423   1.000000
   71        1.983757   1.000000
   72        2.084222   1.000000
   73        2.222146   1.000000
   74        2.346634   1.000000
   75        2.406258   1.000000
   76        2.536234   1.000000
   77        2.612991   1.000000
   78        2.746143   1.000000
   79        2.853964   1.000000
   80        2.875973   1.000000
   81        3.001922   1.000000
   82        3.101234   1.000000
   83        3.200096   1.000000
   84        3.235797   1.000000
   85        3.461583   1.000000
   86        3.586891   1.000000
   87        3.723959   1.000000
   88        3.776583   1.000000
   89        4.040051   1.000000
   90        4.113449   1.000000
   91        4.212180   1.000000
   92        4.278640   1.000000
   93        4.355288   1.000000
   94        4.421246   1.000000
   95        4.470197   1.000000
   96        4.562046   1.000000
   97        6.582737   1.000000
   98        6.793563   0.999078
   99        6.989141  -0.005565
  100        7.153253   0.000000
  101        7.225883   0.000000
  102        7.377707   0.000000
  103        7.571337   0.000000
  104        7.617053   0.000000
  105        8.166022   0.000000
  106        8.438891   0.000000
  107        8.841534   0.000000
  108        9.015095   0.000000
  109        9.131551   0.000000
  110        9.296256   0.000000
  111        9.581108   0.000000
  112        9.793816   0.000000
  113        9.871883   0.000000
  114       10.091193   0.000000
  115       10.311651   0.000000
  116       10.405921   0.000000
  117       10.511752   0.000000
  118       10.718753   0.000000
  119       10.822729   0.000000
  120       11.057424   0.000000
  121       11.184674   0.000000
  122       11.356380   0.000000
  123       11.667223   0.000000
  124       11.761457   0.000000
  125       11.896263   0.000000
  126       12.028121   0.000000
  127       12.266420   0.000000
  128       12.429001   0.000000
 
  0.1666667E+00 -0.4000000E+00  0.4545455E+00  0.6060606E-02
    1      -11.556479   1.000000
    2      -10.938231   1.000000
    3      -10.761948   1.000000
    4      -10.672567   1.000000
    5      -10.575235   1.000000
    6      -10.337815   1.000000
    7       -9.270465   1.000000
    8       -9.145957   1.000000
    9       -8.869997   1.000000
   10       -8.486188   1.000000
   11       -8.467335   1.000000
   12       -8.200419   1.000000
   13       -7.980018   1.000000
   14       -7.189683   1.000000
   15       -6.879599   1.000000
   16       -6.084838   1.000000
   17       -5.814372   1.000000
   18       -5.601916   1.000000
   19       -5.473664   1.000000
   20       -5.379874   1.000000
   21       -5.159190   1.000000
   22       -4.941932   1.000000
   23       -4.542626   1.000000
   24       -4.465007   1.000000
   25       -3.869279   1.000000
   26       -3.562831   1.000000
   27       -3.274267   1.000000
   28       -3.156264   1.000000
   29       -3.043842   1.000000
   30       -2.902562   1.000000
   31       -2.768002   1.000000
   32       -2.554740   1.000000
   33       -2.463775   1.000000
   34       -2.328313   1.000000
   35       -2.207998   1.000000
   36       -2.067252   1.000000
   37       -1.950138   1.000000
   38       -1.805389   1.000000
   39       -1.667148   1.000000
   40       -1.491874   1.000000
   41       -1.289739   1.000000
   42       -1.148396   1.000000
   43       -1.018764   1.000000
   44       -0.908476   1.000000
   45       -0.740534   1.000000
   46       -0.564488   1.000000
   47       -0.439997   1.000000
   48       -0.341203   1.000000
   49       -0.188547   1.000000
   50       -0.079086   1.000000
   51        0.007309   1.000000
   52        0.100411   1.000000
   53        0.165934   1.000000
   54        0.470349   1.000000
   55        0.575084   1.000000
   56        0.651813   1.000000
   57        0.793859   1.000000
   58        0.906002   1.000000
   59        0.937184   1.000000
   60        1.007091   1.000000
   61        1.066578   1.000000
   62        1.190097   1.000000
   63        1.251487   1.000000
   64        1.353471   1.000000
   65        1.423695   1.000000
   66        1.493688   1.000000
   67        1.607477   1.000000
   68        1.734911   1.000000
   69        1.866632   1.000000
   70        1.934832   1.000000
   71        2.018040   1.000000
   72        2.173142   1.000000
   73        2.264555   1.000000
   74        2.357773   1.000000
   75        2.480272   1.000000
   76        2.517412   1.000000
   77        2.608849   1.000000
   78        2.691372   1.000000
   79        2.839861   1.000000
   80        2.924742   1.000000
   81        2.951099   1.000000
   82        3.025884   1.000000
   83        3.265325   1.000000
   84        3.335323   1.000000
   85        3.483791   1.000000
   86        3.541822   1.000000
   87        3.677840   1.000000
   88        3.817135   1.000000
   89        3.929328   1.000000
   90        3.966123   1.000000
   91        4.113634   1.000000
   92        4.180874   1.000000
   93        4.234062   1.000000
   94        4.386389   1.000000
   95        4.463471   1.000000
   96        4.549849   1.000000
   97        6.607627   1.000000
   98        6.849889   0.762437
   99        7.005530  -0.000086
  100        7.111853   0.000000
  101        7.243187   0.000000
  102        7.352337   0.000000
  103        7.519386   0.000000
  104        7.687225   0.000000
  105        8.141236   0.000000
  106        8.458676   0.000000
  107        8.794455   0.000000
  108        9.035827   0.000000
  109        9.239429   0.000000
  110        9.483874   0.000000
  111        9.540975   0.000000
  112        9.735087   0.000000
  113        9.922722   0.000000
  114       10.032275   0.000000
  115       10.221668   0.000000
  116       10.384744   0.000000
  117       10.498594   0.000000
  118       10.624117   0.000000
  119       10.764248   0.000000
  120       10.924371   0.000000
  121       11.158468   0.000000
  122       11.361874   0.000000
  123       11.651376   0.000000
  124       11.697996   0.000000
  125       11.823743   0.000000
  126       11.994988   0.000000
  127       12.323989   0.000000
  128       12.448168   0.000000
 
  0.3333333E+00 -0.4000000E+00  0.4545455E+00  0.6060606E-02
    1      -11.560700   1.000000
    2      -10.956250   1.000000
    3      -10.743383   1.000000
    4      -10.657401   1.000000
    5      -10.580909   1.000000
    6      -10.337998   1.000000
    7       -9.221763   1.000000
    8       -9.084964   1.000000
    9       -8.924133   1.000000
   10       -8.601349   1.000000
   11       -8.502650   1.000000
   12       -8.170185   1.000000
   13       -7.982067   1.000000
   14       -7.141988   1.000000
   15       -6.853882   1.000000
   16       -6.110028   1.000000
   17       -5.734757   1.000000
   18       -5.593179   1.000000
   19       -5.454405   1.000000
   20       -5.309547   1.000000
   21       -5.233679   1.000000
   22       -5.075353   1.000000
   23       -4.624929   1.000000
   24       -4.546515   1.000000
   25       -3.812272   1.000000
   26       -3.373354   1.000000
   27       -3.204891   1.000000
   28       -3.106674   1.000000
   29       -2.941782   1.000000
   30       -2.780266   1.000000
   31       -2.758759   1.000000
   32       -2.532791   1.000000
   33       -2.393660   1.000000
   34       -2.350666   1.000000
   35       -2.291011   1.000000
   36       -2.187314   1.000000
   37       -1.918814   1.000000
   38       -1.788001   1.000000
   39       -1.702820   1.000000
   40       -1.475427   1.000000
   41       -1.419077   1.000000
   42       -1.232619   1.000000
   43       -1.119219   1.000000
   44       -1.002910   1.000000
   45       -0.781163   1.000000
   46       -0.645727   1.000000
   47       -0.548249   1.000000
   48       -0.334951   1.000000
   49       -0.149687   1.000000
   50       -0.123413   1.000000
   51       -0.026429   1.000000
   52        0.056667   1.000000
   53        0.213857   1.000000
   54        0.329061   1.000000
   55        0.542246   1.000000
   56        0.610964   1.000000
   57        0.677044   1.000000
   58        0.867485   1.000000
   59        0.967604   1.000000
   60        1.046139   1.000000
   61        1.100315   1.000000
   62        1.210426   1.000000
   63        1.247691   1.000000
   64        1.376198   1.000000
   65        1.487225   1.000000
   66        1.596646   1.000000
   67        1.723371   1.000000
   68        1.810603   1.000000
   69        1.956744   1.000000
   70        2.054642   1.000000
   71        2.126245   1.000000
   72        2.306280   1.000000
   73        2.388197   1.000000
   74        2.465478   1.000000
   75        2.523354   1.000000
   76        2.635205   1.000000
   77        2.663310   1.000000
   78        2.724719   1.000000
   79        2.828811   1.000000
   80        2.945350   1.000000
   81        2.998551   1.000000
   82        3.076496   1.000000
   83        3.270800   1.000000
   84        3.385667   1.000000
   85        3.446499   1.000000
   86        3.501019   1.000000
   87        3.601317   1.000000
   88        3.716222   1.000000
   89        3.746512   1.000000
   90        3.836148   1.000000
   91        4.034555   1.000000
   92        4.122634   1.000000
   93        4.169000   1.000000
   94        4.265180   1.000000
   95        4.442220   1.000000
   96        4.537037   1.000000
   97        6.668799   1.000000
   98        6.905502  -0.070599
   99        7.029144   0.000000
  100        7.063720   0.000000
  101        7.244356   0.000000
  102        7.273006   0.000000
  103        7.550420   0.000000
  104        7.738248   0.000000
  105        8.098947   0.000000
  106        8.485026   0.000000
  107        8.800251   0.000000
  108        9.071564   0.000000
  109        9.280020   0.000000
  110        9.515056   0.000000
  111        9.621382   0.000000
  112        9.763606   0.000000
  113        9.957727   0.000000
  114       10.074524   0.000000
  115       10.137362   0.000000
  116       10.378070   0.000000
  117       10.438787   0.000000
  118       10.475447   0.000000
  119       10.726011   0.000000
  120       10.914511   0.000000
  121       11.012845   0.000000
  122       11.241071   0.000000
  123       11.460057   0.000000
  124       11.548297   0.000000
  125       11.738440   0.000000
  126       11.915482   0.000000
  127       12.235806   0.000000
  128       12.471561   0.000000
 
  0.5000000E+00 -0.4000000E+00  0.4545455E+00  0.6060606E-02
    1      -11.562232   1.000000
    2      -10.960968   1.000000
    3      -10.742563   1.000000
    4      -10.642943   1.000000
    5      -10.589002   1.000000
    6      -10.336146   1.000000
    7       -9.160461   1.000000
    8       -9.062671   1.000000
    9       -8.946255   1.000000
   10       -8.702112   1.000000
   11       -8.571180   1.000000
   12       -8.138742   1.000000
   13       -7.924992   1.000000
   14       -7.114104   1.000000
   15       -6.830014   1.000000
   16       -6.108553   1.000000
   17       -5.722430   1.000000
   18       -5.626860   1.000000
   19       -5.430845   1.000000
   20       -5.312793   1.000000
   21       -5.203775   1.000000
   22       -5.089705   1.000000
   23       -4.669468   1.000000
   24       -4.535997   1.000000
   25       -3.882205   1.000000
   26       -3.404157   1.000000
   27       -3.320733   1.000000
   28       -3.065327   1.000000
   29       -3.008155   1.000000
   30       -2.811617   1.000000
   31       -2.748192   1.000000
   32       -2.605491   1.000000
   33       -2.366930   1.000000
   34       -2.282104   1.000000
   35       -2.208795   1.000000
   36       -2.122918   1.000000
   37       -1.824596   1.000000
   38       -1.766705   1.000000
   39       -1.729576   1.000000
   40       -1.336168   1.000000
   41       -1.278527   1.000000
   42       -1.172740   1.000000
   43       -1.049708   1.000000
   44       -0.860057   1.000000
   45       -0.788986   1.000000
   46       -0.630249   1.000000
   47       -0.522381   1.000000
   48       -0.417472   1.000000
   49       -0.284592   1.000000
   50       -0.183266   1.000000
   51       -0.088101   1.000000
   52        0.072777   1.000000
   53        0.122880   1.000000
   54        0.276051   1.000000
   55        0.335911   1.000000
   56        0.425901   1.000000
   57        0.645839   1.000000
   58        0.775300   1.000000
   59        0.821418   1.000000
   60        1.035722   1.000000
   61        1.084850   1.000000
   62        1.190169   1.000000
   63        1.265004   1.000000
   64        1.394759   1.000000
   65        1.520173   1.000000
   66        1.562847   1.000000
   67        1.733678   1.000000
   68        1.869088   1.000000
   69        2.026142   1.000000
   70        2.103738   1.000000
   71        2.218479   1.000000
   72        2.320776   1.000000
   73        2.463880   1.000000
   74        2.533496   1.000000
   75        2.587074   1.000000
   76        2.658303   1.000000
   77        2.734410   1.000000
   78        2.798957   1.000000
   79        2.948973   1.000000
   80        3.007679   1.000000
   81        3.035233   1.000000
   82        3.173580   1.000000
   83        3.235972   1.000000
   84        3.294076   1.000000
   85        3.358286   1.000000
   86        3.469604   1.000000
   87        3.567861   1.000000
   88        3.641818   1.000000
   89        3.724574   1.000000
   90        3.861390   1.000000
   91        3.957554   1.000000
   92        4.110162   1.000000
   93        4.188570   1.000000
   94        4.234928   1.000000
   95        4.463240   1.000000
   96        4.570488   1.000000
   97        6.768359   1.000000
   98        6.844935   0.572289
   99        6.975233   0.000000
  100        7.079577   0.000000
  101        7.220468   0.000000
  102        7.280297   0.000000
  103        7.607714   0.000000
  104        7.720270   0.000000
  105        8.099750   0.000000
  106        8.466573   0.000000
  107        8.863459   0.000000
  108        9.094793   0.000000
  109        9.213257   0.000000
  110        9.422911   0.000000
  111        9.670788   0.000000
  112        9.793657   0.000000
  113        9.896504   0.000000
  114       10.133980   0.000000
  115       10.215664   0.000000
  116       10.358516   0.000000
  117       10.414020   0.000000
  118       10.625611   0.000000
  119       10.740448   0.000000
  120       10.840414   0.000000
  121       10.948365   0.000000
  122       11.176533   0.000000
  123       11.321165   0.000000
  124       11.489972   0.000000
  125       11.707867   0.000000
  126       11.805584   0.000000
  127       12.156013   0.000000
  128       12.503227   0.000000
 
 -0.3333333E+00 -0.4000000E+00  0.4545455E+00  0.6060606E-02
    1      -11.559586   1.000000
    2      -10.949119   1.000000
    3      -10.758284   1.000000
    4      -10.649888   1.000000
    5      -10.585092   1.000000
    6      -10.334737   1.000000
    7       -9.173797   1.000000
    8       -9.106004   1.000000
    9       -8.904723   1.000000
   10       -8.691309   1.000000
   11       -8.591324   1.000000
   12       -8.123545   1.000000
   13       -7.866175   1.000000
   14       -7.131590   1.000000
   15       -6.839959   1.000000
   16       -6.098863   1.000000
   17       -5.775402   1.000000
   18       -5.684805   1.000000
   19       -5.450417   1.000000
   20       -5.268197   1.000000
   21       -5.123594   1.000000
   22       -5.008377   1.000000
   23       -4.640928   1.000000
   24       -4.454806   1.000000
   25       -3.970281   1.000000
   26       -3.583744   1.000000
   27       -3.486992   1.000000
   28       -3.174743   1.000000
   29       -3.056963   1.000000
   30       -2.990383   1.000000
   31       -2.856255   1.000000
   32       -2.745395   1.000000
   33       -2.299278   1.000000
   34       -2.217215   1.000000
   35       -2.025333   1.000000
   36       -1.936120   1.000000
   37       -1.750450   1.000000
   38       -1.603213   1.000000
   39       -1.535242   1.000000
   40       -1.267296   1.000000
   41       -1.141456   1.000000
   42       -1.062398   1.000000
   43       -0.960454   1.000000
   44       -0.858307   1.000000
   45       -0.694005   1.000000
   46       -0.616094   1.000000
   47       -0.511522   1.000000
   48       -0.400890   1.000000
   49       -0.266828   1.000000
   50       -0.202815   1.000000
   51       -0.090217   1.000000
   52        0.000866   1.000000
   53        0.152463   1.000000
   54        0.222349   1.000000
   55        0.337310   1.000000
   56        0.384565   1.000000
   57        0.615739   1.000000
   58        0.634182   1.000000
   59        0.765642   1.000000
   60        0.805657   1.000000
   61        1.057347   1.000000
   62        1.139632   1.000000
   63        1.202558   1.000000
   64        1.349149   1.000000
   65        1.463124   1.000000
   66        1.624541   1.000000
   67        1.685023   1.000000
   68        1.782826   1.000000
   69        2.011392   1.000000
   70        2.077776   1.000000
   71        2.226087   1.000000
   72        2.313727   1.000000
   73        2.422432   1.000000
   74        2.501936   1.000000
   75        2.563066   1.000000
   76        2.586836   1.000000
   77        2.691564   1.000000
   78        2.765953   1.000000
   79        2.889233   1.000000
   80        2.961535   1.000000
   81        3.005409   1.000000
   82        3.101704   1.000000
   83        3.180650   1.000000
   84        3.313443   1.000000
   85        3.407363   1.000000
   86        3.535742   1.000000
   87        3.617120   1.000000
   88        3.705915   1.000000
   89        3.873090   1.000000
   90        3.980789   1.000000
   91        4.100094   1.000000
   92        4.169937   1.000000
   93        4.266304   1.000000
   94        4.320282   1.000000
   95        4.493508   1.000000
   96        4.578667   1.000000
   97        6.643112   1.000000
   98        6.874410   0.445785
   99        6.997229   0.000000
  100        7.070541   0.000000
  101        7.229095   0.000000
  102        7.324193   0.000000
  103        7.574925   0.000000
  104        7.711086   0.000000
  105        8.129790   0.000000
  106        8.426370   0.000000
  107        8.875377   0.000000
  108        9.068951   0.000000
  109        9.157118   0.000000
  110        9.307525   0.000000
  111        9.604622   0.000000
  112        9.841309   0.000000
  113        9.981660   0.000000
  114       10.040450   0.000000
  115       10.256638   0.000000
  116       10.452280   0.000000
  117       10.492011   0.000000
  118       10.683739   0.000000
  119       10.768173   0.000000
  120       10.970668   0.000000
  121       11.120557   0.000000
  122       11.152896   0.000000
  123       11.296134   0.000000
  124       11.522841   0.000000
  125       11.752943   0.000000
  126       11.858527   0.000000
  127       12.095507   0.000000
  128       12.479945   0.000000
 
 -0.1666667E+00 -0.4000000E+00  0.4545455E+00  0.6060606E-02
    1      -11.555333   1.000000
    2      -10.929902   1.000000
    3      -10.774932   1.000000
    4      -10.672512   1.000000
    5      -10.574635   1.000000
    6      -10.334939   1.000000
    7       -9.246308   1.000000
    8       -9.141643   1.000000
    9       -8.864900   1.000000
   10       -8.607098   1.000000
   11       -8.531119   1.000000
   12       -8.145686   1.000000
   13       -7.849860   1.000000
   14       -7.179516   1.000000
   15       -6.868092   1.000000
   16       -6.084770   1.000000
   17       -5.857247   1.000000
   18       -5.699728   1.000000
   19       -5.438726   1.000000
   20       -5.295159   1.000000
   21       -5.026937   1.000000
   22       -4.942557   1.000000
   23       -4.550709   1.000000
   24       -4.391013   1.000000
   25       -4.012022   1.000000
   26       -3.713082   1.000000
   27       -3.487969   1.000000
   28       -3.300133   1.000000
   29       -3.157809   1.000000
   30       -3.032549   1.000000
   31       -2.924235   1.000000
   32       -2.817921   1.000000
   33       -2.314580   1.000000
   34       -2.275243   1.000000
   35       -1.981170   1.000000
   36       -1.897267   1.000000
   37       -1.678564   1.000000
   38       -1.541212   1.000000
   39       -1.378385   1.000000
   40       -1.257708   1.000000
   41       -1.153857   1.000000
   42       -1.009623   1.000000
   43       -0.887186   1.000000
   44       -0.762683   1.000000
   45       -0.605418   1.000000
   46       -0.583530   1.000000
   47       -0.495136   1.000000
   48       -0.367590   1.000000
   49       -0.275430   1.000000
   50       -0.182340   1.000000
   51       -0.025235   1.000000
   52        0.093439   1.000000
   53        0.160527   1.000000
   54        0.285941   1.000000
   55        0.323826   1.000000
   56        0.446914   1.000000
   57        0.526185   1.000000
   58        0.660894   1.000000
   59        0.788882   1.000000
   60        0.898497   1.000000
   61        1.023224   1.000000
   62        1.082799   1.000000
   63        1.229132   1.000000
   64        1.326762   1.000000
   65        1.384865   1.000000
   66        1.462081   1.000000
   67        1.611087   1.000000
   68        1.742954   1.000000
   69        1.948887   1.000000
   70        2.016727   1.000000
   71        2.074518   1.000000
   72        2.184977   1.000000
   73        2.276713   1.000000
   74        2.363241   1.000000
   75        2.479415   1.000000
   76        2.577509   1.000000
   77        2.655852   1.000000
   78        2.720621   1.000000
   79        2.866786   1.000000
   80        2.910656   1.000000
   81        2.969713   1.000000
   82        3.118130   1.000000
   83        3.182218   1.000000
   84        3.269724   1.000000
   85        3.423795   1.000000
   86        3.601598   1.000000
   87        3.676917   1.000000
   88        3.737389   1.000000
   89        4.064294   1.000000
   90        4.119309   1.000000
   91        4.202837   1.000000
   92        4.308384   1.000000
   93        4.336747   1.000000
   94        4.392109   1.000000
   95        4.494423   1.000000
   96        4.546365   1.000000
   97        6.575588   1.000000
   98        6.816500   0.917243
   99        6.984619  -0.000336
  100        7.141072   0.000000
  101        7.241833   0.000000
  102        7.350097   0.000000
  103        7.557840   0.000000
  104        7.668733   0.000000
  105        8.153036   0.000000
  106        8.426664   0.000000
  107        8.851546   0.000000
  108        9.041011   0.000000
  109        9.113785   0.000000
  110        9.237675   0.000000
  111        9.575378   0.000000
  112        9.850560   0.000000
  113        9.950327   0.000000
  114       10.081589   0.000000
  115       10.276931   0.000000
  116       10.421780   0.000000
  117       10.544385   0.000000
  118       10.714869   0.000000
  119       10.846306   0.000000
  120       11.116653   0.000000
  121       11.156142   0.000000
  122       11.243549   0.000000
  123       11.499561   0.000000
  124       11.696528   0.000000
  125       11.799437   0.000000
  126       11.958183   0.000000
  127       12.164059   0.000000
  128       12.423411   0.000000
 
  0.0000000E+00 -0.2000000E+00  0.4545455E+00  0.6060606E-02
    1      -11.551662   1.000000
    2      -10.903709   1.000000
    3      -10.811086   1.000000
    4      -10.671401   1.000000
    5      -10.565668   1.000000
    6      -10.355234   1.000000
    7       -9.273106   1.000000
    8       -9.046071   1.000000
    9       -8.883901   1.000000
   10       -8.633543   1.000000
   11       -8.589906   1.000000
   12       -8.125562   1.000000
   13       -7.750718   1.000000
   14       -7.161354   1.000000
   15       -6.970933   1.000000
   16       -6.063929   1.000000
   17       -5.843267   1.000000
   18       -5.652798   1.000000
   19       -5.420994   1.000000
   20       -5.309662   1.000000
   21       -5.094656   1.000000
   22       -4.975823   1.000000
   23       -4.351846   1.000000
   24       -4.236733   1.000000
   25       -4.148760   1.000000
   26       -3.963385   1.000000
   27       -3.690977   1.000000
   28       -3.520230   1.000000
   29       -3.251226   1.000000
   30       -3.143936   1.000000
   31       -2.858574   1.000000
   32       -2.502109   1.000000
   33       -2.227786   1.000000
   34       -1.981606   1.000000
   35       -1.932886   1.000000
   36       -1.802513   1.000000
   37       -1.645131   1.000000
   38       -1.543284   1.000000
   39       -1.286497   1.000000
   40       -1.191235   1.000000
   41       -1.088948   1.000000
   42       -0.912801   1.000000
   43       -0.803225   1.000000
   44       -0.729645   1.000000
   45       -0.680815   1.000000
   46       -0.563538   1.000000
   47       -0.557276   1.000000
   48       -0.390826   1.000000
   49       -0.360053   1.000000
   50       -0.228989   1.000000
   51       -0.154387   1.000000
   52        0.007731   1.000000
   53        0.166356   1.000000
   54        0.240186   1.000000
   55        0.335819   1.000000
   56        0.470865   1.000000
   57        0.575670   1.000000
   58        0.641269   1.000000
   59        0.848664   1.000000
   60        0.948461   1.000000
   61        0.978389   1.000000
   62        1.032705   1.000000
   63        1.069740   1.000000
   64        1.209317   1.000000
   65        1.281219   1.000000
   66        1.523395   1.000000
   67        1.635548   1.000000
   68        1.748243   1.000000
   69        1.777028   1.000000
   70        1.944628   1.000000
   71        1.990221   1.000000
   72        2.104168   1.000000
   73        2.237589   1.000000
   74        2.386594   1.000000
   75        2.468587   1.000000
   76        2.619034   1.000000
   77        2.686448   1.000000
   78        2.722697   1.000000
   79        2.807794   1.000000
   80        2.875339   1.000000
   81        2.942053   1.000000
   82        3.088174   1.000000
   83        3.197262   1.000000
   84        3.290563   1.000000
   85        3.358087   1.000000
   86        3.535977   1.000000
   87        3.786333   1.000000
   88        3.837518   1.000000
   89        4.039762   1.000000
   90        4.154679   1.000000
   91        4.262160   1.000000
   92        4.392106   1.000000
   93        4.476105   1.000000
   94        4.594411   1.000000
   95        4.619968   1.000000
   96        4.691856   1.000000
   97        6.499585   1.000000
   98        6.643437   1.024735
   99        6.960306  -0.071849
  100        7.161102   0.000000
  101        7.319000   0.000000
  102        7.408851   0.000000
  103        7.658366   0.000000
  104        7.718824   0.000000
  105        8.087334   0.000000
  106        8.317023   0.000000
  107        8.706391   0.000000
  108        8.878617   0.000000
  109        8.996209   0.000000
  110        9.260768   0.000000
  111        9.368323   0.000000
  112        9.981206   0.000000
  113       10.019674   0.000000
  114       10.228321   0.000000
  115       10.317005   0.000000
  116       10.369814   0.000000
  117       10.607002   0.000000
  118       10.838086   0.000000
  119       10.889376   0.000000
  120       11.129718   0.000000
  121       11.222644   0.000000
  122       11.515102   0.000000
  123       11.626927   0.000000
  124       11.684831   0.000000
  125       11.831861   0.000000
  126       12.057100   0.000000
  127       12.099464   0.000000
  128       12.271530   0.000000
 
  0.1666667E+00 -0.2000000E+00  0.4545455E+00  0.6060606E-02
    1      -11.554234   1.000000
    2      -10.911238   1.000000
    3      -10.801499   1.000000
    4      -10.667520   1.000000
    5      -10.570042   1.000000
    6      -10.349606   1.000000
    7       -9.309892   1.000000
    8       -9.063769   1.000000
    9       -8.848886   1.000000
   10       -8.553423   1.000000
   11       -8.509048   1.000000
   12       -8.225522   1.000000
   13       -7.845055   1.000000
   14       -7.163018   1.000000
   15       -6.962831   1.000000
   16       -6.054734   1.000000
   17       -5.762326   1.000000
   18       -5.611069   1.000000
   19       -5.478086   1.000000
   20       -5.391407   1.000000
   21       -5.223441   1.000000
   22       -5.053228   1.000000
   23       -4.392414   1.000000
   24       -4.286060   1.000000
   25       -4.022140   1.000000
   26       -3.784596   1.000000
   27       -3.450956   1.000000
   28       -3.228573   1.000000
   29       -3.068392   1.000000
   30       -2.984996   1.000000
   31       -2.766210   1.000000
   32       -2.528412   1.000000
   33       -2.311002   1.000000
   34       -2.158795   1.000000
   35       -2.058649   1.000000
   36       -1.904957   1.000000
   37       -1.817811   1.000000
   38       -1.728121   1.000000
   39       -1.659238   1.000000
   40       -1.366604   1.000000
   41       -1.264793   1.000000
   42       -1.083792   1.000000
   43       -0.968220   1.000000
   44       -0.906563   1.000000
   45       -0.716440   1.000000
   46       -0.634569   1.000000
   47       -0.493300   1.000000
   48       -0.376626   1.000000
   49       -0.325112   1.000000
   50       -0.262696   1.000000
   51       -0.029006   1.000000
   52        0.099725   1.000000
   53        0.247800   1.000000
   54        0.421476   1.000000
   55        0.484920   1.000000
   56        0.652270   1.000000
   57        0.721403   1.000000
   58        0.758746   1.000000
   59        0.873929   1.000000
   60        0.996609   1.000000
   61        1.048814   1.000000
   62        1.151572   1.000000
   63        1.227028   1.000000
   64        1.305640   1.000000
   65        1.440291   1.000000
   66        1.500350   1.000000
   67        1.632049   1.000000
   68        1.743073   1.000000
   69        1.841787   1.000000
   70        1.941151   1.000000
   71        2.034677   1.000000
   72        2.123657   1.000000
   73        2.251040   1.000000
   74        2.404537   1.000000
   75        2.473598   1.000000
   76        2.566567   1.000000
   77        2.645586   1.000000
   78        2.686077   1.000000
   79        2.750441   1.000000
   80        2.898714   1.000000
   81        2.964875   1.000000
   82        3.063146   1.000000
   83        3.192028   1.000000
   84        3.329652   1.000000
   85        3.474577   1.000000
   86        3.509968   1.000000
   87        3.736482   1.000000
   88        3.808123   1.000000
   89        3.878634   1.000000
   90        3.998577   1.000000
   91        4.165978   1.000000
   92        4.227109   1.000000
   93        4.388934   1.000000
   94        4.531302   1.000000
   95        4.593670   1.000000
   96        4.674133   1.000000
   97        6.542081   1.000000
   98        6.719986   1.034874
   99        7.054964   0.000000
  100        7.177234   0.000000
  101        7.250345   0.000000
  102        7.403389   0.000000
  103        7.559758   0.000000
  104        7.642767   0.000000
  105        8.075443   0.000000
  106        8.397626   0.000000
  107        8.776887   0.000000
  108        8.821932   0.000000
  109        9.161373   0.000000
  110        9.382148   0.000000
  111        9.511277   0.000000
  112        9.884930   0.000000
  113        9.939129   0.000000
  114       10.144718   0.000000
  115       10.179802   0.000000
  116       10.343024   0.000000
  117       10.533180   0.000000
  118       10.808608   0.000000
  119       10.878911   0.000000
  120       11.070645   0.000000
  121       11.162333   0.000000
  122       11.412923   0.000000
  123       11.625939   0.000000
  124       11.658584   0.000000
  125       11.798550   0.000000
  126       11.984454   0.000000
  127       12.281481   0.000000
  128       12.349353   0.000000
 
  0.3333333E+00 -0.2000000E+00  0.4545455E+00  0.6060606E-02
    1      -11.557531   1.000000
    2      -10.925571   1.000000
    3      -10.786145   1.000000
    4      -10.667327   1.000000
    5      -10.570007   1.000000
    6      -10.340320   1.000000
    7       -9.312231   1.000000
    8       -9.043212   1.000000
    9       -8.862353   1.000000
   10       -8.502465   1.000000
   11       -8.472449   1.000000
   12       -8.309939   1.000000
   13       -7.922694   1.000000
   14       -7.136015   1.000000
   15       -6.939558   1.000000
   16       -6.054125   1.000000
   17       -5.671425   1.000000
   18       -5.630255   1.000000
   19       -5.500534   1.000000
   20       -5.437884   1.000000
   21       -5.259395   1.000000
   22       -5.165949   1.000000
   23       -4.466936   1.000000
   24       -4.384504   1.000000
   25       -3.851719   1.000000
   26       -3.543092   1.000000
   27       -3.142539   1.000000
   28       -3.013882   1.000000
   29       -2.946243   1.000000
   30       -2.823798   1.000000
   31       -2.696832   1.000000
   32       -2.544656   1.000000
   33       -2.456691   1.000000
   34       -2.352757   1.000000
   35       -2.194479   1.000000
   36       -2.050952   1.000000
   37       -1.938628   1.000000
   38       -1.845192   1.000000
   39       -1.698233   1.000000
   40       -1.520065   1.000000
   41       -1.386355   1.000000
   42       -1.227234   1.000000
   43       -1.091626   1.000000
   44       -1.011322   1.000000
   45       -0.728245   1.000000
   46       -0.694933   1.000000
   47       -0.569369   1.000000
   48       -0.384053   1.000000
   49       -0.330568   1.000000
   50       -0.259313   1.000000
   51       -0.088138   1.000000
   52        0.045749   1.000000
   53        0.351148   1.000000
   54        0.506136   1.000000
   55        0.584905   1.000000
   56        0.622474   1.000000
   57        0.783267   1.000000
   58        0.877694   1.000000
   59        0.943011   1.000000
   60        0.992911   1.000000
   61        1.081625   1.000000
   62        1.189157   1.000000
   63        1.296616   1.000000
   64        1.353884   1.000000
   65        1.505022   1.000000
   66        1.600508   1.000000
   67        1.662573   1.000000
   68        1.806820   1.000000
   69        1.924528   1.000000
   70        2.049678   1.000000
   71        2.165083   1.000000
   72        2.266371   1.000000
   73        2.343957   1.000000
   74        2.410625   1.000000
   75        2.554542   1.000000
   76        2.627342   1.000000
   77        2.665914   1.000000
   78        2.712254   1.000000
   79        2.763748   1.000000
   80        2.818113   1.000000
   81        2.998133   1.000000
   82        3.110890   1.000000
   83        3.273957   1.000000
   84        3.359484   1.000000
   85        3.452633   1.000000
   86        3.505581   1.000000
   87        3.623373   1.000000
   88        3.689117   1.000000
   89        3.746979   1.000000
   90        3.798700   1.000000
   91        4.022891   1.000000
   92        4.074373   1.000000
   93        4.290856   1.000000
   94        4.455203   1.000000
   95        4.562278   1.000000
   96        4.626032   1.000000
   97        6.618023   1.000000
   98        6.853650   0.738628
   99        7.036067   0.000000
  100        7.112331   0.000000
  101        7.228966   0.000000
  102        7.320865   0.000000
  103        7.484062   0.000000
  104        7.660547   0.000000
  105        8.064919   0.000000
  106        8.524613   0.000000
  107        8.785407   0.000000
  108        8.908566   0.000000
  109        9.374272   0.000000
  110        9.488127   0.000000
  111        9.705944   0.000000
  112        9.831666   0.000000
  113        9.857030   0.000000
  114       10.024607   0.000000
  115       10.087171   0.000000
  116       10.266985   0.000000
  117       10.444900   0.000000
  118       10.692929   0.000000
  119       10.875802   0.000000
  120       10.941934   0.000000
  121       11.136442   0.000000
  122       11.301019   0.000000
  123       11.513627   0.000000
  124       11.553995   0.000000
  125       11.682725   0.000000
  126       11.984859   0.000000
  127       12.219636   0.000000
  128       12.429362   0.000000
 
  0.5000000E+00 -0.2000000E+00  0.4545455E+00  0.6060606E-02
    1      -11.558301   1.000000
    2      -10.932485   1.000000
    3      -10.781056   1.000000
    4      -10.667710   1.000000
    5      -10.568755   1.000000
    6      -10.336279   1.000000
    7       -9.279277   1.000000
    8       -8.985756   1.000000
    9       -8.913310   1.000000
   10       -8.622290   1.000000
   11       -8.510555   1.000000
   12       -8.243382   1.000000
   13       -7.891558   1.000000
   14       -7.108124   1.000000
   15       -6.920585   1.000000
   16       -6.059063   1.000000
   17       -5.687169   1.000000
   18       -5.617108   1.000000
   19       -5.518215   1.000000
   20       -5.433812   1.000000
   21       -5.254360   1.000000
   22       -5.135150   1.000000
   23       -4.498972   1.000000
   24       -4.395552   1.000000
   25       -3.879613   1.000000
   26       -3.519881   1.000000
   27       -3.278890   1.000000
   28       -3.052732   1.000000
   29       -2.993142   1.000000
   30       -2.777558   1.000000
   31       -2.711344   1.000000
   32       -2.566948   1.000000
   33       -2.435457   1.000000
   34       -2.332283   1.000000
   35       -2.101092   1.000000
   36       -2.018179   1.000000
   37       -1.893879   1.000000
   38       -1.716694   1.000000
   39       -1.600238   1.000000
   40       -1.460177   1.000000
   41       -1.367738   1.000000
   42       -1.328874   1.000000
   43       -1.092277   1.000000
   44       -0.973541   1.000000
   45       -0.778231   1.000000
   46       -0.639578   1.000000
   47       -0.520625   1.000000
   48       -0.389318   1.000000
   49       -0.290428   1.000000
   50       -0.210703   1.000000
   51       -0.115582   1.000000
   52       -0.040895   1.000000
   53        0.244850   1.000000
   54        0.362484   1.000000
   55        0.544539   1.000000
   56        0.623688   1.000000
   57        0.672199   1.000000
   58        0.747623   1.000000
   59        0.835787   1.000000
   60        0.972225   1.000000
   61        1.009637   1.000000
   62        1.120798   1.000000
   63        1.234875   1.000000
   64        1.317963   1.000000
   65        1.481702   1.000000
   66        1.662645   1.000000
   67        1.762986   1.000000
   68        1.881358   1.000000
   69        2.007994   1.000000
   70        2.085552   1.000000
   71        2.167252   1.000000
   72        2.366655   1.000000
   73        2.419199   1.000000
   74        2.547098   1.000000
   75        2.589903   1.000000
   76        2.630929   1.000000
   77        2.705886   1.000000
   78        2.762739   1.000000
   79        2.900733   1.000000
   80        2.979390   1.000000
   81        3.004075   1.000000
   82        3.131641   1.000000
   83        3.174238   1.000000
   84        3.316788   1.000000
   85        3.429188   1.000000
   86        3.450898   1.000000
   87        3.533332   1.000000
   88        3.625499   1.000000
   89        3.712056   1.000000
   90        3.859622   1.000000
   91        3.920083   1.000000
   92        4.144033   1.000000
   93        4.255874   1.000000
   94        4.460529   1.000000
   95        4.554898   1.000000
   96        4.606928   1.000000
   97        6.709904   1.000000
   98        6.834263   0.995981
   99        6.962805   0.000000
  100        7.054396   0.000000
  101        7.157131   0.000000
  102        7.303190   0.000000
  103        7.583889   0.000000
  104        7.688052   0.000000
  105        8.085966   0.000000
  106        8.529184   0.000000
  107        8.858990   0.000000
  108        8.923764   0.000000
  109        9.326065   0.000000
  110        9.465985   0.000000
  111        9.675536   0.000000
  112        9.796399   0.000000
  113        9.952306   0.000000
  114       10.130829   0.000000
  115       10.166965   0.000000
  116       10.360063   0.000000
  117       10.411802   0.000000
  118       10.594046   0.000000
  119       10.715189   0.000000
  120       10.903671   0.000000
  121       11.116480   0.000000
  122       11.334699   0.000000
  123       11.413085   0.000000
  124       11.531857   0.000000
  125       11.605222   0.000000
  126       11.931000   0.000000
  127       12.177855   0.000000
  128       12.333727   0.000000
 
 -0.3333333E+00 -0.2000000E+00  0.4545455E+00  0.6060606E-02
    1      -11.555796   1.000000
    2      -10.926164   1.000000
    3      -10.791891   1.000000
    4      -10.666933   1.000000
    5      -10.566637   1.000000
    6      -10.342150   1.000000
    7       -9.226695   1.000000
    8       -9.000001   1.000000
    9       -8.897937   1.000000
   10       -8.745557   1.000000
   11       -8.581977   1.000000
   12       -8.144630   1.000000
   13       -7.802088   1.000000
   14       -7.101133   1.000000
   15       -6.931717   1.000000
   16       -6.062579   1.000000
   17       -5.758748   1.000000
   18       -5.652029   1.000000
   19       -5.474423   1.000000
   20       -5.386740   1.000000
   21       -5.169953   1.000000
   22       -5.032333   1.000000
   23       -4.456703   1.000000
   24       -4.302299   1.000000
   25       -4.072101   1.000000
   26       -3.739461   1.000000
   27       -3.564404   1.000000
   28       -3.401470   1.000000
   29       -3.187011   1.000000
   30       -2.873293   1.000000
   31       -2.803760   1.000000
   32       -2.516256   1.000000
   33       -2.216669   1.000000
   34       -2.103060   1.000000
   35       -2.011236   1.000000
   36       -1.842727   1.000000
   37       -1.686312   1.000000
   38       -1.589474   1.000000
   39       -1.464513   1.000000
   40       -1.318745   1.000000
   41       -1.246254   1.000000
   42       -1.090411   1.000000
   43       -0.965274   1.000000
   44       -0.853321   1.000000
   45       -0.715310   1.000000
   46       -0.519310   1.000000
   47       -0.439158   1.000000
   48       -0.302488   1.000000
   49       -0.262157   1.000000
   50       -0.204963   1.000000
   51       -0.137222   1.000000
   52       -0.052124   1.000000
   53        0.052418   1.000000
   54        0.190315   1.000000
   55        0.270227   1.000000
   56        0.400012   1.000000
   57        0.543218   1.000000
   58        0.620047   1.000000
   59        0.747129   1.000000
   60        0.828096   1.000000
   61        0.928312   1.000000
   62        1.021887   1.000000
   63        1.118691   1.000000
   64        1.292470   1.000000
   65        1.497232   1.000000
   66        1.598706   1.000000
   67        1.808664   1.000000
   68        1.860558   1.000000
   69        1.954923   1.000000
   70        2.069440   1.000000
   71        2.147235   1.000000
   72        2.331228   1.000000
   73        2.427959   1.000000
   74        2.547218   1.000000
   75        2.579076   1.000000
   76        2.627609   1.000000
   77        2.705775   1.000000
   78        2.764341   1.000000
   79        2.839354   1.000000
   80        2.934516   1.000000
   81        3.013682   1.000000
   82        3.103632   1.000000
   83        3.174637   1.000000
   84        3.291593   1.000000
   85        3.336114   1.000000
   86        3.480989   1.000000
   87        3.661958   1.000000
   88        3.692724   1.000000
   89        3.848903   1.000000
   90        3.953977   1.000000
   91        4.131982   1.000000
   92        4.243563   1.000000
   93        4.387068   1.000000
   94        4.534822   1.000000
   95        4.592866   1.000000
   96        4.634483   1.000000
   97        6.554976   1.000000
   98        6.891978   0.419959
   99        6.941059   0.000000
  100        7.072234   0.000000
  101        7.106361   0.000000
  102        7.335210   0.000000
  103        7.636421   0.000000
  104        7.751043   0.000000
  105        8.110603   0.000000
  106        8.415468   0.000000
  107        8.815421   0.000000
  108        8.939416   0.000000
  109        9.150132   0.000000
  110        9.353256   0.000000
  111        9.473136   0.000000
  112        9.927828   0.000000
  113       10.031853   0.000000
  114       10.229858   0.000000
  115       10.291174   0.000000
  116       10.354692   0.000000
  117       10.543336   0.000000
  118       10.719119   0.000000
  119       10.812117   0.000000
  120       10.902420   0.000000
  121       11.183706   0.000000
  122       11.322455   0.000000
  123       11.431351   0.000000
  124       11.540941   0.000000
  125       11.619707   0.000000
  126       11.959386   0.000000
  127       12.195044   0.000000
  128       12.213111   0.000000
 
 -0.1666667E+00 -0.2000000E+00  0.4545455E+00  0.6060606E-02
    1      -11.552456   1.000000
    2      -10.911870   1.000000
    3      -10.806395   1.000000
    4      -10.670404   1.000000
    5      -10.563542   1.000000
    6      -10.351862   1.000000
    7       -9.221113   1.000000
    8       -9.029661   1.000000
    9       -8.902137   1.000000
   10       -8.730377   1.000000
   11       -8.611141   1.000000
   12       -8.095419   1.000000
   13       -7.736074   1.000000
   14       -7.126073   1.000000
   15       -6.959443   1.000000
   16       -6.067043   1.000000
   17       -5.839094   1.000000
   18       -5.680122   1.000000
   19       -5.405127   1.000000
   20       -5.308874   1.000000
   21       -5.050478   1.000000
   22       -4.985242   1.000000
   23       -4.388572   1.000000
   24       -4.245925   1.000000
   25       -4.166962   1.000000
   26       -3.928126   1.000000
   27       -3.737365   1.000000
   28       -3.630819   1.000000
   29       -3.235452   1.000000
   30       -3.161554   1.000000
   31       -2.865327   1.000000
   32       -2.491958   1.000000
   33       -2.180512   1.000000
   34       -1.975804   1.000000
   35       -1.867999   1.000000
   36       -1.749677   1.000000
   37       -1.617582   1.000000
   38       -1.455605   1.000000
   39       -1.242528   1.000000
   40       -1.102372   1.000000
   41       -1.088680   1.000000
   42       -0.936322   1.000000
   43       -0.779281   1.000000
   44       -0.742738   1.000000
   45       -0.633602   1.000000
   46       -0.547434   1.000000
   47       -0.480507   1.000000
   48       -0.372419   1.000000
   49       -0.296270   1.000000
   50       -0.201410   1.000000
   51       -0.147123   1.000000
   52       -0.097954   1.000000
   53        0.024501   1.000000
   54        0.151887   1.000000
   55        0.246120   1.000000
   56        0.329188   1.000000
   57        0.382851   1.000000
   58        0.495858   1.000000
   59        0.691871   1.000000
   60        0.905743   1.000000
   61        0.931448   1.000000
   62        1.015661   1.000000
   63        1.090623   1.000000
   64        1.237043   1.000000
   65        1.381160   1.000000
   66        1.510768   1.000000
   67        1.688499   1.000000
   68        1.791405   1.000000
   69        1.863057   1.000000
   70        2.038240   1.000000
   71        2.094657   1.000000
   72        2.161480   1.000000
   73        2.339588   1.000000
   74        2.427715   1.000000
   75        2.501916   1.000000
   76        2.637709   1.000000
   77        2.692859   1.000000
   78        2.718736   1.000000
   79        2.848178   1.000000
   80        2.885517   1.000000
   81        2.998541   1.000000
   82        3.105062   1.000000
   83        3.165411   1.000000
   84        3.225247   1.000000
   85        3.370571   1.000000
   86        3.525662   1.000000
   87        3.748100   1.000000
   88        3.800654   1.000000
   89        4.049080   1.000000
   90        4.115353   1.000000
   91        4.242709   1.000000
   92        4.368524   1.000000
   93        4.509074   1.000000
   94        4.594015   1.000000
   95        4.625906   1.000000
   96        4.673530   1.000000
   97        6.481843   1.000000
   98        6.727819   1.080628
   99        6.914642  -0.034801
  100        7.131531   0.000000
  101        7.259123   0.000000
  102        7.375775   0.000000
  103        7.646287   0.000000
  104        7.791129   0.000000
  105        8.095936   0.000000
  106        8.333022   0.000000
  107        8.716368   0.000000
  108        8.941729   0.000000
  109        9.004997   0.000000
  110        9.243322   0.000000
  111        9.360434   0.000000
  112       10.007359   0.000000
  113       10.106091   0.000000
  114       10.197577   0.000000
  115       10.324278   0.000000
  116       10.417384   0.000000
  117       10.615904   0.000000
  118       10.802797   0.000000
  119       10.866544   0.000000
  120       11.096693   0.000000
  121       11.189637   0.000000
  122       11.459948   0.000000
  123       11.523244   0.000000
  124       11.624250   0.000000
  125       11.775439   0.000000
  126       11.945568   0.000000
  127       12.093196   0.000000
  128       12.262622   0.000000
