       N       E                     dE             d eps       ncg     rms          rms(c)
DAV:   1     0.355186472452E+03    0.35519E+03   -0.83900E+04 42496   0.115E+03
DAV:   2    -0.440217252934E+03   -0.79540E+03   -0.79186E+03 60416   0.214E+02
DAV:   3    -0.457992658000E+03   -0.17775E+02   -0.17733E+02 63104   0.376E+01
DAV:   4    -0.458127730239E+03   -0.13507E+00   -0.13502E+00 61184   0.319E+00
DAV:   5    -0.458130280472E+03   -0.25502E-02   -0.25501E-02 63360   0.407E-01    0.275E+01
DAV:   6    -0.437473542761E+03    0.20657E+02   -0.38952E+01 64512   0.144E+01    0.151E+01
DAV:   7    -0.433879512444E+03    0.35940E+01   -0.24286E+01 63744   0.960E+00    0.851E+00
DAV:   8    -0.432942867278E+03    0.93665E+00   -0.12712E+01 63744   0.580E+00    0.504E+00
DAV:   9    -0.432804878322E+03    0.13799E+00   -0.40231E+00 62464   0.302E+00    0.277E+00
DAV:  10    -0.432722789303E+03    0.82089E-01   -0.14575E+00 63168   0.170E+00    0.152E+00
DAV:  11    -0.432710785096E+03    0.12004E-01   -0.36291E-01 63552   0.108E+00    0.559E-01
DAV:  12    -0.432710472973E+03    0.31212E-03   -0.82153E-02 63616   0.480E-01    0.406E-01
DAV:  13    -0.432709138652E+03    0.13343E-02   -0.30565E-02 63936   0.261E-01    0.194E-01
DAV:  14    -0.432709448255E+03   -0.30960E-03   -0.59882E-03 63744   0.138E-01    0.716E-02
DAV:  15    -0.432709518258E+03   -0.70003E-04   -0.94139E-04 63552   0.569E-02    0.363E-02
DAV:  16    -0.432709565253E+03   -0.46994E-04   -0.19625E-04 64128   0.268E-02    0.128E-02
DAV:  17    -0.432709573292E+03   -0.80388E-05   -0.22259E-05 63744   0.119E-02    0.605E-03
DAV:  18    -0.432709566597E+03    0.66944E-05   -0.87078E-06 63936   0.534E-03    0.382E-03
DAV:  19    -0.432709570545E+03   -0.39473E-05   -0.28373E-06 63744   0.258E-03    0.118E-03
DAV:  20    -0.432709569455E+03    0.10901E-05   -0.26545E-07 63744   0.969E-04    0.348E-04
DAV:  21    -0.432709569690E+03   -0.23520E-06   -0.19564E-08 60544   0.345E-04    0.153E-04
DAV:  22    -0.432709569752E+03   -0.62555E-07   -0.26494E-09 53056   0.130E-04    0.119E-04
DAV:  23    -0.432709569730E+03    0.22261E-07   -0.69235E-10 52224   0.555E-05    0.971E-05
DAV:  24    -0.432709569725E+03    0.47985E-08   -0.81050E-11 52032   0.234E-05
   1 F= -.43270957E+03 E0= -.43270957E+03  d E =0.000000E+00
       N       E                     dE             d eps       ncg     rms          rms(c)
DAV:   1    -0.432709569730E+03   -0.27649E-09   -0.18138E-11 51392   0.872E-06    0.950E-05
DAV:   2    -0.432709569729E+03    0.17662E-08   -0.32574E-12 50752   0.324E-06    0.950E-05
DAV:   3    -0.432709569730E+03   -0.10714E-08   -0.34216E-12 49088   0.154E-06    0.950E-05
DAV:   4    -0.432709569729E+03    0.13824E-09   -0.33278E-12 47936   0.106E-06    0.950E-05
DAV:   5    -0.432709569730E+03   -0.76398E-09    0.52538E-12 45888   0.663E-07    0.950E-05
DAV:   6    -0.432709569729E+03    0.11860E-08   -0.30553E-12 44736   0.366E-07
   2 F= -.43270957E+03 E0= -.43270957E+03  d E =0.000000E+00
       N       E                     dE             d eps       ncg     rms          rms(c)
DAV:   1    -0.432709569730E+03    0.25466E-10    0.81161E-13 43264   0.163E-07    0.950E-05
DAV:   2    -0.432709569729E+03    0.76398E-09   -0.55301E-12 41920   0.146E-07    0.950E-05
DAV:   3    -0.432709569730E+03   -0.63119E-09   -0.54408E-12 41088   0.109E-07    0.950E-05
DAV:   4    -0.432709569730E+03    0.45293E-09   -0.17015E-12 36800   0.382E-08    0.950E-05
DAV:   5    -0.432709569729E+03    0.24011E-09   -0.21154E-12 37376   0.229E-08    0.950E-05
DAV:   6    -0.432709569729E+03    0.22010E-09   -0.22110E-12 37248   0.104E-08
   3 F= -.43270957E+03 E0= -.43270957E+03  d E =0.000000E+00
       N       E                     dE             d eps       ncg     rms          rms(c)
DAV:   1    -0.432709569729E+03    0.15825E-09    0.45576E-13 36736   0.557E-09    0.950E-05
DAV:   2    -0.432709569729E+03    0.96406E-10   -0.13691E-12 36096   0.415E-09    0.950E-05
DAV:   3    -0.432709569730E+03   -0.91677E-09   -0.22263E-12 35072   0.309E-09    0.950E-05
DAV:   4    -0.432709569730E+03    0.47839E-09   -0.18972E-12 32896   0.199E-09    0.950E-05
DAV:   5    -0.432709569729E+03    0.12551E-09   -0.86340E-13 32896   0.936E-10    0.950E-05
DAV:   6    -0.432709569729E+03    0.14916E-09    0.20341E-12 31744   0.469E-10
   4 F= -.43270957E+03 E0= -.43270957E+03  d E =0.000000E+00
       N       E                     dE             d eps       ncg     rms          rms(c)
DAV:   1    -0.432709569730E+03   -0.59663E-09   -0.11108E-12 31872   0.319E-10    0.950E-05
DAV:   2    -0.432709569729E+03    0.54570E-09   -0.11777E-12 31360   0.421E-10    0.950E-05
DAV:   3    -0.432709569730E+03   -0.10186E-09   -0.57894E-12 30400   0.348E-10    0.950E-05
DAV:   4    -0.432709569730E+03   -0.50022E-09    0.21855E-12 28928   0.250E-10    0.950E-05
DAV:   5    -0.432709569730E+03    0.47476E-09   -0.11461E-12 29120   0.221E-10    0.950E-05
DAV:   6    -0.432709569729E+03    0.18917E-09   -0.34526E-12 27968   0.218E-10
   5 F= -.43270957E+03 E0= -.43270957E+03  d E =0.000000E+00
       N       E                     dE             d eps       ncg     rms          rms(c)
DAV:   1    -0.432709569730E+03    0.12733E-10    0.17225E-12 27520   0.130E-10    0.950E-05
DAV:   2    -0.432709569730E+03   -0.43838E-09   -0.58219E-13 27072   0.212E-10    0.950E-05
DAV:   3    -0.432709569729E+03    0.10077E-08   -0.61588E-12 26752   0.191E-10    0.950E-05
DAV:   4    -0.432709569730E+03   -0.99681E-09   -0.18414E-12 26496   0.135E-10    0.950E-05
DAV:   5    -0.432709569729E+03    0.81491E-09   -0.17961E-12 26496   0.248E-10    0.950E-05
DAV:   6    -0.432709569730E+03   -0.90404E-09   -0.23752E-12 26304   0.302E-10
   6 F= -.43270957E+03 E0= -.43270957E+03  d E =0.000000E+00
       N       E                     dE             d eps       ncg     rms          rms(c)
DAV:   1    -0.432709569730E+03   -0.48749E-09   -0.74176E-12 25984   0.139E-10    0.950E-05
DAV:   2    -0.432709569730E+03    0.61846E-10   -0.40940E-12 25792   0.211E-10    0.950E-05
DAV:   3    -0.432709569729E+03    0.44020E-09   -0.48262E-12 25664   0.218E-10    0.950E-05
DAV:   4    -0.432709569730E+03   -0.69122E-09   -0.32255E-12 25600   0.167E-10    0.950E-05
DAV:   5    -0.432709569729E+03    0.55661E-09   -0.71455E-12 25216   0.213E-10    0.950E-05
DAV:   6    -0.432709569729E+03    0.22374E-09   -0.38725E-12 24960   0.143E-10
   7 F= -.43270957E+03 E0= -.43270957E+03  d E =0.000000E+00
       N       E                     dE             d eps       ncg     rms          rms(c)
DAV:   1    -0.432709569730E+03   -0.91677E-09   -0.49459E-12 24896   0.205E-10    0.950E-05
DAV:   2    -0.432709569729E+03    0.92768E-09   -0.72525E-12 24768   0.253E-10    0.950E-05
DAV:   3    -0.432709569730E+03   -0.83674E-09   -0.10070E-12 24704   0.255E-10    0.950E-05
DAV:   4    -0.432709569729E+03    0.70941E-09   -0.43748E-12 24576   0.267E-10    0.950E-05
DAV:   5    -0.432709569730E+03   -0.14552E-09   -0.14940E-12 24256   0.182E-10    0.950E-05
DAV:   6    -0.432709569730E+03   -0.62209E-09   -0.45088E-12 24128   0.163E-10
   8 F= -.43270957E+03 E0= -.43270957E+03  d E =0.000000E+00
       N       E                     dE             d eps       ncg     rms          rms(c)
DAV:   1    -0.432709569729E+03    0.23283E-09   -0.10883E-12 24128   0.187E-10    0.950E-05
DAV:   2    -0.432709569729E+03   -0.50932E-10   -0.14315E-12 24128   0.147E-10    0.950E-05
DAV:   3    -0.432709569730E+03   -0.37653E-09   -0.52759E-12 24128   0.160E-10    0.950E-05
DAV:   4    -0.432709569729E+03    0.32196E-09   -0.72002E-12 24000   0.196E-10    0.950E-05
DAV:   5    -0.432709569729E+03    0.16735E-09   -0.58801E-12 23808   0.121E-10    0.950E-05
DAV:   6    -0.432709569730E+03   -0.41837E-09   -0.75458E-12 23744   0.212E-10
   9 F= -.43270957E+03 E0= -.43270957E+03  d E =0.000000E+00
       N       E                     dE             d eps       ncg     rms          rms(c)
DAV:   1    -0.432709569729E+03   -0.17462E-09   -0.31883E-12 23744   0.219E-10    0.950E-05
DAV:   2    -0.432709569730E+03   -0.32014E-09   -0.30631E-12 23744   0.237E-10    0.950E-05
DAV:   3    -0.432709569730E+03   -0.12005E-09   -0.17747E-12 23744   0.209E-10    0.950E-05
DAV:   4    -0.432709569729E+03    0.56025E-09   -0.18994E-13 23680   0.257E-10    0.950E-05
DAV:   5    -0.432709569729E+03    0.20191E-09   -0.21568E-12 23424   0.206E-10    0.950E-05
DAV:   6    -0.432709569730E+03   -0.60209E-09   -0.48796E-12 23360   0.264E-10
  10 F= -.43270957E+03 E0= -.43270957E+03  d E =0.000000E+00
       N       E                     dE             d eps       ncg     rms          rms(c)
DAV:   1    -0.432709569729E+03   -0.12187E-09   -0.42421E-12 23104   0.215E-10    0.950E-05
DAV:   2    -0.432709569730E+03   -0.32014E-09   -0.12268E-12 22976   0.397E-10    0.950E-05
DAV:   3    -0.432709569730E+03   -0.11460E-09   -0.25276E-12 22976   0.358E-10    0.950E-05
DAV:   4    -0.432709569729E+03    0.45111E-09   -0.17294E-12 22976   0.117E-10    0.950E-05
DAV:   5    -0.432709569730E+03   -0.88039E-09   -0.20782E-12 22976   0.125E-10    0.950E-05
DAV:   6    -0.432709569730E+03    0.59117E-09   -0.11004E-12 22976   0.147E-10
  11 F= -.43270957E+03 E0= -.43270957E+03  d E =0.000000E+00
       N       E                     dE             d eps       ncg     rms          rms(c)
DAV:   1    -0.432709569730E+03    0.17099E-09   -0.38599E-12 22976   0.188E-10    0.950E-05
DAV:   2    -0.432709569730E+03    0.37653E-09   -0.60376E-12 22976   0.220E-10    0.950E-05
DAV:   3    -0.432709569729E+03    0.27285E-09   -0.12669E-12 22976   0.211E-10    0.950E-05
DAV:   4    -0.432709569729E+03    0.15643E-09   -0.45106E-12 22976   0.187E-10    0.950E-05
DAV:   5    -0.432709569729E+03   -0.33106E-09   -0.37187E-12 22976   0.207E-10    0.950E-05
DAV:   6    -0.432709569729E+03    0.10914E-10   -0.64898E-12 22976   0.174E-10
  12 F= -.43270957E+03 E0= -.43270957E+03  d E =0.000000E+00
       N       E                     dE             d eps       ncg     rms          rms(c)
DAV:   1    -0.432709569730E+03   -0.49477E-09   -0.47921E-12 22976   0.155E-10    0.950E-05
DAV:   2    -0.432709569729E+03    0.89130E-09   -0.49214E-12 22976   0.263E-10    0.950E-05
DAV:   3    -0.432709569730E+03   -0.85674E-09    0.12127E-12 22976   0.224E-10    0.950E-05
DAV:   4    -0.432709569729E+03    0.76579E-09   -0.59211E-12 22848   0.268E-10    0.950E-05
DAV:   5    -0.432709569729E+03   -0.14916E-09   -0.37665E-12 22784   0.287E-10    0.950E-05
DAV:   6    -0.432709569729E+03    0.20373E-09    0.72426E-13 22784   0.213E-10
  13 F= -.43270957E+03 E0= -.43270957E+03  d E =0.000000E+00
       N       E                     dE             d eps       ncg     rms          rms(c)
DAV:   1    -0.432709569730E+03   -0.35106E-09   -0.14163E-12 22784   0.175E-10    0.950E-05
DAV:   2    -0.432709569730E+03   -0.31469E-09   -0.52149E-14 22784   0.276E-10    0.950E-05
DAV:   3    -0.432709569729E+03    0.64756E-09   -0.36581E-12 22784   0.299E-10    0.950E-05
DAV:   4    -0.432709569729E+03   -0.90949E-10   -0.41436E-12 22784   0.286E-10    0.950E-05
DAV:   5    -0.432709569729E+03    0.85493E-10   -0.18590E-12 22784   0.127E-10    0.950E-05
DAV:   6    -0.432709569729E+03    0.63665E-10   -0.54040E-12 22784   0.287E-10
  14 F= -.43270957E+03 E0= -.43270957E+03  d E =0.000000E+00
       N       E                     dE             d eps       ncg     rms          rms(c)
DAV:   1    -0.432709569729E+03   -0.18190E-11   -0.34719E-12 22784   0.174E-10    0.950E-05
DAV:   2    -0.432709569730E+03   -0.62209E-09   -0.69768E-12 22784   0.202E-10    0.950E-05
DAV:   3    -0.432709569730E+03    0.10914E-10   -0.18630E-12 22784   0.251E-10    0.950E-05
DAV:   4    -0.432709569729E+03    0.81309E-09   -0.10760E-11 22720   0.278E-10    0.950E-05
DAV:   5    -0.432709569730E+03   -0.68576E-09   -0.43608E-12 22592   0.153E-10    0.950E-05
DAV:   6    -0.432709569730E+03   -0.23647E-09   -0.37182E-12 22592   0.242E-10
  15 F= -.43270957E+03 E0= -.43270957E+03  d E =0.000000E+00
       N       E                     dE             d eps       ncg     rms          rms(c)
DAV:   1    -0.432709569730E+03   -0.69122E-10   -0.41289E-12 22464   0.184E-10    0.950E-05
DAV:   2    -0.432709569730E+03   -0.34197E-09   -0.49678E-12 22400   0.226E-10    0.950E-05
DAV:   3    -0.432709569729E+03    0.91859E-09   -0.49611E-13 22400   0.183E-10    0.950E-05
DAV:   4    -0.432709569729E+03    0.18372E-09   -0.34666E-12 22400   0.209E-10    0.950E-05
DAV:   5    -0.432709569730E+03   -0.84219E-09   -0.55142E-12 22400   0.176E-10    0.950E-05
DAV:   6    -0.432709569730E+03   -0.25284E-09    0.36497E-12 22400   0.121E-10
  16 F= -.43270957E+03 E0= -.43270957E+03  d E =0.000000E+00
       N       E                     dE             d eps       ncg     rms          rms(c)
DAV:   1    -0.432709569729E+03    0.80945E-09   -0.62905E-12 22400   0.139E-10    0.950E-05
DAV:   2    -0.432709569730E+03   -0.48021E-09    0.11969E-12 22400   0.256E-10    0.950E-05
DAV:   3    -0.432709569729E+03    0.37107E-09   -0.32280E-14 22400   0.223E-10    0.950E-05
DAV:   4    -0.432709569729E+03   -0.20009E-09   -0.13371E-12 22400   0.155E-10    0.950E-05
DAV:   5    -0.432709569729E+03    0.14552E-09   -0.98157E-12 22400   0.222E-10    0.950E-05
DAV:   6    -0.432709569730E+03   -0.33833E-09   -0.96245E-12 22336   0.160E-10
  17 F= -.43270957E+03 E0= -.43270957E+03  d E =0.000000E+00
       N       E                     dE             d eps       ncg     rms          rms(c)
DAV:   1    -0.432709569730E+03   -0.72760E-09   -0.61235E-12 22208   0.139E-10    0.950E-05
DAV:   2    -0.432709569729E+03    0.10623E-08   -0.39921E-12 22208   0.337E-10    0.950E-05
DAV:   3    -0.432709569729E+03   -0.36380E-10   -0.61292E-12 22208   0.217E-10    0.950E-05
DAV:   4    -0.432709569730E+03   -0.10732E-08   -0.20390E-12 22208   0.152E-10    0.950E-05
DAV:   5    -0.432709569730E+03    0.72760E-11   -0.25687E-12 22208   0.246E-10    0.950E-05
DAV:   6    -0.432709569730E+03    0.25466E-10   -0.89300E-12 22208   0.222E-10
  18 F= -.43270957E+03 E0= -.43270957E+03  d E =0.000000E+00
       N       E                     dE             d eps       ncg     rms          rms(c)
DAV:   1    -0.432709569730E+03    0.31287E-09   -0.72755E-12 22208   0.259E-10    0.950E-05
DAV:   2    -0.432709569730E+03    0.00000E+00   -0.45462E-12 22208   0.207E-10    0.950E-05
DAV:   3    -0.432709569730E+03   -0.30195E-09   -0.22717E-12 22208   0.279E-10    0.950E-05
DAV:   4    -0.432709569730E+03    0.17826E-09   -0.48595E-12 22208   0.321E-10    0.950E-05
DAV:   5    -0.432709569730E+03    0.31287E-09    0.17970E-13 22208   0.164E-10    0.950E-05
DAV:   6    -0.432709569730E+03   -0.20191E-09   -0.55352E-12 22208   0.357E-10
  19 F= -.43270957E+03 E0= -.43270957E+03  d E =0.000000E+00
       N       E                     dE             d eps       ncg     rms          rms(c)
DAV:   1    -0.432709569730E+03   -0.42928E-09   -0.19715E-12 22208   0.208E-10    0.950E-05
DAV:   2    -0.432709569729E+03    0.99317E-09   -0.61514E-12 22208   0.254E-10    0.950E-05
DAV:   3    -0.432709569730E+03   -0.11460E-08    0.11580E-12 22208   0.153E-10    0.950E-05
DAV:   4    -0.432709569730E+03    0.14916E-09   -0.60591E-12 22208   0.192E-10    0.950E-05
DAV:   5    -0.432709569730E+03    0.48385E-09   -0.49288E-12 22080   0.257E-10    0.950E-05
DAV:   6    -0.432709569729E+03    0.28376E-09   -0.27431E-12 22016   0.191E-10
  20 F= -.43270957E+03 E0= -.43270957E+03  d E =0.000000E+00
       N       E                     dE             d eps       ncg     rms          rms(c)
DAV:   1    -0.432709569729E+03    0.59117E-09   -0.56355E-12 22016   0.140E-10    0.950E-05
DAV:   2    -0.432709569729E+03   -0.40563E-09   -0.34096E-12 22016   0.213E-10    0.950E-05
DAV:   3    -0.432709569729E+03   -0.18190E-10   -0.33394E-12 22016   0.216E-10    0.950E-05
DAV:   4    -0.432709569730E+03   -0.16735E-09   -0.17525E-12 22016   0.252E-10    0.950E-05
DAV:   5    -0.432709569730E+03   -0.58208E-10   -0.50594E-12 22016   0.216E-10    0.950E-05
DAV:   6    -0.432709569729E+03    0.37107E-09   -0.72353E-12 22016   0.213E-10
  21 F= -.43270957E+03 E0= -.43270957E+03  d E =0.000000E+00
       N       E                     dE             d eps       ncg     rms          rms(c)
DAV:   1    -0.432709569729E+03    0.61118E-09   -0.39384E-12 22016   0.347E-10    0.950E-05
DAV:   2    -0.432709569730E+03   -0.91313E-09   -0.10384E-11 22016   0.233E-10    0.950E-05
DAV:   3    -0.432709569730E+03   -0.26193E-09   -0.68122E-12 22016   0.205E-10    0.950E-05
DAV:   4    -0.432709569729E+03    0.97498E-09   -0.44504E-12 22016   0.184E-10    0.950E-05
DAV:   5    -0.432709569729E+03    0.16371E-09   -0.59208E-12 21888   0.242E-10    0.950E-05
DAV:   6    -0.432709569730E+03   -0.68394E-09   -0.21920E-12 21824   0.266E-10
  22 F= -.43270957E+03 E0= -.43270957E+03  d E =0.000000E+00
       N       E                     dE             d eps       ncg     rms          rms(c)
DAV:   1    -0.432709569730E+03   -0.91313E-09   -0.48633E-12 21696   0.293E-10    0.950E-05
DAV:   2    -0.432709569729E+03    0.68030E-09   -0.61478E-12 21632   0.250E-10    0.950E-05
DAV:   3    -0.432709569730E+03   -0.57116E-09   -0.72029E-12 21632   0.178E-10    0.950E-05
DAV:   4    -0.432709569729E+03    0.48021E-09   -0.98506E-13 21632   0.140E-10    0.950E-05
DAV:   5    -0.432709569730E+03   -0.63665E-09   -0.30074E-12 21632   0.121E-10    0.950E-05
DAV:   6    -0.432709569729E+03    0.10186E-08   -0.41160E-12 21632   0.165E-10
  23 F= -.43270957E+03 E0= -.43270957E+03  d E =0.000000E+00
       N       E                     dE             d eps       ncg     rms          rms(c)
DAV:   1    -0.432709569730E+03   -0.28922E-09   -0.18191E-12 21632   0.109E-10    0.950E-05
DAV:   2    -0.432709569730E+03    0.54206E-09   -0.47038E-12 21632   0.333E-10    0.950E-05
DAV:   3    -0.432709569730E+03   -0.34015E-09   -0.52971E-12 21632   0.286E-10    0.950E-05
DAV:   4    -0.432709569729E+03    0.63665E-09   -0.15783E-12 21632   0.181E-10    0.950E-05
DAV:   5    -0.432709569730E+03   -0.62209E-09   -0.13911E-12 21632   0.120E-10    0.950E-05
DAV:   6    -0.432709569730E+03    0.45839E-09   -0.20314E-12 21632   0.246E-10
  24 F= -.43270957E+03 E0= -.43270957E+03  d E =0.000000E+00
       N       E                     dE             d eps       ncg     rms          rms(c)
DAV:   1    -0.432709569730E+03   -0.20009E-09   -0.44825E-12 21504   0.244E-10    0.950E-05
DAV:   2    -0.432709569730E+03   -0.58208E-10    0.98499E-13 21440   0.186E-10    0.950E-05
DAV:   3    -0.432709569730E+03    0.73851E-09   -0.80436E-12 21440   0.292E-10    0.950E-05
DAV:   4    -0.432709569729E+03    0.42201E-09   -0.13683E-12 21440   0.289E-10    0.950E-05
DAV:   5    -0.432709569729E+03   -0.27649E-09   -0.39796E-12 21440   0.182E-10    0.950E-05
DAV:   6    -0.432709569730E+03   -0.19645E-09   -0.69166E-13 21440   0.172E-10
  25 F= -.43270957E+03 E0= -.43270957E+03  d E =0.000000E+00
       N       E                     dE             d eps       ncg     rms          rms(c)
DAV:   1    -0.432709569730E+03   -0.30741E-09   -0.21858E-12 21440   0.139E-10    0.950E-05
DAV:   2    -0.432709569730E+03   -0.28194E-09   -0.46428E-13 21440   0.189E-10    0.950E-05
DAV:   3    -0.432709569729E+03    0.54933E-09   -0.14783E-13 21440   0.235E-10    0.950E-05
DAV:   4    -0.432709569730E+03   -0.74215E-09   -0.27992E-12 21440   0.177E-10    0.950E-05
DAV:   5    -0.432709569729E+03    0.86584E-09   -0.26981E-12 21440   0.171E-10    0.950E-05
DAV:   6    -0.432709569730E+03   -0.64392E-09   -0.39216E-12 21440   0.139E-10
  26 F= -.43270957E+03 E0= -.43270957E+03  d E =0.000000E+00
       N       E                     dE             d eps       ncg     rms          rms(c)
DAV:   1    -0.432709569730E+03   -0.27649E-09   -0.19976E-12 21312   0.284E-10    0.950E-05
DAV:   2    -0.432709569730E+03   -0.19463E-09   -0.62108E-12 21248   0.319E-10    0.950E-05
DAV:   3    -0.432709569729E+03    0.65302E-09   -0.29011E-12 21248   0.229E-10    0.950E-05
DAV:   4    -0.432709569730E+03   -0.40382E-09   -0.57252E-12 21248   0.236E-10    0.950E-05
DAV:   5    -0.432709569730E+03   -0.65484E-09   -0.52961E-12 21248   0.230E-10    0.950E-05
DAV:   6    -0.432709569730E+03    0.47476E-09   -0.29592E-12 21248   0.125E-10
  27 F= -.43270957E+03 E0= -.43270957E+03  d E =0.000000E+00
       N       E                     dE             d eps       ncg     rms          rms(c)
DAV:   1    -0.432709569730E+03   -0.43656E-10   -0.50275E-12 21248   0.178E-10    0.950E-05
DAV:   2    -0.432709569729E+03    0.82582E-09   -0.30479E-12 21248   0.227E-10    0.950E-05
DAV:   3    -0.432709569730E+03   -0.42928E-09    0.38280E-12 21248   0.313E-10    0.950E-05
DAV:   4    -0.432709569730E+03    0.36016E-09   -0.65072E-12 21248   0.227E-10    0.950E-05
DAV:   5    -0.432709569730E+03   -0.43656E-10   -0.19968E-12 21248   0.213E-10    0.950E-05
DAV:   6    -0.432709569729E+03    0.24011E-09   -0.60286E-12 21248   0.218E-10
  28 F= -.43270957E+03 E0= -.43270957E+03  d E =0.000000E+00
       N       E                     dE             d eps       ncg     rms          rms(c)
DAV:   1    -0.432709569730E+03   -0.30559E-09   -0.30228E-12 21248   0.133E-10    0.950E-05
DAV:   2    -0.432709569730E+03    0.18917E-09   -0.85922E-13 21248   0.181E-10    0.950E-05
DAV:   3    -0.432709569729E+03    0.37471E-09    0.44024E-12 21248   0.213E-10    0.950E-05
DAV:   4    -0.432709569730E+03   -0.38926E-09    0.55681E-13 21248   0.208E-10    0.950E-05
DAV:   5    -0.432709569730E+03    0.10186E-09   -0.60635E-12 21248   0.195E-10    0.950E-05
DAV:   6    -0.432709569730E+03   -0.30559E-09   -0.31593E-14 21248   0.196E-10
  29 F= -.43270957E+03 E0= -.43270957E+03  d E =0.000000E+00
       N       E                     dE             d eps       ncg     rms          rms(c)
DAV:   1    -0.432709569730E+03   -0.43656E-10   -0.47141E-12 21248   0.179E-10    0.950E-05
DAV:   2    -0.432709569730E+03   -0.56025E-09   -0.36250E-12 21248   0.144E-10    0.950E-05
DAV:   3    -0.432709569729E+03    0.85129E-09    0.20571E-12 21248   0.159E-10    0.950E-05
DAV:   4    -0.432709569730E+03   -0.33469E-09   -0.16005E-12 21248   0.222E-10    0.950E-05
DAV:   5    -0.432709569729E+03    0.33833E-09    0.74043E-13 21248   0.238E-10    0.950E-05
DAV:   6    -0.432709569729E+03    0.11278E-09   -0.42221E-12 21248   0.220E-10
  30 F= -.43270957E+03 E0= -.43270957E+03  d E =0.000000E+00
       N       E                     dE             d eps       ncg     rms          rms(c)
DAV:   1    -0.432709569729E+03    0.72760E-11   -0.50080E-12 21248   0.210E-10    0.950E-05
DAV:   2    -0.432709569730E+03   -0.63301E-09   -0.20076E-12 21248   0.276E-10    0.950E-05
DAV:   3    -0.432709569730E+03    0.27285E-09   -0.21082E-12 21248   0.201E-10    0.950E-05
DAV:   4    -0.432709569729E+03    0.45657E-09   -0.43601E-12 21248   0.183E-10    0.950E-05
DAV:   5    -0.432709569730E+03   -0.97498E-09   -0.12875E-12 21248   0.198E-10    0.950E-05
DAV:   6    -0.432709569730E+03    0.53660E-09    0.18731E-13 21248   0.167E-10
  31 F= -.43270957E+03 E0= -.43270957E+03  d E =0.000000E+00
       N       E                     dE             d eps       ncg     rms          rms(c)
DAV:   1    -0.432709569730E+03    0.17644E-09   -0.48353E-12 21248   0.304E-10    0.950E-05
DAV:   2    -0.432709569729E+03    0.55115E-09   -0.14065E-12 21248   0.230E-10    0.950E-05
DAV:   3    -0.432709569730E+03   -0.54570E-11   -0.23254E-12 21248   0.249E-10    0.950E-05
DAV:   4    -0.432709569730E+03   -0.41109E-09   -0.53666E-12 21248   0.148E-10    0.950E-05
DAV:   5    -0.432709569729E+03    0.73123E-09   -0.40262E-12 21248   0.177E-10    0.950E-05
DAV:   6    -0.432709569729E+03    0.20009E-10   -0.66476E-12 21248   0.169E-10
  32 F= -.43270957E+03 E0= -.43270957E+03  d E =0.000000E+00
       N       E                     dE             d eps       ncg     rms          rms(c)
DAV:   1    -0.432709569730E+03   -0.54933E-09   -0.13459E-12 21248   0.150E-10    0.950E-05
DAV:   2    -0.432709569730E+03   -0.35106E-09   -0.28214E-12 21248   0.205E-10    0.950E-05
DAV:   3    -0.432709569730E+03   -0.21646E-09   -0.77481E-12 21248   0.179E-10    0.950E-05
DAV:   4    -0.432709569730E+03    0.15643E-09   -0.19994E-12 21248   0.182E-10    0.950E-05
DAV:   5    -0.432709569729E+03    0.98589E-09   -0.65012E-12 21248   0.203E-10    0.950E-05
DAV:   6    -0.432709569729E+03   -0.20736E-09   -0.34230E-12 21248   0.206E-10
  33 F= -.43270957E+03 E0= -.43270957E+03  d E =0.000000E+00
       N       E                     dE             d eps       ncg     rms          rms(c)
DAV:   1    -0.432709569730E+03   -0.64756E-09   -0.47054E-12 21248   0.142E-10    0.950E-05
DAV:   2    -0.432709569729E+03    0.63665E-09   -0.71617E-12 21248   0.224E-10    0.950E-05
DAV:   3    -0.432709569730E+03   -0.56389E-09   -0.35512E-12 21248   0.176E-10    0.950E-05
DAV:   4    -0.432709569730E+03    0.50932E-10   -0.60726E-12 21248   0.128E-10    0.950E-05
DAV:   5    -0.432709569730E+03    0.52751E-10   -0.34797E-12 21248   0.150E-10    0.950E-05
DAV:   6    -0.432709569729E+03    0.52387E-09   -0.32270E-12 21248   0.129E-10
  34 F= -.43270957E+03 E0= -.43270957E+03  d E =0.000000E+00
       N       E                     dE             d eps       ncg     rms          rms(c)
DAV:   1    -0.432709569730E+03   -0.76398E-10   -0.60614E-12 21248   0.158E-10    0.950E-05
DAV:   2    -0.432709569729E+03    0.29650E-09   -0.29460E-12 21248   0.212E-10    0.950E-05
DAV:   3    -0.432709569729E+03    0.37653E-09   -0.27955E-12 21248   0.313E-10    0.950E-05
DAV:   4    -0.432709569730E+03   -0.78398E-09   -0.42625E-13 21248   0.244E-10    0.950E-05
DAV:   5    -0.432709569729E+03    0.66211E-09   -0.70893E-12 21248   0.209E-10    0.950E-05
DAV:   6    -0.432709569730E+03   -0.93496E-09   -0.34541E-12 21248   0.121E-10
  35 F= -.43270957E+03 E0= -.43270957E+03  d E =0.000000E+00
       N       E                     dE             d eps       ncg     rms          rms(c)
DAV:   1    -0.432709569729E+03    0.14552E-10    0.18195E-12 21248   0.182E-10    0.950E-05
DAV:   2    -0.432709569730E+03   -0.55115E-09   -0.24732E-12 21248   0.260E-10    0.950E-05
DAV:   3    -0.432709569730E+03   -0.46384E-09   -0.57244E-12 21248   0.212E-10    0.950E-05
DAV:   4    -0.432709569729E+03    0.93860E-09   -0.41766E-12 21248   0.123E-10    0.950E-05
DAV:   5    -0.432709569730E+03   -0.76034E-09   -0.44875E-12 21248   0.230E-10    0.950E-05
DAV:   6    -0.432709569730E+03    0.30559E-09   -0.51931E-12 21248   0.292E-10
  36 F= -.43270957E+03 E0= -.43270957E+03  d E =0.000000E+00
       N       E                     dE             d eps       ncg     rms          rms(c)
DAV:   1    -0.432709569730E+03   -0.19281E-09   -0.58787E-12 21248   0.175E-10    0.950E-05
DAV:   2    -0.432709569730E+03    0.17099E-09   -0.17179E-12 21248   0.206E-10    0.950E-05
DAV:   3    -0.432709569730E+03    0.16189E-09   -0.17009E-12 21248   0.274E-10    0.950E-05
DAV:   4    -0.432709569730E+03    0.10004E-09   -0.46742E-12 21248   0.357E-10    0.950E-05
DAV:   5    -0.432709569730E+03   -0.17644E-09   -0.82019E-12 21248   0.286E-10    0.950E-05
DAV:   6    -0.432709569729E+03    0.44383E-09   -0.66806E-12 21248   0.136E-10
  37 F= -.43270957E+03 E0= -.43270957E+03  d E =0.000000E+00
       N       E                     dE             d eps       ncg     rms          rms(c)
DAV:   1    -0.432709569730E+03    0.15825E-09   -0.11774E-12 21248   0.127E-10    0.950E-05
DAV:   2    -0.432709569730E+03    0.76398E-10   -0.33089E-12 21248   0.179E-10    0.950E-05
DAV:   3    -0.432709569730E+03   -0.16371E-10   -0.27871E-12 21248   0.157E-10    0.950E-05
DAV:   4    -0.432709569730E+03    0.17280E-09   -0.30751E-12 21248   0.123E-10    0.950E-05
DAV:   5    -0.432709569730E+03   -0.85493E-09   -0.28948E-12 21248   0.260E-10    0.950E-05
DAV:   6    -0.432709569730E+03    0.52387E-09   -0.52209E-12 21248   0.222E-10
  38 F= -.43270957E+03 E0= -.43270957E+03  d E =0.000000E+00
       N       E                     dE             d eps       ncg     rms          rms(c)
DAV:   1    -0.432709569729E+03    0.13133E-08   -0.87223E-12 21248   0.242E-10    0.950E-05
DAV:   2    -0.432709569730E+03   -0.98225E-09   -0.26483E-12 21248   0.309E-10    0.950E-05
DAV:   3    -0.432709569730E+03   -0.23647E-09   -0.92051E-12 21248   0.270E-10    0.950E-05
DAV:   4    -0.432709569730E+03    0.39108E-09   -0.44860E-12 21248   0.213E-10    0.950E-05
DAV:   5    -0.432709569730E+03   -0.32196E-09   -0.30247E-12 21248   0.170E-10    0.950E-05
DAV:   6    -0.432709569730E+03    0.20736E-09   -0.24716E-12 21248   0.141E-10
  39 F= -.43270957E+03 E0= -.43270957E+03  d E =0.000000E+00
       N       E                     dE             d eps       ncg     rms          rms(c)
DAV:   1    -0.432709569730E+03    0.47476E-09   -0.46431E-12 21248   0.185E-10    0.950E-05
DAV:   2    -0.432709569730E+03   -0.90949E-11   -0.33161E-12 21248   0.171E-10    0.950E-05
DAV:   3    -0.432709569730E+03   -0.44020E-09   -0.16721E-13 21248   0.193E-10    0.950E-05
DAV:   4    -0.432709569730E+03    0.31650E-09   -0.27261E-12 21248   0.185E-10    0.950E-05
DAV:   5    -0.432709569730E+03   -0.41473E-09   -0.11808E-12 21248   0.162E-10    0.950E-05
DAV:   6    -0.432709569729E+03    0.11496E-08   -0.17236E-12 21248   0.110E-10
  40 F= -.43270957E+03 E0= -.43270957E+03  d E =0.000000E+00
       N       E                     dE             d eps       ncg     rms          rms(c)
DAV:   1    -0.432709569730E+03    0.65120E-09   -0.35775E-12 21248   0.221E-10    0.950E-05
DAV:   2    -0.432709569730E+03   -0.31105E-09   -0.42724E-12 21248   0.181E-10    0.950E-05
DAV:   3    -0.432709569729E+03    0.45657E-09   -0.27124E-12 21248   0.315E-10    0.950E-05
DAV:   4    -0.432709569730E+03   -0.17826E-09   -0.51952E-12 21248   0.265E-10    0.950E-05
DAV:   5    -0.432709569730E+03    0.36380E-11   -0.83404E-12 21248   0.233E-10    0.950E-05
DAV:   6    -0.432709569729E+03    0.31650E-09   -0.67426E-13 21248   0.229E-10
  41 F= -.43270957E+03 E0= -.43270957E+03  d E =0.000000E+00
       N       E                     dE             d eps       ncg     rms          rms(c)
DAV:   1    -0.432709569730E+03   -0.44020E-09   -0.48755E-12 21248   0.169E-10    0.950E-05
DAV:   2    -0.432709569730E+03   -0.27649E-09   -0.45761E-12 21248   0.198E-10    0.950E-05
DAV:   3    -0.432709569729E+03    0.98953E-09   -0.67870E-12 21248   0.235E-10    0.950E-05
DAV:   4    -0.432709569730E+03   -0.13097E-09   -0.10078E-11 21248   0.211E-10    0.950E-05
DAV:   5    -0.432709569730E+03   -0.82946E-09    0.36668E-12 21248   0.142E-10    0.950E-05
DAV:   6    -0.432709569730E+03    0.60027E-10   -0.62678E-12 21248   0.209E-10
  42 F= -.43270957E+03 E0= -.43270957E+03  d E =0.000000E+00
       N       E                     dE             d eps       ncg     rms          rms(c)
DAV:   1    -0.432709569730E+03    0.53114E-09   -0.49866E-12 21248   0.150E-10    0.950E-05
DAV:   2    -0.432709569730E+03    0.80036E-10   -0.28056E-13 21248   0.268E-10    0.950E-05
DAV:   3    -0.432709569730E+03   -0.38199E-09    0.56733E-13 21248   0.280E-10    0.950E-05
DAV:   4    -0.432709569729E+03    0.74579E-09   -0.31022E-12 21248   0.149E-10    0.950E-05
DAV:   5    -0.432709569730E+03   -0.42019E-09   -0.19295E-12 21248   0.213E-10    0.950E-05
DAV:   6    -0.432709569730E+03    0.20009E-09   -0.27550E-13 21248   0.303E-10
  43 F= -.43270957E+03 E0= -.43270957E+03  d E =0.000000E+00
       N       E                     dE             d eps       ncg     rms          rms(c)
DAV:   1    -0.432709569730E+03   -0.34561E-09   -0.31396E-13 21248   0.209E-10    0.950E-05
DAV:   2    -0.432709569729E+03    0.88221E-09   -0.17537E-12 21248   0.262E-10    0.950E-05
DAV:   3    -0.432709569729E+03   -0.22555E-09   -0.32085E-12 21248   0.280E-10    0.950E-05
DAV:   4    -0.432709569730E+03   -0.70213E-09    0.11685E-12 21248   0.144E-10    0.950E-05
DAV:   5    -0.432709569730E+03    0.31650E-09   -0.27882E-12 21248   0.140E-10    0.950E-05
DAV:   6    -0.432709569729E+03    0.59481E-09   -0.57700E-12 21248   0.143E-10
  44 F= -.43270957E+03 E0= -.43270957E+03  d E =0.000000E+00
       N       E                     dE             d eps       ncg     rms          rms(c)
DAV:   1    -0.432709569729E+03    0.87675E-09   -0.24590E-12 21248   0.224E-10    0.950E-05
DAV:   2    -0.432709569730E+03   -0.70395E-09   -0.10660E-12 21248   0.393E-10    0.950E-05
DAV:   3    -0.432709569730E+03    0.72760E-11   -0.14080E-13 21248   0.353E-10    0.950E-05
DAV:   4    -0.432709569729E+03    0.65666E-09    0.32003E-12 21248   0.243E-10    0.950E-05
DAV:   5    -0.432709569730E+03   -0.64028E-09   -0.74727E-12 21248   0.284E-10    0.950E-05
DAV:   6    -0.432709569729E+03    0.38563E-09   -0.83358E-12 21248   0.229E-10
  45 F= -.43270957E+03 E0= -.43270957E+03  d E =0.000000E+00
       N       E                     dE             d eps       ncg     rms          rms(c)
DAV:   1    -0.432709569730E+03   -0.37471E-09   -0.27993E-12 21248   0.161E-10    0.950E-05
DAV:   2    -0.432709569729E+03    0.69667E-09   -0.99475E-12 21248   0.337E-10    0.950E-05
DAV:   3    -0.432709569730E+03   -0.40563E-09   -0.22176E-12 21248   0.224E-10    0.950E-05
DAV:   4    -0.432709569729E+03    0.53842E-09   -0.34471E-12 21248   0.126E-10    0.950E-05
DAV:   5    -0.432709569730E+03   -0.40745E-09   -0.57752E-12 21248   0.277E-10    0.950E-05
DAV:   6    -0.432709569730E+03   -0.64392E-09   -0.10262E-12 21248   0.245E-10
  46 F= -.43270957E+03 E0= -.43270957E+03  d E =0.000000E+00
       N       E                     dE             d eps       ncg     rms          rms(c)
DAV:   1    -0.432709569730E+03   -0.36380E-10   -0.55907E-12 21248   0.189E-10    0.950E-05
DAV:   2    -0.432709569729E+03    0.33651E-09   -0.43121E-12 21248   0.189E-10    0.950E-05
DAV:   3    -0.432709569730E+03   -0.31650E-09   -0.18561E-12 21248   0.144E-10    0.950E-05
DAV:   4    -0.432709569730E+03   -0.45293E-09   -0.43460E-12 21248   0.152E-10    0.950E-05
DAV:   5    -0.432709569730E+03    0.56752E-09   -0.26487E-12 21248   0.263E-10    0.950E-05
DAV:   6    -0.432709569730E+03   -0.80399E-09   -0.29948E-12 21248   0.147E-10
  47 F= -.43270957E+03 E0= -.43270957E+03  d E =0.000000E+00
       N       E                     dE             d eps       ncg     rms          rms(c)
DAV:   1    -0.432709569730E+03   -0.22192E-09   -0.47436E-12 21248   0.190E-10    0.950E-05
DAV:   2    -0.432709569730E+03    0.16553E-09   -0.15263E-12 21248   0.225E-10    0.950E-05
DAV:   3    -0.432709569729E+03    0.59663E-09   -0.75481E-12 21248   0.183E-10    0.950E-05
DAV:   4    -0.432709569730E+03   -0.94769E-09   -0.37276E-12 21248   0.118E-10    0.950E-05
DAV:   5    -0.432709569729E+03    0.89858E-09   -0.77139E-13 21248   0.177E-10    0.950E-05
DAV:   6    -0.432709569729E+03    0.25466E-10   -0.31873E-12 21248   0.190E-10
  48 F= -.43270957E+03 E0= -.43270957E+03  d E =0.000000E+00
       N       E                     dE             d eps       ncg     rms          rms(c)
DAV:   1    -0.432709569729E+03    0.65484E-10   -0.33523E-12 21248   0.213E-10    0.950E-05
DAV:   2    -0.432709569730E+03   -0.59481E-09   -0.17773E-12 21248   0.263E-10    0.950E-05
DAV:   3    -0.432709569730E+03   -0.65484E-10   -0.38572E-12 21248   0.242E-10    0.950E-05
DAV:   4    -0.432709569730E+03    0.89130E-10   -0.42749E-12 21248   0.298E-10    0.950E-05
DAV:   5    -0.432709569729E+03    0.44747E-09   -0.69851E-12 21248   0.166E-10    0.950E-05
DAV:   6    -0.432709569730E+03   -0.92405E-09   -0.38958E-12 21248   0.137E-10
  49 F= -.43270957E+03 E0= -.43270957E+03  d E =0.000000E+00
       N       E                     dE             d eps       ncg     rms          rms(c)
DAV:   1    -0.432709569730E+03   -0.10768E-08   -0.28522E-12 21248   0.221E-10    0.950E-05
DAV:   2    -0.432709569730E+03   -0.25466E-10   -0.55696E-12 21248   0.414E-10    0.950E-05
DAV:   3    -0.432709569730E+03   -0.90949E-10   -0.13225E-12 21248   0.334E-10    0.950E-05
DAV:   4    -0.432709569730E+03    0.35288E-09   -0.62204E-12 21248   0.161E-10    0.950E-05
DAV:   5    -0.432709569730E+03    0.20009E-09   -0.51812E-12 21248   0.209E-10    0.950E-05
DAV:   6    -0.432709569729E+03    0.39108E-09   -0.95726E-13 21248   0.138E-10
  50 F= -.43270957E+03 E0= -.43270957E+03  d E =0.000000E+00
       N       E                     dE             d eps       ncg     rms          rms(c)
DAV:   1    -0.432709569730E+03   -0.46930E-09   -0.76499E-15 21248   0.175E-10    0.950E-05
DAV:   2    -0.432709569730E+03    0.27285E-10   -0.54319E-13 21248   0.239E-10    0.950E-05
DAV:   3    -0.432709569729E+03    0.10514E-08   -0.17093E-12 21248   0.287E-10    0.950E-05
DAV:   4    -0.432709569730E+03   -0.44929E-09   -0.37444E-12 21248   0.303E-10    0.950E-05
DAV:   5    -0.432709569730E+03   -0.60754E-09   -0.24621E-12 21248   0.160E-10    0.950E-05
DAV:   6    -0.432709569729E+03    0.94951E-09   -0.37574E-12 21248   0.234E-10
  51 F= -.43270957E+03 E0= -.43270957E+03  d E =0.000000E+00
       N       E                     dE             d eps       ncg     rms          rms(c)
DAV:   1    -0.432709569729E+03    0.85856E-09   -0.41778E-12 21248   0.223E-10    0.950E-05
DAV:   2    -0.432709569730E+03   -0.29104E-09   -0.20106E-12 21248   0.323E-10    0.950E-05
DAV:   3    -0.432709569729E+03    0.37289E-09    0.28528E-12 21248   0.265E-10    0.950E-05
DAV:   4    -0.432709569730E+03   -0.52569E-09   -0.57908E-12 21248   0.219E-10    0.950E-05
DAV:   5    -0.432709569730E+03    0.19099E-09   -0.94112E-12 21248   0.236E-10    0.950E-05
DAV:   6    -0.432709569729E+03    0.31287E-09   -0.50913E-12 21248   0.304E-10
  52 F= -.43270957E+03 E0= -.43270957E+03  d E =0.000000E+00
       N       E                     dE             d eps       ncg     rms          rms(c)
DAV:   1    -0.432709569730E+03   -0.68576E-09   -0.45593E-12 21248   0.176E-10    0.950E-05
DAV:   2    -0.432709569730E+03    0.55843E-09   -0.47352E-12 21248   0.245E-10    0.950E-05
DAV:   3    -0.432709569730E+03   -0.29650E-09   -0.43727E-12 21248   0.273E-10    0.950E-05
DAV:   4    -0.432709569730E+03   -0.26921E-09   -0.39563E-12 21248   0.210E-10    0.950E-05
DAV:   5    -0.432709569730E+03    0.38563E-09   -0.33547E-12 21248   0.172E-10    0.950E-05
DAV:   6    -0.432709569729E+03    0.53114E-09   -0.41116E-12 21248   0.187E-10
  53 F= -.43270957E+03 E0= -.43270957E+03  d E =0.000000E+00
       N       E                     dE             d eps       ncg     rms          rms(c)
DAV:   1    -0.432709569729E+03    0.67121E-09    0.38282E-13 21248   0.149E-10    0.950E-05
DAV:   2    -0.432709569730E+03   -0.33833E-09   -0.57344E-12 21248   0.238E-10    0.950E-05
DAV:   3    -0.432709569729E+03    0.16189E-09   -0.26816E-12 21248   0.225E-10    0.950E-05
DAV:   4    -0.432709569730E+03   -0.70941E-09   -0.84272E-12 21248   0.189E-10    0.950E-05
DAV:   5    -0.432709569730E+03   -0.21464E-09   -0.92558E-12 21248   0.205E-10    0.950E-05
DAV:   6    -0.432709569730E+03    0.32742E-10   -0.35562E-12 21248   0.290E-10
  54 F= -.43270957E+03 E0= -.43270957E+03  d E =0.000000E+00
       N       E                     dE             d eps       ncg     rms          rms(c)
DAV:   1    -0.432709569729E+03    0.82764E-09   -0.10064E-11 21248   0.165E-10    0.950E-05
DAV:   2    -0.432709569730E+03   -0.17826E-09   -0.49977E-12 21248   0.302E-10    0.950E-05
DAV:   3    -0.432709569730E+03   -0.64210E-09    0.13996E-12 21248   0.234E-10    0.950E-05
DAV:   4    -0.432709569729E+03    0.85129E-09   -0.44185E-12 21248   0.148E-10    0.950E-05
DAV:   5    -0.432709569730E+03   -0.98225E-10   -0.29581E-12 21248   0.197E-10    0.950E-05
DAV:   6    -0.432709569730E+03   -0.17826E-09   -0.19228E-12 21248   0.161E-10
  55 F= -.43270957E+03 E0= -.43270957E+03  d E =0.000000E+00
       N       E                     dE             d eps       ncg     rms          rms(c)
DAV:   1    -0.432709569729E+03    0.52205E-09   -0.58154E-12 21248   0.134E-10    0.950E-05
DAV:   2    -0.432709569729E+03   -0.18917E-09   -0.30602E-12 21248   0.269E-10    0.950E-05
DAV:   3    -0.432709569730E+03   -0.84583E-09   -0.15808E-12 21248   0.187E-10    0.950E-05
DAV:   4    -0.432709569730E+03    0.53114E-09   -0.31234E-12 21248   0.195E-10    0.950E-05
DAV:   5    -0.432709569730E+03   -0.34197E-09   -0.95238E-13 21248   0.199E-10    0.950E-05
DAV:   6    -0.432709569729E+03    0.72214E-09   -0.43532E-12 21248   0.151E-10
  56 F= -.43270957E+03 E0= -.43270957E+03  d E =0.000000E+00
       N       E                     dE             d eps       ncg     rms          rms(c)
DAV:   1    -0.432709569729E+03    0.82946E-09   -0.81740E-12 21248   0.153E-10    0.950E-05
DAV:   2    -0.432709569730E+03   -0.12151E-08   -0.51723E-12 21248   0.286E-10    0.950E-05
DAV:   3    -0.432709569730E+03    0.64028E-09   -0.21088E-13 21248   0.207E-10    0.950E-05
DAV:   4    -0.432709569730E+03   -0.36198E-09   -0.87522E-12 21248   0.149E-10    0.950E-05
DAV:   5    -0.432709569730E+03   -0.23829E-09   -0.62854E-12 21248   0.150E-10    0.950E-05
DAV:   6    -0.432709569730E+03    0.70759E-09   -0.49285E-12 21248   0.167E-10
  57 F= -.43270957E+03 E0= -.43270957E+03  d E =0.000000E+00
       N       E                     dE             d eps       ncg     rms          rms(c)
DAV:   1    -0.432709569730E+03    0.24556E-09   -0.32536E-12 21248   0.161E-10    0.950E-05
DAV:   2    -0.432709569729E+03    0.92950E-09   -0.59530E-12 21248   0.267E-10    0.950E-05
DAV:   3    -0.432709569729E+03   -0.21828E-10   -0.30542E-12 21248   0.280E-10    0.950E-05
DAV:   4    -0.432709569729E+03   -0.21100E-09   -0.41148E-12 21248   0.187E-10    0.950E-05
DAV:   5    -0.432709569729E+03   -0.70941E-10   -0.21883E-12 21248   0.134E-10    0.950E-05
DAV:   6    -0.432709569729E+03    0.58208E-10    0.13883E-12 21248   0.187E-10
  58 F= -.43270957E+03 E0= -.43270957E+03  d E =0.000000E+00
       N       E                     dE             d eps       ncg     rms          rms(c)
DAV:   1    -0.432709569729E+03    0.63665E-10   -0.23840E-12 21248   0.160E-10    0.950E-05
DAV:   2    -0.432709569730E+03   -0.26375E-09   -0.86891E-13 21248   0.209E-10    0.950E-05
DAV:   3    -0.432709569730E+03   -0.10004E-09   -0.52506E-12 21248   0.273E-10    0.950E-05
DAV:   4    -0.432709569730E+03   -0.42564E-09   -0.23641E-12 21248   0.225E-10    0.950E-05
DAV:   5    -0.432709569730E+03   -0.18008E-09   -0.52789E-12 21248   0.101E-10    0.950E-05
DAV:   6    -0.432709569730E+03    0.70213E-09   -0.43766E-12 21248   0.133E-10
  59 F= -.43270957E+03 E0= -.43270957E+03  d E =0.000000E+00
       N       E                     dE             d eps       ncg     rms          rms(c)
DAV:   1    -0.432709569729E+03    0.93678E-09   -0.41507E-12 21248   0.116E-10    0.950E-05
DAV:   2    -0.432709569730E+03   -0.77853E-09   -0.63493E-12 21248   0.193E-10    0.950E-05
DAV:   3    -0.432709569730E+03    0.13824E-09   -0.16909E-12 21248   0.234E-10    0.950E-05
DAV:   4    -0.432709569729E+03    0.54933E-09   -0.38152E-12 21248   0.202E-10    0.950E-05
DAV:   5    -0.432709569730E+03   -0.65847E-09   -0.64019E-12 21248   0.168E-10    0.950E-05
DAV:   6    -0.432709569730E+03   -0.19281E-09   -0.58226E-12 21248   0.154E-10
  60 F= -.43270957E+03 E0= -.43270957E+03  d E =0.000000E+00
       N       E                     dE             d eps       ncg     rms          rms(c)
DAV:   1    -0.432709569729E+03    0.65847E-09   -0.55393E-12 21248   0.148E-10    0.950E-05
DAV:   2    -0.432709569730E+03   -0.32378E-09   -0.45331E-12 21248   0.152E-10    0.950E-05
DAV:   3    -0.432709569730E+03   -0.18917E-09   -0.86546E-12 21248   0.176E-10    0.950E-05
DAV:   4    -0.432709569729E+03    0.77489E-09   -0.45171E-12 21248   0.182E-10    0.950E-05
DAV:   5    -0.432709569729E+03   -0.21100E-09   -0.49800E-12 21248   0.235E-10    0.950E-05
DAV:   6    -0.432709569730E+03   -0.93132E-09   -0.21629E-12 21248   0.200E-10
  61 F= -.43270957E+03 E0= -.43270957E+03  d E =0.000000E+00
       N       E                     dE             d eps       ncg     rms          rms(c)
DAV:   1    -0.432709569729E+03   -0.13097E-09   -0.60981E-12 21248   0.233E-10    0.950E-05
DAV:   2    -0.432709569730E+03   -0.56025E-09   -0.16269E-12 21248   0.215E-10    0.950E-05
DAV:   3    -0.432709569730E+03    0.42201E-09   -0.51730E-12 21248   0.168E-10    0.950E-05
DAV:   4    -0.432709569730E+03   -0.80036E-10   -0.43947E-13 21248   0.135E-10    0.950E-05
DAV:   5    -0.432709569730E+03    0.27285E-10   -0.49865E-12 21248   0.261E-10    0.950E-05
DAV:   6    -0.432709569730E+03   -0.55115E-09   -0.28919E-12 21248   0.162E-10
  62 F= -.43270957E+03 E0= -.43270957E+03  d E =0.000000E+00
       N       E                     dE             d eps       ncg     rms          rms(c)
DAV:   1    -0.432709569729E+03    0.57844E-09    0.43515E-13 21248   0.159E-10    0.950E-05
DAV:   2    -0.432709569730E+03   -0.10386E-08   -0.51650E-12 21248   0.289E-10    0.950E-05
DAV:   3    -0.432709569730E+03   -0.23647E-09   -0.31538E-12 21248   0.375E-10    0.950E-05
DAV:   4    -0.432709569729E+03    0.12533E-08   -0.30725E-12 21248   0.157E-10    0.950E-05
DAV:   5    -0.432709569730E+03   -0.53478E-09   -0.62890E-12 21248   0.248E-10    0.950E-05
DAV:   6    -0.432709569730E+03   -0.73851E-09   -0.66702E-12 21248   0.149E-10
  63 F= -.43270957E+03 E0= -.43270957E+03  d E =0.000000E+00
       N       E                     dE             d eps       ncg     rms          rms(c)
DAV:   1    -0.432709569730E+03   -0.21828E-10   -0.31545E-12 21248   0.142E-10    0.950E-05
DAV:   2    -0.432709569730E+03   -0.37289E-09   -0.75384E-12 21248   0.225E-10    0.950E-05
DAV:   3    -0.432709569730E+03    0.48931E-09   -0.20038E-12 21248   0.168E-10    0.950E-05
DAV:   4    -0.432709569730E+03   -0.34197E-09   -0.57005E-12 21248   0.205E-10    0.950E-05
DAV:   5    -0.432709569729E+03    0.47839E-09    0.59443E-13 21248   0.197E-10    0.950E-05
DAV:   6    -0.432709569730E+03   -0.54570E-09   -0.52451E-12 21248   0.133E-10
  64 F= -.43270957E+03 E0= -.43270957E+03  d E =0.000000E+00
       N       E                     dE             d eps       ncg     rms          rms(c)
DAV:   1    -0.432709569730E+03   -0.29650E-09    0.24645E-13 21248   0.171E-10    0.950E-05
DAV:   2    -0.432709569729E+03    0.41473E-09   -0.38694E-12 21248   0.217E-10    0.950E-05
DAV:   3    -0.432709569729E+03    0.25284E-09    0.74838E-13 21248   0.166E-10    0.950E-05
DAV:   4    -0.432709569730E+03   -0.10659E-08   -0.55458E-12 21248   0.139E-10    0.950E-05
DAV:   5    -0.432709569730E+03    0.25466E-10   -0.16486E-12 21248   0.124E-10    0.950E-05
DAV:   6    -0.432709569730E+03    0.28558E-09   -0.11963E-12 21248   0.140E-10
  65 F= -.43270957E+03 E0= -.43270957E+03  d E =0.000000E+00
       N       E                     dE             d eps       ncg     rms          rms(c)
DAV:   1    -0.432709569730E+03    0.50204E-09   -0.41361E-12 21248   0.222E-10    0.950E-05
DAV:   2    -0.432709569730E+03   -0.25830E-09    0.56238E-13 21248   0.342E-10    0.950E-05
DAV:   3    -0.432709569729E+03    0.52751E-09   -0.52457E-12 21248   0.227E-10    0.950E-05
DAV:   4    -0.432709569729E+03   -0.76398E-10   -0.24226E-12 21248   0.149E-10    0.950E-05
DAV:   5    -0.432709569729E+03    0.14552E-10    0.15314E-12 21248   0.177E-10    0.950E-05
DAV:   6    -0.432709569730E+03   -0.14188E-09   -0.38558E-12 21248   0.156E-10
  66 F= -.43270957E+03 E0= -.43270957E+03  d E =0.000000E+00
       N       E                     dE             d eps       ncg     rms          rms(c)
DAV:   1    -0.432709569730E+03   -0.25466E-09   -0.52259E-12 21248   0.188E-10    0.950E-05
DAV:   2    -0.432709569730E+03   -0.71304E-09   -0.21519E-12 21248   0.222E-10    0.950E-05
DAV:   3    -0.432709569729E+03    0.12660E-08   -0.31025E-12 21248   0.180E-10    0.950E-05
DAV:   4    -0.432709569729E+03    0.10914E-10   -0.15801E-12 21248   0.175E-10    0.950E-05
DAV:   5    -0.432709569729E+03   -0.40018E-10   -0.39449E-12 21248   0.205E-10    0.950E-05
DAV:   6    -0.432709569730E+03   -0.80399E-09   -0.14587E-12 21248   0.253E-10
  67 F= -.43270957E+03 E0= -.43270957E+03  d E =0.000000E+00
       N       E                     dE             d eps       ncg     rms          rms(c)
DAV:   1    -0.432709569730E+03   -0.56025E-09   -0.76346E-12 21248   0.192E-10    0.950E-05
DAV:   2    -0.432709569729E+03    0.19645E-09   -0.64233E-12 21248   0.185E-10    0.950E-05
DAV:   3    -0.432709569730E+03   -0.45839E-09   -0.47571E-12 21248   0.216E-10    0.950E-05
DAV:   4    -0.432709569730E+03    0.38563E-09   -0.53936E-12 21248   0.174E-10    0.950E-05
DAV:   5    -0.432709569729E+03    0.28558E-09   -0.45950E-12 21248   0.167E-10    0.950E-05
DAV:   6    -0.432709569729E+03    0.26739E-09   -0.47290E-12 21248   0.159E-10
  68 F= -.43270957E+03 E0= -.43270957E+03  d E =0.000000E+00
       N       E                     dE             d eps       ncg     rms          rms(c)
DAV:   1    -0.432709569730E+03   -0.10423E-08   -0.21414E-12 21248   0.143E-10    0.950E-05
DAV:   2    -0.432709569730E+03    0.60572E-09   -0.52504E-12 21248   0.253E-10    0.950E-05
DAV:   3    -0.432709569729E+03    0.68030E-09   -0.25283E-12 21248   0.324E-10    0.950E-05
DAV:   4    -0.432709569730E+03   -0.94769E-09   -0.74866E-12 21248   0.167E-10    0.950E-05
DAV:   5    -0.432709569730E+03    0.10186E-09   -0.22449E-12 21248   0.155E-10    0.950E-05
DAV:   6    -0.432709569729E+03    0.77853E-09   -0.68158E-12 21248   0.196E-10
  69 F= -.43270957E+03 E0= -.43270957E+03  d E =0.000000E+00
       N       E                     dE             d eps       ncg     rms          rms(c)
DAV:   1    -0.432709569729E+03    0.52751E-09   -0.46299E-12 21248   0.220E-10    0.950E-05
DAV:   2    -0.432709569730E+03   -0.45657E-09   -0.27825E-12 21248   0.390E-10    0.950E-05
DAV:   3    -0.432709569730E+03    0.67303E-10    0.39291E-12 21248   0.229E-10    0.950E-05
DAV:   4    -0.432709569729E+03    0.64392E-09   -0.80958E-12 21248   0.138E-10    0.950E-05
DAV:   5    -0.432709569730E+03   -0.90222E-09   -0.25195E-12 21248   0.168E-10    0.950E-05
DAV:   6    -0.432709569729E+03    0.50204E-09   -0.11456E-11 21248   0.133E-10
  70 F= -.43270957E+03 E0= -.43270957E+03  d E =0.000000E+00
       N       E                     dE             d eps       ncg     rms          rms(c)
DAV:   1    -0.432709569730E+03    0.13097E-09   -0.69503E-12 21248   0.220E-10    0.950E-05
DAV:   2    -0.432709569730E+03    0.25284E-09   -0.45855E-13 21248   0.336E-10    0.950E-05
DAV:   3    -0.432709569730E+03   -0.50386E-09   -0.65275E-13 21248   0.362E-10    0.950E-05
DAV:   4    -0.432709569730E+03    0.58935E-09   -0.63212E-12 21248   0.185E-10    0.950E-05
DAV:   5    -0.432709569729E+03    0.13097E-09   -0.80821E-12 21248   0.138E-10    0.950E-05
DAV:   6    -0.432709569730E+03   -0.46020E-09   -0.10826E-12 21248   0.149E-10
  71 F= -.43270957E+03 E0= -.43270957E+03  d E =0.000000E+00
       N       E                     dE             d eps       ncg     rms          rms(c)
DAV:   1    -0.432709569730E+03   -0.21100E-09   -0.12487E-12 21248   0.162E-10    0.950E-05
DAV:   2    -0.432709569730E+03   -0.11642E-09   -0.46519E-12 21248   0.305E-10    0.950E-05
DAV:   3    -0.432709569730E+03   -0.62573E-09   -0.94059E-13 21248   0.275E-10    0.950E-05
DAV:   4    -0.432709569730E+03    0.73851E-09   -0.30718E-12 21248   0.207E-10    0.950E-05
DAV:   5    -0.432709569729E+03    0.28376E-09    0.34475E-13 21248   0.161E-10    0.950E-05
DAV:   6    -0.432709569730E+03   -0.46930E-09   -0.22210E-12 21248   0.165E-10
  72 F= -.43270957E+03 E0= -.43270957E+03  d E =0.000000E+00
       N       E                     dE             d eps       ncg     rms          rms(c)
DAV:   1    -0.432709569729E+03    0.30923E-09   -0.17166E-12 21248   0.267E-10    0.950E-05
DAV:   2    -0.432709569730E+03   -0.13679E-08   -0.64333E-12 21248   0.239E-10    0.950E-05
DAV:   3    -0.432709569729E+03    0.12842E-08    0.16713E-12 21248   0.258E-10    0.950E-05
DAV:   4    -0.432709569730E+03   -0.10732E-08   -0.37359E-12 21248   0.219E-10    0.950E-05
DAV:   5    -0.432709569730E+03    0.66393E-09   -0.18870E-12 21248   0.233E-10    0.950E-05
DAV:   6    -0.432709569729E+03    0.32924E-09   -0.37857E-12 21248   0.158E-10
  73 F= -.43270957E+03 E0= -.43270957E+03  d E =0.000000E+00
       N       E                     dE             d eps       ncg     rms          rms(c)
DAV:   1    -0.432709569729E+03    0.36562E-09   -0.13753E-12 21248   0.207E-10    0.950E-05
DAV:   2    -0.432709569729E+03    0.17644E-09   -0.14229E-12 21248   0.256E-10    0.950E-05
DAV:   3    -0.432709569729E+03   -0.43110E-09   -0.40875E-12 21248   0.246E-10    0.950E-05
DAV:   4    -0.432709569729E+03   -0.21828E-10   -0.74188E-12 21248   0.297E-10    0.950E-05
DAV:   5    -0.432709569730E+03   -0.23283E-09   -0.50901E-12 21248   0.180E-10    0.950E-05
DAV:   6    -0.432709569729E+03    0.54388E-09   -0.64615E-12 21248   0.153E-10
  74 F= -.43270957E+03 E0= -.43270957E+03  d E =0.000000E+00
       N       E                     dE             d eps       ncg     rms          rms(c)
DAV:   1    -0.432709569730E+03    0.12369E-09   -0.19251E-12 21248   0.148E-10    0.950E-05
DAV:   2    -0.432709569729E+03    0.32742E-09   -0.46206E-12 21248   0.246E-10    0.950E-05
DAV:   3    -0.432709569729E+03    0.32742E-10   -0.13054E-12 21248   0.205E-10    0.950E-05
DAV:   4    -0.432709569730E+03   -0.55661E-09   -0.23471E-12 21248   0.124E-10    0.950E-05
DAV:   5    -0.432709569730E+03   -0.33833E-09   -0.67164E-12 21248   0.172E-10    0.950E-05
DAV:   6    -0.432709569730E+03    0.52933E-09   -0.16750E-12 21248   0.195E-10
  75 F= -.43270957E+03 E0= -.43270957E+03  d E =0.000000E+00
       N       E                     dE             d eps       ncg     rms          rms(c)
DAV:   1    -0.432709569729E+03    0.84401E-09   -0.60434E-12 21248   0.263E-10    0.950E-05
DAV:   2    -0.432709569730E+03   -0.40382E-09   -0.46544E-12 21248   0.329E-10    0.950E-05
DAV:   3    -0.432709569730E+03   -0.39290E-09   -0.51010E-12 21248   0.236E-10    0.950E-05
DAV:   4    -0.432709569730E+03    0.26012E-09   -0.27516E-12 21248   0.202E-10    0.950E-05
DAV:   5    -0.432709569730E+03    0.65484E-10   -0.48153E-12 21248   0.205E-10    0.950E-05
DAV:   6    -0.432709569729E+03    0.23829E-09   -0.27863E-12 21248   0.250E-10
  76 F= -.43270957E+03 E0= -.43270957E+03  d E =0.000000E+00
       N       E                     dE             d eps       ncg     rms          rms(c)
DAV:   1    -0.432709569730E+03    0.67303E-10   -0.16790E-12 21248   0.260E-10    0.950E-05
DAV:   2    -0.432709569729E+03    0.53842E-09   -0.52793E-12 21248   0.167E-10    0.950E-05
DAV:   3    -0.432709569730E+03   -0.43838E-09   -0.32500E-12 21248   0.210E-10    0.950E-05
DAV:   4    -0.432709569730E+03   -0.83855E-09   -0.72814E-12 21248   0.109E-10    0.950E-05
DAV:   5    -0.432709569729E+03    0.10114E-08   -0.48222E-12 21248   0.234E-10    0.950E-05
DAV:   6    -0.432709569729E+03    0.94587E-10   -0.33981E-12 21248   0.264E-10
  77 F= -.43270957E+03 E0= -.43270957E+03  d E =0.000000E+00
       N       E                     dE             d eps       ncg     rms          rms(c)
DAV:   1    -0.432709569730E+03   -0.33106E-09   -0.99128E-12 21248   0.153E-10    0.950E-05
DAV:   2    -0.432709569730E+03   -0.16735E-09   -0.17235E-13 21248   0.223E-10    0.950E-05
DAV:   3    -0.432709569730E+03    0.13824E-09   -0.16149E-12 21248   0.248E-10    0.950E-05
DAV:   4    -0.432709569729E+03    0.38926E-09   -0.13419E-13 21248   0.287E-10    0.950E-05
DAV:   5    -0.432709569730E+03   -0.67666E-09   -0.44451E-12 21248   0.207E-10    0.950E-05
DAV:   6    -0.432709569730E+03   -0.15461E-09   -0.52434E-12 21248   0.143E-10
  78 F= -.43270957E+03 E0= -.43270957E+03  d E =0.000000E+00
       N       E                     dE             d eps       ncg     rms          rms(c)
DAV:   1    -0.432709569729E+03    0.81855E-09   -0.28031E-12 21248   0.105E-10    0.950E-05
DAV:   2    -0.432709569729E+03   -0.40018E-10   -0.54018E-12 21248   0.310E-10    0.950E-05
DAV:   3    -0.432709569730E+03   -0.54206E-09   -0.35064E-12 21248   0.246E-10    0.950E-05
DAV:   4    -0.432709569730E+03    0.92768E-10   -0.96714E-12 21248   0.231E-10    0.950E-05
DAV:   5    -0.432709569730E+03    0.50932E-10   -0.56249E-12 21248   0.195E-10    0.950E-05
DAV:   6    -0.432709569730E+03   -0.50022E-09   -0.11236E-12 21248   0.250E-10
  79 F= -.43270957E+03 E0= -.43270957E+03  d E =0.000000E+00
       N       E                     dE             d eps       ncg     rms          rms(c)
DAV:   1    -0.432709569730E+03   -0.48749E-09   -0.37489E-12 21248   0.148E-10    0.950E-05
DAV:   2    -0.432709569729E+03    0.10350E-08   -0.67456E-12 21248   0.276E-10    0.950E-05
DAV:   3    -0.432709569730E+03   -0.12969E-08   -0.13568E-12 21248   0.284E-10    0.950E-05
DAV:   4    -0.432709569729E+03    0.10677E-08   -0.46825E-12 21248   0.201E-10    0.950E-05
DAV:   5    -0.432709569730E+03   -0.22010E-09   -0.26818E-13 21248   0.240E-10    0.950E-05
DAV:   6    -0.432709569729E+03    0.17826E-09   -0.38972E-12 21248   0.217E-10
  80 F= -.43270957E+03 E0= -.43270957E+03  d E =0.000000E+00
       N       E                     dE             d eps       ncg     rms          rms(c)
DAV:   1    -0.432709569730E+03   -0.12005E-09    0.48943E-13 21248   0.334E-10    0.950E-05
DAV:   2    -0.432709569730E+03   -0.61664E-09   -0.32693E-12 21248   0.188E-10    0.950E-05
DAV:   3    -0.432709569730E+03    0.50932E-10    0.74260E-13 21248   0.213E-10    0.950E-05
DAV:   4    -0.432709569729E+03    0.11751E-08   -0.27169E-12 21248   0.161E-10    0.950E-05
DAV:   5    -0.432709569730E+03   -0.87857E-09   -0.31330E-12 21248   0.147E-10    0.950E-05
DAV:   6    -0.432709569729E+03    0.50386E-09   -0.83378E-12 21248   0.192E-10
  81 F= -.43270957E+03 E0= -.43270957E+03  d E =0.000000E+00
       N       E                     dE             d eps       ncg     rms          rms(c)
DAV:   1    -0.432709569730E+03   -0.30195E-09   -0.24232E-12 21248   0.269E-10    0.950E-05
DAV:   2    -0.432709569730E+03    0.70395E-09   -0.10484E-12 21248   0.306E-10    0.950E-05
DAV:   3    -0.432709569730E+03   -0.36380E-11   -0.70228E-12 21248   0.276E-10    0.950E-05
DAV:   4    -0.432709569730E+03   -0.19281E-09   -0.31696E-14 21248   0.232E-10    0.950E-05
DAV:   5    -0.432709569729E+03    0.50022E-09    0.20753E-13 21248   0.177E-10    0.950E-05
DAV:   6    -0.432709569730E+03   -0.60572E-09   -0.11501E-12 21248   0.169E-10
  82 F= -.43270957E+03 E0= -.43270957E+03  d E =0.000000E+00
       N       E                     dE             d eps       ncg     rms          rms(c)
DAV:   1    -0.432709569730E+03   -0.78035E-09   -0.50520E-12 21248   0.171E-10    0.950E-05
DAV:   2    -0.432709569729E+03    0.52751E-09   -0.32105E-12 21248   0.188E-10    0.950E-05
DAV:   3    -0.432709569730E+03   -0.78580E-09    0.12432E-12 21248   0.139E-10    0.950E-05
DAV:   4    -0.432709569729E+03    0.91313E-09   -0.54748E-12 21248   0.200E-10    0.950E-05
DAV:   5    -0.432709569729E+03    0.28740E-09   -0.68980E-12 21248   0.190E-10    0.950E-05
DAV:   6    -0.432709569730E+03   -0.90949E-09    0.43182E-13 21248   0.133E-10
  83 F= -.43270957E+03 E0= -.43270957E+03  d E =0.000000E+00
       N       E                     dE             d eps       ncg     rms          rms(c)
DAV:   1    -0.432709569730E+03   -0.83674E-09   -0.24050E-12 21248   0.217E-10    0.950E-05
DAV:   2    -0.432709569730E+03    0.19645E-09   -0.48726E-12 21248   0.300E-10    0.950E-05
DAV:   3    -0.432709569729E+03    0.43656E-09   -0.70548E-12 21248   0.269E-10    0.950E-05
DAV:   4    -0.432709569730E+03   -0.28012E-09   -0.33354E-13 21248   0.219E-10    0.950E-05
DAV:   5    -0.432709569730E+03   -0.75670E-09   -0.41654E-12 21248   0.202E-10    0.950E-05
DAV:   6    -0.432709569730E+03   -0.83674E-10   -0.22144E-12 21248   0.235E-10
  84 F= -.43270957E+03 E0= -.43270957E+03  d E =0.000000E+00
       N       E                     dE             d eps       ncg     rms          rms(c)
DAV:   1    -0.432709569729E+03    0.93132E-09   -0.19018E-12 21248   0.215E-10    0.950E-05
DAV:   2    -0.432709569729E+03    0.36380E-10   -0.16182E-12 21248   0.272E-10    0.950E-05
DAV:   3    -0.432709569730E+03   -0.50386E-09   -0.20973E-12 21248   0.307E-10    0.950E-05
DAV:   4    -0.432709569730E+03   -0.25284E-09   -0.88333E-13 21248   0.255E-10    0.950E-05
DAV:   5    -0.432709569730E+03   -0.56389E-10   -0.95594E-13 21248   0.297E-10    0.950E-05
DAV:   6    -0.432709569730E+03    0.22737E-09   -0.45392E-12 21248   0.166E-10
  85 F= -.43270957E+03 E0= -.43270957E+03  d E =0.000000E+00
       N       E                     dE             d eps       ncg     rms          rms(c)
DAV:   1    -0.432709569730E+03    0.38744E-09   -0.85427E-12 21248   0.123E-10    0.950E-05
DAV:   2    -0.432709569730E+03    0.20009E-09   -0.42224E-12 21248   0.204E-10    0.950E-05
DAV:   3    -0.432709569729E+03    0.11823E-09   -0.50203E-12 21248   0.238E-10    0.950E-05
DAV:   4    -0.432709569729E+03   -0.14552E-10   -0.61752E-13 21248   0.138E-10    0.950E-05
DAV:   5    -0.432709569729E+03    0.10004E-09   -0.33142E-12 21248   0.240E-10    0.950E-05
DAV:   6    -0.432709569729E+03    0.12369E-09   -0.49647E-12 21248   0.252E-10
  86 F= -.43270957E+03 E0= -.43270957E+03  d E =0.000000E+00
       N       E                     dE             d eps       ncg     rms          rms(c)
DAV:   1    -0.432709569730E+03   -0.61118E-09   -0.39916E-12 21248   0.146E-10    0.950E-05
DAV:   2    -0.432709569730E+03    0.40382E-09   -0.71072E-12 21248   0.174E-10    0.950E-05
DAV:   3    -0.432709569730E+03   -0.79308E-09   -0.81488E-12 21248   0.207E-10    0.950E-05
DAV:   4    -0.432709569730E+03    0.52751E-09   -0.68640E-12 21248   0.145E-10    0.950E-05
DAV:   5    -0.432709569730E+03   -0.18190E-09   -0.29484E-12 21248   0.246E-10    0.950E-05
DAV:   6    -0.432709569729E+03    0.84037E-09   -0.36034E-12 21248   0.195E-10
  87 F= -.43270957E+03 E0= -.43270957E+03  d E =0.000000E+00
       N       E                     dE             d eps       ncg     rms          rms(c)
DAV:   1    -0.432709569729E+03    0.74942E-09   -0.17676E-13 21248   0.162E-10    0.950E-05
DAV:   2    -0.432709569730E+03   -0.46202E-09    0.25753E-12 21248   0.185E-10    0.950E-05
DAV:   3    -0.432709569730E+03   -0.14552E-10   -0.25599E-12 21248   0.226E-10    0.950E-05
DAV:   4    -0.432709569730E+03   -0.46930E-09   -0.54464E-12 21248   0.153E-10    0.950E-05
DAV:   5    -0.432709569730E+03    0.61846E-10   -0.50785E-14 21248   0.125E-10    0.950E-05
DAV:   6    -0.432709569730E+03    0.25466E-10   -0.73513E-12 21248   0.248E-10
  88 F= -.43270957E+03 E0= -.43270957E+03  d E =0.000000E+00
       N       E                     dE             d eps       ncg     rms          rms(c)
DAV:   1    -0.432709569729E+03    0.96406E-09   -0.73395E-12 21248   0.239E-10    0.950E-05
DAV:   2    -0.432709569729E+03   -0.22919E-09   -0.89829E-12 21248   0.325E-10    0.950E-05
DAV:   3    -0.432709569729E+03    0.13097E-09    0.23834E-12 21248   0.219E-10    0.950E-05
DAV:   4    -0.432709569730E+03   -0.10150E-08   -0.78633E-12 21248   0.137E-10    0.950E-05
DAV:   5    -0.432709569729E+03    0.11860E-08   -0.13634E-12 21248   0.160E-10    0.950E-05
DAV:   6    -0.432709569730E+03   -0.97134E-09   -0.31045E-12 21248   0.224E-10
  89 F= -.43270957E+03 E0= -.43270957E+03  d E =0.000000E+00
       N       E                     dE             d eps       ncg     rms          rms(c)
DAV:   1    -0.432709569730E+03   -0.97134E-09   -0.73149E-12 21248   0.260E-10    0.950E-05
DAV:   2    -0.432709569730E+03    0.29831E-09   -0.34394E-12 21248   0.275E-10    0.950E-05
DAV:   3    -0.432709569730E+03    0.22919E-09   -0.39194E-12 21248   0.195E-10    0.950E-05
DAV:   4    -0.432709569729E+03    0.41473E-09   -0.35615E-12 21248   0.245E-10    0.950E-05
DAV:   5    -0.432709569730E+03   -0.54206E-09   -0.65585E-15 21248   0.218E-10    0.950E-05
DAV:   6    -0.432709569729E+03    0.23647E-09   -0.47954E-12 21248   0.183E-10
  90 F= -.43270957E+03 E0= -.43270957E+03  d E =0.000000E+00
       N       E                     dE             d eps       ncg     rms          rms(c)
DAV:   1    -0.432709569729E+03    0.26921E-09   -0.21744E-12 21248   0.260E-10    0.950E-05
DAV:   2    -0.432709569729E+03    0.30923E-09   -0.48612E-13 21248   0.285E-10    0.950E-05
DAV:   3    -0.432709569729E+03   -0.31287E-09    0.79652E-13 21248   0.345E-10    0.950E-05
DAV:   4    -0.432709569729E+03    0.36380E-10   -0.74304E-12 21248   0.164E-10    0.950E-05
DAV:   5    -0.432709569730E+03   -0.36744E-09   -0.76497E-12 21248   0.193E-10    0.950E-05
DAV:   6    -0.432709569730E+03   -0.52023E-09   -0.91948E-12 21248   0.212E-10
  91 F= -.43270957E+03 E0= -.43270957E+03  d E =0.000000E+00
       N       E                     dE             d eps       ncg     rms          rms(c)
DAV:   1    -0.432709569729E+03    0.31287E-09   -0.69371E-12 21248   0.193E-10    0.950E-05
DAV:   2    -0.432709569730E+03   -0.20009E-09   -0.51660E-12 21248   0.265E-10    0.950E-05
DAV:   3    -0.432709569729E+03    0.11460E-09   -0.44287E-12 21248   0.253E-10    0.950E-05
DAV:   4    -0.432709569730E+03   -0.50386E-09   -0.79920E-12 21248   0.186E-10    0.950E-05
DAV:   5    -0.432709569729E+03    0.80763E-09   -0.51133E-12 21248   0.204E-10    0.950E-05
DAV:   6    -0.432709569730E+03   -0.37289E-09   -0.69013E-12 21248   0.165E-10
  92 F= -.43270957E+03 E0= -.43270957E+03  d E =0.000000E+00
       N       E                     dE             d eps       ncg     rms          rms(c)
DAV:   1    -0.432709569730E+03   -0.88039E-09   -0.32855E-12 21248   0.129E-10    0.950E-05
DAV:   2    -0.432709569730E+03    0.14734E-09   -0.70574E-12 21248   0.252E-10    0.950E-05
DAV:   3    -0.432709569730E+03   -0.20009E-10    0.13382E-12 21248   0.331E-10    0.950E-05
DAV:   4    -0.432709569730E+03   -0.42928E-09   -0.42197E-12 21248   0.214E-10    0.950E-05
DAV:   5    -0.432709569730E+03    0.67303E-10   -0.59936E-12 21248   0.231E-10    0.950E-05
DAV:   6    -0.432709569730E+03    0.64938E-09   -0.37794E-12 21248   0.252E-10
  93 F= -.43270957E+03 E0= -.43270957E+03  d E =0.000000E+00
       N       E                     dE             d eps       ncg     rms          rms(c)
DAV:   1    -0.432709569730E+03    0.46020E-09    0.55294E-13 21248   0.151E-10    0.950E-05
DAV:   2    -0.432709569730E+03   -0.15280E-09   -0.36095E-12 21248   0.157E-10    0.950E-05
DAV:   3    -0.432709569730E+03   -0.35834E-09   -0.38031E-12 21248   0.154E-10    0.950E-05
DAV:   4    -0.432709569730E+03    0.64938E-09   -0.30577E-12 21248   0.166E-10    0.950E-05
DAV:   5    -0.432709569729E+03    0.22919E-09   -0.12876E-12 21248   0.174E-10    0.950E-05
DAV:   6    -0.432709569730E+03   -0.68758E-09   -0.28248E-12 21248   0.154E-10
  94 F= -.43270957E+03 E0= -.43270957E+03  d E =0.000000E+00
       N       E                     dE             d eps       ncg     rms          rms(c)
DAV:   1    -0.432709569730E+03   -0.19281E-09   -0.47107E-12 21248   0.146E-10    0.950E-05
DAV:   2    -0.432709569730E+03   -0.41109E-09   -0.36131E-12 21248   0.205E-10    0.950E-05
DAV:   3    -0.432709569729E+03    0.74579E-09    0.37253E-12 21248   0.303E-10    0.950E-05
DAV:   4    -0.432709569730E+03   -0.33106E-09   -0.39717E-12 21248   0.231E-10    0.950E-05
DAV:   5    -0.432709569729E+03    0.48749E-09   -0.42351E-12 21248   0.186E-10    0.950E-05
DAV:   6    -0.432709569730E+03   -0.68030E-09   -0.75089E-12 21248   0.137E-10
  95 F= -.43270957E+03 E0= -.43270957E+03  d E =0.000000E+00
       N       E                     dE             d eps       ncg     rms          rms(c)
DAV:   1    -0.432709569730E+03   -0.67666E-09   -0.38381E-12 21248   0.230E-10    0.950E-05
DAV:   2    -0.432709569730E+03    0.29286E-09   -0.29939E-12 21248   0.222E-10    0.950E-05
DAV:   3    -0.432709569730E+03   -0.11096E-09   -0.55314E-12 21248   0.188E-10    0.950E-05
DAV:   4    -0.432709569730E+03    0.58208E-10   -0.68228E-12 21248   0.225E-10    0.950E-05
DAV:   5    -0.432709569729E+03    0.56571E-09   -0.72135E-12 21248   0.222E-10    0.950E-05
DAV:   6    -0.432709569730E+03   -0.68940E-09   -0.27329E-12 21248   0.107E-10
  96 F= -.43270957E+03 E0= -.43270957E+03  d E =0.000000E+00
       N       E                     dE             d eps       ncg     rms          rms(c)
DAV:   1    -0.432709569730E+03   -0.78398E-09   -0.13412E-12 21248   0.141E-10    0.950E-05
DAV:   2    -0.432709569730E+03    0.11278E-09    0.31385E-12 21248   0.278E-10    0.950E-05
DAV:   3    -0.432709569729E+03    0.31832E-09   -0.90866E-13 21248   0.210E-10    0.950E-05
DAV:   4    -0.432709569730E+03   -0.20373E-09   -0.13970E-12 21248   0.134E-10    0.950E-05
DAV:   5    -0.432709569730E+03   -0.75124E-09   -0.47158E-12 21248   0.192E-10    0.950E-05
DAV:   6    -0.432709569730E+03    0.44747E-09   -0.22113E-13 21248   0.154E-10
  97 F= -.43270957E+03 E0= -.43270957E+03  d E =0.000000E+00
       N       E                     dE             d eps       ncg     rms          rms(c)
DAV:   1    -0.432709569729E+03    0.12697E-08   -0.39391E-12 21248   0.212E-10    0.950E-05
DAV:   2    -0.432709569730E+03   -0.11423E-08   -0.27245E-12 21248   0.365E-10    0.950E-05
DAV:   3    -0.432709569730E+03    0.54206E-09   -0.38432E-12 21248   0.229E-10    0.950E-05
DAV:   4    -0.432709569729E+03    0.34925E-09   -0.41707E-12 21248   0.190E-10    0.950E-05
DAV:   5    -0.432709569729E+03    0.32924E-09   -0.66350E-12 21248   0.262E-10    0.950E-05
DAV:   6    -0.432709569730E+03   -0.63847E-09   -0.10012E-11 21248   0.156E-10
  98 F= -.43270957E+03 E0= -.43270957E+03  d E =0.000000E+00
       N       E                     dE             d eps       ncg     rms          rms(c)
DAV:   1    -0.432709569729E+03   -0.19099E-09   -0.91096E-12 21248   0.232E-10    0.950E-05
DAV:   2    -0.432709569730E+03   -0.29831E-09   -0.87521E-12 21248   0.252E-10    0.950E-05
DAV:   3    -0.432709569730E+03   -0.72760E-11   -0.74611E-14 21248   0.205E-10    0.950E-05
DAV:   4    -0.432709569729E+03    0.61846E-10   -0.62739E-12 21248   0.148E-10    0.950E-05
DAV:   5    -0.432709569730E+03   -0.84765E-09   -0.40512E-12 21248   0.168E-10    0.950E-05
DAV:   6    -0.432709569729E+03    0.91677E-09   -0.89869E-12 21248   0.145E-10
  99 F= -.43270957E+03 E0= -.43270957E+03  d E =0.000000E+00
       N       E                     dE             d eps       ncg     rms          rms(c)
DAV:   1    -0.432709569730E+03    0.73123E-09   -0.92545E-12 21248   0.175E-10    0.950E-05
DAV:   2    -0.432709569730E+03   -0.10550E-09   -0.69864E-12 21248   0.230E-10    0.950E-05
DAV:   3    -0.432709569729E+03    0.57298E-09   -0.84318E-12 21248   0.233E-10    0.950E-05
DAV:   4    -0.432709569729E+03   -0.35106E-09    0.18019E-13 21248   0.293E-10    0.950E-05
DAV:   5    -0.432709569730E+03   -0.66575E-09   -0.42904E-12 21248   0.191E-10    0.950E-05
DAV:   6    -0.432709569730E+03   -0.15280E-09   -0.14084E-12 21248   0.162E-10
 100 F= -.43270957E+03 E0= -.43270957E+03  d E =0.000000E+00
