 B  C 
 1.0000000000000000
    10.4226266167675394    0.0000000000000000    0.0000000000000000
     4.7759154201281682    9.4341958883676735    0.0000000000000000
     2.4002218389759933    1.0584289590144120    4.4895710482053603
 B   C  
  45  15
Cartesian
  5.4863124963401466  4.6232481568180548  3.6152829837959435
  7.9130661851181099  9.4040430140590097  3.6426175397249421
 10.6482690458363116  4.6616669914001827  3.5967713629160913
 13.0825539668992938  9.3685406645352050  3.6118641054176841
  6.8354926523251915  4.1369217177068078  1.3696508584147491
  9.2849569719016145  8.8615719504256827  1.3901862633160420
 12.0700185848050818  4.1074710611581242  1.3928309825499463
 14.5008889321276744  8.8588646284753700  1.4272856840802330
  6.9051762210789676  2.3235617445642558  3.6132004736372352
  9.2112171089914678  7.0433386933194679  3.5938560103313990
 12.1156432164402226  2.3479390693793505  3.6440337980437771
 14.4650858851418125  7.0043637819494924  3.6146018781881661
  4.5449508305845665  1.1211921630452448  0.8680185277931091
  6.8560700620715105  5.8343950789721220  0.8428756609371988
  9.7536306054319972  1.1483052392896316  0.9069663215348724
 12.1099783676565895  5.8107083968312399  0.8600147111261891
  3.1711944568264965  1.6760625178815012  3.1153382813885901
  5.5116568804944581  6.3355721589799661  3.0884200328684943
  8.3532592237090668  1.6441938300075947  3.0777965598143431
 10.6817514877320647  6.3604846115441100  3.0715280589355753
  3.1241895958568953  3.4285546994409897  0.8715755483236159
  5.5498439952584624  8.1941492583382587  0.9180347534578828
  8.2830767868597448  3.4606666290912509  0.8374364310253192
 10.7285032357931058  8.1710740219670317  0.8582651558081675
  8.1659006695688507  5.7324629439133421  4.4397467914734552
 10.6715503990011236 10.4740005499333328  4.4518859045132251
 13.4359291393062357  5.6977072396452018  4.4467854214356413
 15.8819064915122361 10.4616524329731799  4.4696840842963832
  9.0962097263750774  5.3969905482643261  2.9793398698623141
 11.5560237032651809 10.1144823031553805  3.0038250159242543
 14.3711451028511590  5.3514215555637508  3.0143123786653279
  9.1147836288016002  4.2246270367499648  4.4327043640445067
 11.5383259749425253  8.9379063223478941  4.4504324761041518
 14.3576733365060996  4.1649186886590250  4.4615671672587398
 16.8012778956314506  8.9434976586236914  4.4710819904658319
  1.7837345592893894  0.0764739191701286  0.0710503181588903
  6.9733144653135488  0.0441888524073439  0.0129092993866494
  9.3036300942155297  4.7585359175482003  0.0102365435415555
  0.8909248413343361  0.4131663375797727  1.5626272627431108
  3.2339303517636653  5.0779670940990709  1.4595611918448945
  6.0803058751065118  0.3830887955752647  1.4628348078670139
  8.3987077865328406  5.1005665120724766  1.4370508000806685
  3.2257583258327527  6.2598253731084004  0.0192886057786232
  6.0625769208611064  1.5573385633026462  0.0212459814657325
  8.4012896766125404  6.2790241452204940  0.0079067792266717
 16.8263202686623039 10.1568332311640628  3.1022516045052777
  4.0652666052573680  4.7338291124017289  0.0212834473284388
  0.8458301258251696  1.5162356438534454  0.0698524669979795
  6.1486203403519362  3.5470079144054338  2.7550601411796585
  8.4991942258919284  8.3195805751619094  2.7351136991923903
 11.3524821614834650  3.5128387169317890  2.7644877160369061
 13.7170736721841902  8.2304041949629720  2.7374678323069310
  3.8966053185260101  2.2516590808743042  1.7618369221601533
  6.2826645778396619  6.9412146480422319  1.7670319612694765
  9.0853322284019704  2.2794076059752792  1.7063142080399629
 11.4784278013683423  6.9378756037062095  1.7299920458666866
  5.0390962986101089  2.8796655073152788  2.2611655100560131
  7.4115300808711613  7.6076406532278114  2.2513730044756617
 10.2030076189206635  2.8893215828190972  2.2691564889485050
 12.5797830206277439  7.5985007216993594  2.2402167789338074
