   30   30  100    1
  0.7112307E+01  0.9872974E-09  0.4879697E-09  0.5892733E-09  0.5000000E-15
  1.000000000000000E-004
  CAR 
 unknown system                          
     97    364     72
 
  0.0000000E+00  0.0000000E+00  0.0000000E+00  0.1388889E-02
    1      -11.751054   1.000000
    2      -10.865587   1.000000
    3       -9.997244   1.000000
    4       -8.640621   1.000000
    5       -8.099070   1.000000
    6       -8.057220   1.000000
    7       -6.955210   1.000000
    8       -5.917783   1.000000
    9       -5.816689   1.000000
   10       -4.728034   1.000000
   11       -4.237768   1.000000
   12       -3.703476   1.000000
   13       -3.631248   1.000000
   14       -3.310130   1.000000
   15       -3.183176   1.000000
   16       -3.030527   1.000000
   17       -2.645197   1.000000
   18       -1.796672   1.000000
   19       -1.783823   1.000000
   20       -1.610856   1.000000
   21       -1.461271   1.000000
   22       -1.122126   1.000000
   23       -0.915412   1.000000
   24       -0.785511   1.000000
   25       -0.345323   1.000000
   26       -0.251653   1.000000
   27       -0.128732   1.000000
   28        0.117733   1.000000
   29        0.853839   1.000000
   30        1.388304   1.000000
   31        1.669258   1.000000
   32        2.015270   1.000000
   33        2.111159   1.000000
   34        2.328716   1.000000
   35        2.683738   1.000000
   36        2.764799   1.000000
   37        2.838315   1.000000
   38        3.126885   1.000000
   39        3.581402   1.000000
   40        3.651372   1.000000
   41        3.700034   1.000000
   42        3.799563   1.000000
   43        4.265825   1.000000
   44        4.450721   1.000000
   45        4.598170   1.000000
   46        4.650830   1.000000
   47        4.861693   1.000000
   48        5.815511   1.000000
   49        6.884895   0.000000
   50        7.263120   0.000000
   51        7.585371   0.000000
   52        8.103261   0.000000
   53        8.744495   0.000000
   54        9.611362   0.000000
   55        9.650966   0.000000
   56       10.262972   0.000000
   57       10.305511   0.000000
   58       10.712021   0.000000
   59       11.020939   0.000000
   60       11.103556   0.000000
   61       11.659424   0.000000
   62       11.934746   0.000000
   63       12.139095   0.000000
   64       12.492564   0.000000
   65       12.768065   0.000000
   66       12.941894   0.000000
   67       13.172048   0.000000
   68       13.255805   0.000000
   69       13.560523   0.000000
   70       13.699172   0.000000
   71       13.792841   0.000000
   72       13.933890   0.000000
 
  0.1666667E+00  0.6938894E-17  0.6938894E-17  0.2777778E-02
    1      -11.734233   1.000000
    2      -10.929734   1.000000
    3       -9.919112   1.000000
    4       -8.665670   1.000000
    5       -8.104383   1.000000
    6       -8.064477   1.000000
    7       -6.944089   1.000000
    8       -5.907925   1.000000
    9       -5.814580   1.000000
   10       -4.737405   1.000000
   11       -4.333639   1.000000
   12       -3.750356   1.000000
   13       -3.647130   1.000000
   14       -3.228216   1.000000
   15       -3.134538   1.000000
   16       -2.882754   1.000000
   17       -2.576544   1.000000
   18       -2.041610   1.000000
   19       -1.819125   1.000000
   20       -1.719948   1.000000
   21       -1.422801   1.000000
   22       -1.181750   1.000000
   23       -0.847214   1.000000
   24       -0.722178   1.000000
   25       -0.343165   1.000000
   26       -0.240822   1.000000
   27        0.057196   1.000000
   28        0.305769   1.000000
   29        0.542502   1.000000
   30        1.423075   1.000000
   31        1.672039   1.000000
   32        2.008188   1.000000
   33        2.198087   1.000000
   34        2.475616   1.000000
   35        2.532868   1.000000
   36        2.769155   1.000000
   37        2.922720   1.000000
   38        3.073760   1.000000
   39        3.457530   1.000000
   40        3.555999   1.000000
   41        3.648717   1.000000
   42        3.854532   1.000000
   43        4.345119   1.000000
   44        4.428852   1.000000
   45        4.502996   1.000000
   46        4.700054   1.000000
   47        4.826084   1.000000
   48        5.744492   1.000000
   49        6.924905   0.000000
   50        7.273048   0.000000
   51        7.640853   0.000000
   52        8.079967   0.000000
   53        8.753340   0.000000
   54        9.594456   0.000000
   55        9.776630   0.000000
   56       10.325287   0.000000
   57       10.432880   0.000000
   58       10.764739   0.000000
   59       11.008437   0.000000
   60       11.125719   0.000000
   61       11.644943   0.000000
   62       11.886227   0.000000
   63       12.114740   0.000000
   64       12.380704   0.000000
   65       12.765657   0.000000
   66       12.997375   0.000000
   67       13.158942   0.000000
   68       13.302222   0.000000
   69       13.547913   0.000000
   70       13.729989   0.000000
   71       13.779390   0.000000
   72       13.904691   0.000000
 
  0.3333333E+00  0.0000000E+00  0.1387779E-16  0.2777778E-02
    1      -11.695346   1.000000
    2      -11.045754   1.000000
    3       -9.772342   1.000000
    4       -8.724462   1.000000
    5       -8.115367   1.000000
    6       -8.078001   1.000000
    7       -6.921445   1.000000
    8       -5.883479   1.000000
    9       -5.812289   1.000000
   10       -4.758580   1.000000
   11       -4.493756   1.000000
   12       -3.851777   1.000000
   13       -3.619086   1.000000
   14       -3.103521   1.000000
   15       -2.981825   1.000000
   16       -2.610097   1.000000
   17       -2.471306   1.000000
   18       -2.295283   1.000000
   19       -2.024151   1.000000
   20       -1.817483   1.000000
   21       -1.604336   1.000000
   22       -1.145821   1.000000
   23       -0.970712   1.000000
   24       -0.510427   1.000000
   25       -0.340891   1.000000
   26       -0.008226   1.000000
   27        0.186823   1.000000
   28        0.398308   1.000000
   29        0.645014   1.000000
   30        1.059632   1.000000
   31        1.810244   1.000000
   32        2.080552   1.000000
   33        2.165601   1.000000
   34        2.419673   1.000000
   35        2.629700   1.000000
   36        2.732856   1.000000
   37        2.949411   1.000000
   38        3.022947   1.000000
   39        3.256272   1.000000
   40        3.506919   1.000000
   41        3.670799   1.000000
   42        4.007702   1.000000
   43        4.191683   1.000000
   44        4.279947   1.000000
   45        4.578099   1.000000
   46        4.604530   1.000000
   47        4.886588   1.000000
   48        5.576412   1.000000
   49        7.029795   0.000000
   50        7.250940   0.000000
   51        7.772319   0.000000
   52        8.016205   0.000000
   53        8.777595   0.000000
   54        9.615592   0.000000
   55        9.990431   0.000000
   56       10.469937   0.000000
   57       10.707368   0.000000
   58       10.844399   0.000000
   59       10.987857   0.000000
   60       11.231811   0.000000
   61       11.561855   0.000000
   62       11.828330   0.000000
   63       12.060465   0.000000
   64       12.156387   0.000000
   65       12.805040   0.000000
   66       12.957796   0.000000
   67       13.121709   0.000000
   68       13.373509   0.000000
   69       13.498326   0.000000
   70       13.668718   0.000000
   71       13.839600   0.000000
   72       13.898788   0.000000
 
  0.5000000E+00  0.0000000E+00  0.0000000E+00  0.1388889E-02
    1      -11.672183   1.000000
    2      -11.101716   1.000000
    3       -9.699249   1.000000
    4       -8.759721   1.000000
    5       -8.121050   1.000000
    6       -8.084228   1.000000
    7       -6.909924   1.000000
    8       -5.867384   1.000000
    9       -5.813440   1.000000
   10       -4.771156   1.000000
   11       -4.563700   1.000000
   12       -3.893367   1.000000
   13       -3.598516   1.000000
   14       -3.046062   1.000000
   15       -2.868360   1.000000
   16       -2.529111   1.000000
   17       -2.447515   1.000000
   18       -2.307748   1.000000
   19       -2.133907   1.000000
   20       -1.921892   1.000000
   21       -1.663259   1.000000
   22       -1.187142   1.000000
   23       -0.864219   1.000000
   24       -0.715510   1.000000
   25       -0.284891   1.000000
   26        0.159393   1.000000
   27        0.356371   1.000000
   28        0.534930   1.000000
   29        0.725715   1.000000
   30        0.760430   1.000000
   31        2.004428   1.000000
   32        2.057628   1.000000
   33        2.063654   1.000000
   34        2.333935   1.000000
   35        2.533657   1.000000
   36        2.648603   1.000000
   37        2.953826   1.000000
   38        3.155526   1.000000
   39        3.351865   1.000000
   40        3.485666   1.000000
   41        3.660289   1.000000
   42        3.896990   1.000000
   43        4.185141   1.000000
   44        4.293051   1.000000
   45        4.529625   1.000000
   46        4.585164   1.000000
   47        4.915048   1.000000
   48        5.478198   1.000000
   49        7.151462   0.000000
   50        7.164974   0.000000
   51        7.887317   0.000000
   52        7.935202   0.000000
   53        8.793251   0.000000
   54        9.631077   0.000000
   55       10.107339   0.000000
   56       10.526582   0.000000
   57       10.832472   0.000000
   58       10.941007   0.000000
   59       11.001061   0.000000
   60       11.303670   0.000000
   61       11.462894   0.000000
   62       11.839954   0.000000
   63       11.972264   0.000000
   64       12.078744   0.000000
   65       12.825840   0.000000
   66       12.884390   0.000000
   67       13.101856   0.000000
   68       13.336090   0.000000
   69       13.487246   0.000000
   70       13.604371   0.000000
   71       13.862294   0.000000
   72       13.892298   0.000000
 
  0.0000000E+00  0.8333333E-01 -0.1387779E-16  0.2777778E-02
    1      -11.723354   1.000000
    2      -10.855540   1.000000
    3       -9.984060   1.000000
    4       -8.681854   1.000000
    5       -8.172305   1.000000
    6       -8.064317   1.000000
    7       -6.899511   1.000000
    8       -5.945646   1.000000
    9       -5.802259   1.000000
   10       -4.859446   1.000000
   11       -4.350990   1.000000
   12       -3.810856   1.000000
   13       -3.672747   1.000000
   14       -3.210150   1.000000
   15       -3.055276   1.000000
   16       -2.813963   1.000000
   17       -2.554758   1.000000
   18       -1.999766   1.000000
   19       -1.857368   1.000000
   20       -1.547191   1.000000
   21       -1.349360   1.000000
   22       -1.260908   1.000000
   23       -0.846311   1.000000
   24       -0.717770   1.000000
   25       -0.601256   1.000000
   26       -0.177340   1.000000
   27        0.170832   1.000000
   28        0.411858   1.000000
   29        0.599892   1.000000
   30        1.540754   1.000000
   31        1.837266   1.000000
   32        2.022851   1.000000
   33        2.154668   1.000000
   34        2.329342   1.000000
   35        2.499022   1.000000
   36        2.737043   1.000000
   37        2.909071   1.000000
   38        3.065411   1.000000
   39        3.396340   1.000000
   40        3.547808   1.000000
   41        3.740600   1.000000
   42        3.849090   1.000000
   43        4.289514   1.000000
   44        4.373151   1.000000
   45        4.542182   1.000000
   46        4.649196   1.000000
   47        4.873934   1.000000
   48        5.748028   1.000000
   49        6.853437   0.000000
   50        7.272313   0.000000
   51        7.616852   0.000000
   52        8.087266   0.000000
   53        8.764005   0.000000
   54        9.547575   0.000000
   55        9.739272   0.000000
   56       10.265200   0.000000
   57       10.313808   0.000000
   58       10.763398   0.000000
   59       11.005367   0.000000
   60       11.100229   0.000000
   61       11.569667   0.000000
   62       11.830515   0.000000
   63       12.073351   0.000000
   64       12.301584   0.000000
   65       12.820136   0.000000
   66       13.035191   0.000000
   67       13.168710   0.000000
   68       13.366320   0.000000
   69       13.515611   0.000000
   70       13.717670   0.000000
   71       13.738779   0.000000
   72       13.901249   0.000000
 
  0.1666667E+00  0.8333333E-01 -0.1387779E-16  0.2777778E-02
    1      -11.714686   1.000000
    2      -10.890118   1.000000
    3       -9.940352   1.000000
    4       -8.686370   1.000000
    5       -8.195973   1.000000
    6       -8.066828   1.000000
    7       -6.896573   1.000000
    8       -5.924965   1.000000
    9       -5.781718   1.000000
   10       -4.881504   1.000000
   11       -4.361825   1.000000
   12       -3.831085   1.000000
   13       -3.639260   1.000000
   14       -3.241251   1.000000
   15       -3.070237   1.000000
   16       -2.792594   1.000000
   17       -2.481531   1.000000
   18       -2.111985   1.000000
   19       -1.898808   1.000000
   20       -1.567029   1.000000
   21       -1.496948   1.000000
   22       -1.098440   1.000000
   23       -0.916328   1.000000
   24       -0.742256   1.000000
   25       -0.403881   1.000000
   26       -0.185973   1.000000
   27        0.236716   1.000000
   28        0.526886   1.000000
   29        0.821947   1.000000
   30        1.362818   1.000000
   31        1.709650   1.000000
   32        1.857903   1.000000
   33        2.117988   1.000000
   34        2.329679   1.000000
   35        2.498048   1.000000
   36        2.761771   1.000000
   37        2.934236   1.000000
   38        3.052899   1.000000
   39        3.346053   1.000000
   40        3.626513   1.000000
   41        3.676491   1.000000
   42        3.826156   1.000000
   43        4.238167   1.000000
   44        4.399854   1.000000
   45        4.519923   1.000000
   46        4.767004   1.000000
   47        4.942310   1.000000
   48        5.685795   1.000000
   49        6.865623   0.000000
   50        7.273470   0.000000
   51        7.758839   0.000000
   52        7.983905   0.000000
   53        8.728571   0.000000
   54        9.495803   0.000000
   55        9.831976   0.000000
   56       10.283348   0.000000
   57       10.404578   0.000000
   58       10.755196   0.000000
   59       11.030593   0.000000
   60       11.110019   0.000000
   61       11.550293   0.000000
   62       11.832185   0.000000
   63       12.062242   0.000000
   64       12.232898   0.000000
   65       12.830015   0.000000
   66       13.055723   0.000000
   67       13.209272   0.000000
   68       13.425328   0.000000
   69       13.497182   0.000000
   70       13.642402   0.000000
   71       13.755708   0.000000
   72       13.829727   0.000000
 
  0.3333333E+00  0.8333333E-01 -0.2775558E-16  0.2777778E-02
    1      -11.679375   1.000000
    2      -11.001220   1.000000
    3       -9.804877   1.000000
    4       -8.724943   1.000000
    5       -8.214774   1.000000
    6       -8.082763   1.000000
    7       -6.883754   1.000000
    8       -5.896435   1.000000
    9       -5.763981   1.000000
   10       -4.870178   1.000000
   11       -4.516040   1.000000
   12       -3.896765   1.000000
   13       -3.610738   1.000000
   14       -3.233661   1.000000
   15       -2.935341   1.000000
   16       -2.687530   1.000000
   17       -2.367659   1.000000
   18       -2.311129   1.000000
   19       -1.988263   1.000000
   20       -1.777138   1.000000
   21       -1.490735   1.000000
   22       -0.988649   1.000000
   23       -0.911209   1.000000
   24       -0.609338   1.000000
   25       -0.228491   1.000000
   26       -0.028383   1.000000
   27        0.166645   1.000000
   28        0.572948   1.000000
   29        0.790164   1.000000
   30        1.157104   1.000000
   31        1.631090   1.000000
   32        2.027826   1.000000
   33        2.190188   1.000000
   34        2.308119   1.000000
   35        2.445709   1.000000
   36        2.696240   1.000000
   37        2.836642   1.000000
   38        3.066652   1.000000
   39        3.367489   1.000000
   40        3.556637   1.000000
   41        3.663204   1.000000
   42        3.914604   1.000000
   43        4.201258   1.000000
   44        4.290061   1.000000
   45        4.454754   1.000000
   46        4.798233   1.000000
   47        4.971531   1.000000
   48        5.562879   1.000000
   49        6.960059   0.000000
   50        7.243695   0.000000
   51        7.844864   0.000000
   52        7.943617   0.000000
   53        8.748301   0.000000
   54        9.547999   0.000000
   55       10.006887   0.000000
   56       10.382950   0.000000
   57       10.659879   0.000000
   58       10.807013   0.000000
   59       11.001410   0.000000
   60       11.183853   0.000000
   61       11.494911   0.000000
   62       11.790772   0.000000
   63       11.990572   0.000000
   64       12.108320   0.000000
   65       12.861672   0.000000
   66       13.009558   0.000000
   67       13.102351   0.000000
   68       13.348525   0.000000
   69       13.571507   0.000000
   70       13.634396   0.000000
   71       13.838974   0.000000
   72       13.888393   0.000000
 
  0.5000000E+00  0.8333333E-01  0.2775558E-16  0.2777778E-02
    1      -11.648639   1.000000
    2      -11.076977   1.000000
    3       -9.713920   1.000000
    4       -8.762910   1.000000
    5       -8.207992   1.000000
    6       -8.098780   1.000000
    7       -6.874042   1.000000
    8       -5.880657   1.000000
    9       -5.772715   1.000000
   10       -4.812150   1.000000
   11       -4.670693   1.000000
   12       -3.932980   1.000000
   13       -3.612183   1.000000
   14       -3.144940   1.000000
   15       -2.934251   1.000000
   16       -2.619059   1.000000
   17       -2.413618   1.000000
   18       -2.261079   1.000000
   19       -1.940173   1.000000
   20       -1.752199   1.000000
   21       -1.524667   1.000000
   22       -1.308965   1.000000
   23       -0.682290   1.000000
   24       -0.520931   1.000000
   25       -0.312094   1.000000
   26        0.100775   1.000000
   27        0.322261   1.000000
   28        0.508492   1.000000
   29        0.676889   1.000000
   30        0.914617   1.000000
   31        1.768913   1.000000
   32        2.019550   1.000000
   33        2.137344   1.000000
   34        2.293542   1.000000
   35        2.551030   1.000000
   36        2.782954   1.000000
   37        3.019687   1.000000
   38        3.054618   1.000000
   39        3.283830   1.000000
   40        3.560114   1.000000
   41        3.631752   1.000000
   42        3.909344   1.000000
   43        4.023964   1.000000
   44        4.298885   1.000000
   45        4.390027   1.000000
   46        4.727392   1.000000
   47        4.967707   1.000000
   48        5.497421   1.000000
   49        7.100590   0.000000
   50        7.161511   0.000000
   51        7.737705   0.000000
   52        8.051131   0.000000
   53        8.806287   0.000000
   54        9.634914   0.000000
   55       10.111450   0.000000
   56       10.458999   0.000000
   57       10.792351   0.000000
   58       10.912884   0.000000
   59       10.981002   0.000000
   60       11.265161   0.000000
   61       11.387818   0.000000
   62       11.758688   0.000000
   63       11.941503   0.000000
   64       12.074302   0.000000
   65       12.823361   0.000000
   66       12.923563   0.000000
   67       13.053305   0.000000
   68       13.244925   0.000000
   69       13.547718   0.000000
   70       13.681808   0.000000
   71       13.931392   0.000000
   72       13.961896   0.000000
 
 -0.3333333E+00  0.8333333E-01 -0.2775558E-16  0.2777778E-02
    1      -11.660980   1.000000
    2      -11.047252   1.000000
    3       -9.754305   1.000000
    4       -8.752323   1.000000
    5       -8.177613   1.000000
    6       -8.103977   1.000000
    7       -6.877772   1.000000
    8       -5.901741   1.000000
    9       -5.793348   1.000000
   10       -4.816953   1.000000
   11       -4.617854   1.000000
   12       -3.929637   1.000000
   13       -3.637370   1.000000
   14       -3.194004   1.000000
   15       -2.922376   1.000000
   16       -2.596724   1.000000
   17       -2.323410   1.000000
   18       -2.198905   1.000000
   19       -1.970173   1.000000
   20       -1.780166   1.000000
   21       -1.571790   1.000000
   22       -1.157752   1.000000
   23       -0.800855   1.000000
   24       -0.501128   1.000000
   25       -0.248068   1.000000
   26       -0.014085   1.000000
   27        0.130026   1.000000
   28        0.370784   1.000000
   29        0.650451   1.000000
   30        0.954022   1.000000
   31        1.960594   1.000000
   32        2.017569   1.000000
   33        2.217906   1.000000
   34        2.408484   1.000000
   35        2.585937   1.000000
   36        2.804553   1.000000
   37        2.924852   1.000000
   38        3.170907   1.000000
   39        3.343924   1.000000
   40        3.486374   1.000000
   41        3.708674   1.000000
   42        3.881283   1.000000
   43        4.043232   1.000000
   44        4.130534   1.000000
   45        4.314093   1.000000
   46        4.689570   1.000000
   47        5.014969   1.000000
   48        5.550741   1.000000
   49        7.038318   0.000000
   50        7.219258   0.000000
   51        7.626038   0.000000
   52        8.121720   0.000000
   53        8.839519   0.000000
   54        9.696086   0.000000
   55        9.984308   0.000000
   56       10.462949   0.000000
   57       10.687320   0.000000
   58       10.860543   0.000000
   59       10.958307   0.000000
   60       11.200065   0.000000
   61       11.501207   0.000000
   62       11.777573   0.000000
   63       11.993749   0.000000
   64       12.066521   0.000000
   65       12.774403   0.000000
   66       12.926976   0.000000
   67       13.132158   0.000000
   68       13.311274   0.000000
   69       13.508217   0.000000
   70       13.698634   0.000000
   71       13.909685   0.000000
   72       14.007401   0.000000
 
 -0.1666667E+00  0.8333333E-01 -0.6505213E-17  0.2777778E-02
    1      -11.699611   1.000000
    2      -10.939713   1.000000
    3       -9.886106   1.000000
    4       -8.710754   1.000000
    5       -8.161397   1.000000
    6       -8.084616   1.000000
    7       -6.890449   1.000000
    8       -5.938067   1.000000
    9       -5.805257   1.000000
   10       -4.838142   1.000000
   11       -4.463101   1.000000
   12       -3.881526   1.000000
   13       -3.663623   1.000000
   14       -3.245853   1.000000
   15       -2.956719   1.000000
   16       -2.593104   1.000000
   17       -2.475091   1.000000
   18       -2.158252   1.000000
   19       -1.904635   1.000000
   20       -1.726630   1.000000
   21       -1.477329   1.000000
   22       -1.007459   1.000000
   23       -0.840114   1.000000
   24       -0.597445   1.000000
   25       -0.398930   1.000000
   26       -0.134515   1.000000
   27        0.014612   1.000000
   28        0.221053   1.000000
   29        0.536557   1.000000
   30        1.479600   1.000000
   31        1.804647   1.000000
   32        2.077136   1.000000
   33        2.288642   1.000000
   34        2.550452   1.000000
   35        2.612878   1.000000
   36        2.702133   1.000000
   37        2.811562   1.000000
   38        3.120356   1.000000
   39        3.283544   1.000000
   40        3.534140   1.000000
   41        3.667104   1.000000
   42        3.912559   1.000000
   43        4.220423   1.000000
   44        4.307869   1.000000
   45        4.397472   1.000000
   46        4.565011   1.000000
   47        4.947283   1.000000
   48        5.689072   1.000000
   49        6.921473   0.000000
   50        7.262396   0.000000
   51        7.571639   0.000000
   52        8.139593   0.000000
   53        8.817208   0.000000
   54        9.698889   0.000000
   55        9.755440   0.000000
   56       10.362363   0.000000
   57       10.438463   0.000000
   58       10.816621   0.000000
   59       10.940580   0.000000
   60       11.148339   0.000000
   61       11.581290   0.000000
   62       11.799051   0.000000
   63       12.015184   0.000000
   64       12.212538   0.000000
   65       12.785934   0.000000
   66       13.028494   0.000000
   67       13.153820   0.000000
   68       13.297575   0.000000
   69       13.602357   0.000000
   70       13.663818   0.000000
   71       13.829852   0.000000
   72       13.996298   0.000000
 
  0.0000000E+00  0.1666667E+00  0.0000000E+00  0.2777778E-02
    1      -11.642708   1.000000
    2      -10.827020   1.000000
    3       -9.953039   1.000000
    4       -8.788186   1.000000
    5       -8.326852   1.000000
    6       -8.108202   1.000000
    7       -6.791312   1.000000
    8       -6.017827   1.000000
    9       -5.766675   1.000000
   10       -5.102458   1.000000
   11       -4.613681   1.000000
   12       -4.006779   1.000000
   13       -3.582250   1.000000
   14       -3.028844   1.000000
   15       -2.862575   1.000000
   16       -2.611617   1.000000
   17       -2.326466   1.000000
   18       -2.243500   1.000000
   19       -2.000001   1.000000
   20       -1.552467   1.000000
   21       -1.339056   1.000000
   22       -1.127794   1.000000
   23       -0.781691   1.000000
   24       -0.681211   1.000000
   25       -0.412669   1.000000
   26        0.040668   1.000000
   27        0.315564   1.000000
   28        0.505374   1.000000
   29        0.782708   1.000000
   30        1.683078   1.000000
   31        1.835444   1.000000
   32        2.107477   1.000000
   33        2.154899   1.000000
   34        2.354537   1.000000
   35        2.448207   1.000000
   36        2.699471   1.000000
   37        2.949327   1.000000
   38        3.027705   1.000000
   39        3.132346   1.000000
   40        3.361379   1.000000
   41        3.730537   1.000000
   42        3.906073   1.000000
   43        4.109956   1.000000
   44        4.327381   1.000000
   45        4.422488   1.000000
   46        4.584151   1.000000
   47        4.948320   1.000000
   48        5.541360   1.000000
   49        6.764897  -0.030351
   50        7.253657   0.000000
   51        7.717329   0.000000
   52        8.036874   0.000000
   53        8.830656   0.000000
   54        9.479311   0.000000
   55        9.848987   0.000000
   56       10.228432   0.000000
   57       10.360052   0.000000
   58       10.793781   0.000000
   59       10.997053   0.000000
   60       11.092989   0.000000
   61       11.408691   0.000000
   62       11.618470   0.000000
   63       11.876254   0.000000
   64       12.052281   0.000000
   65       12.705915   0.000000
   66       13.037070   0.000000
   67       13.100089   0.000000
   68       13.344106   0.000000
   69       13.567956   0.000000
   70       13.721918   0.000000
   71       13.769719   0.000000
   72       14.119069   0.000000
 
  0.1666667E+00  0.1666667E+00 -0.2775558E-16  0.2777778E-02
    1      -11.642151   1.000000
    2      -10.831405   1.000000
    3       -9.943991   1.000000
    4       -8.768013   1.000000
    5       -8.354787   1.000000
    6       -8.129726   1.000000
    7       -6.776165   1.000000
    8       -6.001528   1.000000
    9       -5.729124   1.000000
   10       -5.155380   1.000000
   11       -4.587198   1.000000
   12       -3.927457   1.000000
   13       -3.567282   1.000000
   14       -3.196026   1.000000
   15       -2.871118   1.000000
   16       -2.706126   1.000000
   17       -2.234863   1.000000
   18       -2.111626   1.000000
   19       -2.050778   1.000000
   20       -1.746835   1.000000
   21       -1.325853   1.000000
   22       -1.061989   1.000000
   23       -0.916435   1.000000
   24       -0.638532   1.000000
   25       -0.322438   1.000000
   26        0.163561   1.000000
   27        0.550007   1.000000
   28        0.661895   1.000000
   29        0.837712   1.000000
   30        1.519263   1.000000
   31        1.682772   1.000000
   32        1.905798   1.000000
   33        1.993241   1.000000
   34        2.216047   1.000000
   35        2.492027   1.000000
   36        2.776269   1.000000
   37        2.874255   1.000000
   38        3.040040   1.000000
   39        3.248247   1.000000
   40        3.488164   1.000000
   41        3.678963   1.000000
   42        3.899954   1.000000
   43        4.075581   1.000000
   44        4.283636   1.000000
   45        4.483268   1.000000
   46        4.783691   1.000000
   47        4.945591   1.000000
   48        5.512203   1.000000
   49        6.740654   0.012422
   50        7.246749   0.000000
   51        7.825571   0.000000
   52        7.940955   0.000000
   53        8.787916   0.000000
   54        9.439092   0.000000
   55        9.904078   0.000000
   56       10.246052   0.000000
   57       10.375987   0.000000
   58       10.764367   0.000000
   59       11.002009   0.000000
   60       11.118211   0.000000
   61       11.356163   0.000000
   62       11.616536   0.000000
   63       11.833637   0.000000
   64       12.085225   0.000000
   65       12.781568   0.000000
   66       13.132256   0.000000
   67       13.198685   0.000000
   68       13.270557   0.000000
   69       13.547665   0.000000
   70       13.694740   0.000000
   71       13.841501   0.000000
   72       13.965214   0.000000
 
  0.3333333E+00  0.1666667E+00  0.0000000E+00  0.2777778E-02
    1      -11.613251   1.000000
    2      -10.923942   1.000000
    3       -9.842305   1.000000
    4       -8.759736   1.000000
    5       -8.375605   1.000000
    6       -8.175139   1.000000
    7       -6.768084   1.000000
    8       -5.978614   1.000000
    9       -5.667323   1.000000
   10       -5.140512   1.000000
   11       -4.625072   1.000000
   12       -4.000125   1.000000
   13       -3.602587   1.000000
   14       -3.421936   1.000000
   15       -2.814000   1.000000
   16       -2.631321   1.000000
   17       -2.326357   1.000000
   18       -2.167646   1.000000
   19       -1.943714   1.000000
   20       -1.539800   1.000000
   21       -1.317450   1.000000
   22       -1.104583   1.000000
   23       -0.851849   1.000000
   24       -0.360771   1.000000
   25       -0.258341   1.000000
   26        0.116541   1.000000
   27        0.454760   1.000000
   28        0.735400   1.000000
   29        0.848760   1.000000
   30        1.252868   1.000000
   31        1.640432   1.000000
   32        1.848451   1.000000
   33        1.964081   1.000000
   34        2.159554   1.000000
   35        2.390286   1.000000
   36        2.736438   1.000000
   37        2.897614   1.000000
   38        3.098517   1.000000
   39        3.298880   1.000000
   40        3.614588   1.000000
   41        3.718597   1.000000
   42        3.819695   1.000000
   43        4.069048   1.000000
   44        4.201561   1.000000
   45        4.456609   1.000000
   46        4.804965   1.000000
   47        5.003512   1.000000
   48        5.493243   1.000000
   49        6.818168  -0.025869
   50        7.214689   0.000000
   51        7.718600   0.000000
   52        8.011006   0.000000
   53        8.800132   0.000000
   54        9.534328   0.000000
   55       10.019087   0.000000
   56       10.269722   0.000000
   57       10.574382   0.000000
   58       10.783013   0.000000
   59       10.938256   0.000000
   60       11.111107   0.000000
   61       11.354070   0.000000
   62       11.596172   0.000000
   63       11.763004   0.000000
   64       12.070241   0.000000
   65       12.802960   0.000000
   66       12.995308   0.000000
   67       13.196721   0.000000
   68       13.403209   0.000000
   69       13.544835   0.000000
   70       13.674319   0.000000
   71       13.866547   0.000000
   72       14.023401   0.000000
 
  0.5000000E+00  0.1666667E+00  0.2775558E-16  0.2777778E-02
    1      -11.579620   1.000000
    2      -11.007987   1.000000
    3       -9.756630   1.000000
    4       -8.777588   1.000000
    5       -8.352974   1.000000
    6       -8.212704   1.000000
    7       -6.773895   1.000000
    8       -5.965349   1.000000
    9       -5.651426   1.000000
   10       -5.027090   1.000000
   11       -4.761498   1.000000
   12       -4.107123   1.000000
   13       -3.644560   1.000000
   14       -3.452805   1.000000
   15       -2.907494   1.000000
   16       -2.561083   1.000000
   17       -2.220290   1.000000
   18       -2.112136   1.000000
   19       -1.833545   1.000000
   20       -1.612152   1.000000
   21       -1.360400   1.000000
   22       -0.888518   1.000000
   23       -0.699928   1.000000
   24       -0.334403   1.000000
   25       -0.081170   1.000000
   26        0.105343   1.000000
   27        0.273648   1.000000
   28        0.443565   1.000000
   29        0.605521   1.000000
   30        1.142092   1.000000
   31        1.693139   1.000000
   32        1.913577   1.000000
   33        2.089479   1.000000
   34        2.239669   1.000000
   35        2.504665   1.000000
   36        2.665878   1.000000
   37        2.916907   1.000000
   38        3.147572   1.000000
   39        3.406358   1.000000
   40        3.554758   1.000000
   41        3.648133   1.000000
   42        3.730573   1.000000
   43        3.936345   1.000000
   44        4.294304   1.000000
   45        4.399405   1.000000
   46        4.748148   1.000000
   47        5.010699   1.000000
   48        5.478043   1.000000
   49        6.967408   0.000000
   50        7.144328   0.000000
   51        7.607024   0.000000
   52        8.077758   0.000000
   53        8.859481   0.000000
   54        9.657986   0.000000
   55       10.093754   0.000000
   56       10.298795   0.000000
   57       10.709320   0.000000
   58       10.804324   0.000000
   59       10.925165   0.000000
   60       11.170910   0.000000
   61       11.256172   0.000000
   62       11.591788   0.000000
   63       11.743489   0.000000
   64       12.085523   0.000000
   65       12.707181   0.000000
   66       12.952737   0.000000
   67       13.121962   0.000000
   68       13.268434   0.000000
   69       13.510801   0.000000
   70       13.778631   0.000000
   71       14.023001   0.000000
   72       14.086072   0.000000
 
 -0.3333333E+00  0.1666667E+00 -0.4597017E-16  0.2777778E-02
    1      -11.580465   1.000000
    2      -11.004632   1.000000
    3       -9.764998   1.000000
    4       -8.801587   1.000000
    5       -8.305491   1.000000
    6       -8.207170   1.000000
    7       -6.790738   1.000000
    8       -5.973739   1.000000
    9       -5.696491   1.000000
   10       -4.933745   1.000000
   11       -4.813233   1.000000
   12       -4.191504   1.000000
   13       -3.669687   1.000000
   14       -3.275531   1.000000
   15       -2.999450   1.000000
   16       -2.510571   1.000000
   17       -2.253282   1.000000
   18       -2.038830   1.000000
   19       -1.712618   1.000000
   20       -1.482540   1.000000
   21       -1.383811   1.000000
   22       -1.168386   1.000000
   23       -0.552216   1.000000
   24       -0.378494   1.000000
   25       -0.158928   1.000000
   26       -0.019261   1.000000
   27        0.110291   1.000000
   28        0.340418   1.000000
   29        0.815757   1.000000
   30        1.006737   1.000000
   31        1.766774   1.000000
   32        1.980315   1.000000
   33        2.029465   1.000000
   34        2.502901   1.000000
   35        2.590711   1.000000
   36        2.808291   1.000000
   37        2.975537   1.000000
   38        3.275877   1.000000
   39        3.373950   1.000000
   40        3.443346   1.000000
   41        3.504363   1.000000
   42        3.772234   1.000000
   43        3.945985   1.000000
   44        4.091815   1.000000
   45        4.222269   1.000000
   46        4.783455   1.000000
   47        5.113375   1.000000
   48        5.438073   1.000000
   49        7.012572   0.000000
   50        7.126937   0.000000
   51        7.547535   0.000000
   52        8.126178   0.000000
   53        8.908751   0.000000
   54        9.747305   0.000000
   55        9.981316   0.000000
   56       10.301970   0.000000
   57       10.627418   0.000000
   58       10.856693   0.000000
   59       10.878989   0.000000
   60       11.148368   0.000000
   61       11.314058   0.000000
   62       11.610798   0.000000
   63       11.782357   0.000000
   64       12.138119   0.000000
   65       12.542723   0.000000
   66       12.933794   0.000000
   67       13.109299   0.000000
   68       13.241327   0.000000
   69       13.553689   0.000000
   70       13.770649   0.000000
   71       14.035303   0.000000
   72       14.080732   0.000000
 
 -0.1666667E+00  0.1666667E+00  0.6938894E-17  0.2777778E-02
    1      -11.614590   1.000000
    2      -10.916584   1.000000
    3       -9.859387   1.000000
    4       -8.804009   1.000000
    5       -8.306780   1.000000
    6       -8.141349   1.000000
    7       -6.800279   1.000000
    8       -6.003080   1.000000
    9       -5.750425   1.000000
   10       -5.024672   1.000000
   11       -4.669936   1.000000
   12       -4.163861   1.000000
   13       -3.638485   1.000000
   14       -3.080873   1.000000
   15       -2.932046   1.000000
   16       -2.535961   1.000000
   17       -2.368364   1.000000
   18       -2.032766   1.000000
   19       -1.896944   1.000000
   20       -1.564295   1.000000
   21       -1.221650   1.000000
   22       -0.951136   1.000000
   23       -0.852321   1.000000
   24       -0.684390   1.000000
   25       -0.294497   1.000000
   26       -0.135536   1.000000
   27        0.229590   1.000000
   28        0.436719   1.000000
   29        0.769232   1.000000
   30        1.401247   1.000000
   31        1.870503   1.000000
   32        1.983584   1.000000
   33        2.114664   1.000000
   34        2.555372   1.000000
   35        2.647421   1.000000
   36        2.772064   1.000000
   37        2.933975   1.000000
   38        3.116098   1.000000
   39        3.213866   1.000000
   40        3.371901   1.000000
   41        3.744615   1.000000
   42        3.874828   1.000000
   43        3.937545   1.000000
   44        4.068202   1.000000
   45        4.296404   1.000000
   46        4.657330   1.000000
   47        5.080923   1.000000
   48        5.498204   1.000000
   49        6.872756   0.000000
   50        7.217839   0.000000
   51        7.584917   0.000000
   52        8.122820   0.000000
   53        8.892409   0.000000
   54        9.673124   0.000000
   55        9.833531   0.000000
   56       10.308584   0.000000
   57       10.440874   0.000000
   58       10.812934   0.000000
   59       10.918312   0.000000
   60       11.124981   0.000000
   61       11.408847   0.000000
   62       11.628501   0.000000
   63       11.849442   0.000000
   64       12.056825   0.000000
   65       12.576855   0.000000
   66       12.962696   0.000000
   67       13.102298   0.000000
   68       13.272903   0.000000
   69       13.603251   0.000000
   70       13.773021   0.000000
   71       13.876465   0.000000
   72       14.115635   0.000000
 
  0.0000000E+00  0.2500000E+00 -0.4163336E-16  0.2777778E-02
    1      -11.517534   1.000000
    2      -10.786545   1.000000
    3       -9.927759   1.000000
    4       -8.914822   1.000000
    5       -8.515667   1.000000
    6       -8.167268   1.000000
    7       -6.711316   1.000000
    8       -6.115372   1.000000
    9       -5.796371   1.000000
   10       -5.226350   1.000000
   11       -4.837432   1.000000
   12       -4.135128   1.000000
   13       -3.431409   1.000000
   14       -3.164242   1.000000
   15       -2.880790   1.000000
   16       -2.557794   1.000000
   17       -2.329913   1.000000
   18       -2.177153   1.000000
   19       -1.778117   1.000000
   20       -1.439434   1.000000
   21       -1.111003   1.000000
   22       -0.864709   1.000000
   23       -0.763765   1.000000
   24       -0.455907   1.000000
   25       -0.327272   1.000000
   26        0.032786   1.000000
   27        0.607195   1.000000
   28        0.726453   1.000000
   29        0.898057   1.000000
   30        1.444280   1.000000
   31        1.842807   1.000000
   32        1.963894   1.000000
   33        2.210343   1.000000
   34        2.360552   1.000000
   35        2.528008   1.000000
   36        2.623197   1.000000
   37        2.882643   1.000000
   38        3.072810   1.000000
   39        3.306974   1.000000
   40        3.363993   1.000000
   41        3.596701   1.000000
   42        3.802013   1.000000
   43        3.874739   1.000000
   44        4.233150   1.000000
   45        4.440325   1.000000
   46        4.554802   1.000000
   47        4.958433   1.000000
   48        5.239572   1.000000
   49        6.699853   0.299644
   50        7.135375   0.000000
   51        7.834600   0.000000
   52        7.978203   0.000000
   53        8.938504   0.000000
   54        9.393160   0.000000
   55        9.912965   0.000000
   56       10.167012   0.000000
   57       10.353135   0.000000
   58       10.649751   0.000000
   59       10.860986   0.000000
   60       11.018433   0.000000
   61       11.344101   0.000000
   62       11.479572   0.000000
   63       11.757901   0.000000
   64       11.930504   0.000000
   65       12.404164   0.000000
   66       12.849580   0.000000
   67       12.971804   0.000000
   68       13.341125   0.000000
   69       13.466099   0.000000
   70       13.759044   0.000000
   71       13.820613   0.000000
   72       14.333412   0.000000
 
  0.1666667E+00  0.2500000E+00  0.0000000E+00  0.2777778E-02
    1      -11.523552   1.000000
    2      -10.770409   1.000000
    3       -9.938358   1.000000
    4       -8.877604   1.000000
    5       -8.548407   1.000000
    6       -8.204512   1.000000
    7       -6.675591   1.000000
    8       -6.100431   1.000000
    9       -5.752602   1.000000
   10       -5.313344   1.000000
   11       -4.850046   1.000000
   12       -4.031295   1.000000
   13       -3.426168   1.000000
   14       -3.102481   1.000000
   15       -2.839217   1.000000
   16       -2.584184   1.000000
   17       -2.424018   1.000000
   18       -2.202605   1.000000
   19       -1.873419   1.000000
   20       -1.579271   1.000000
   21       -1.270078   1.000000
   22       -0.884052   1.000000
   23       -0.710454   1.000000
   24       -0.447560   1.000000
   25        0.011546   1.000000
   26        0.286706   1.000000
   27        0.621106   1.000000
   28        0.684523   1.000000
   29        0.976054   1.000000
   30        1.359958   1.000000
   31        1.537924   1.000000
   32        1.941624   1.000000
   33        2.135681   1.000000
   34        2.322767   1.000000
   35        2.589994   1.000000
   36        2.730482   1.000000
   37        2.849988   1.000000
   38        3.023514   1.000000
   39        3.282483   1.000000
   40        3.431611   1.000000
   41        3.590049   1.000000
   42        3.827257   1.000000
   43        3.968877   1.000000
   44        4.232558   1.000000
   45        4.460314   1.000000
   46        4.628893   1.000000
   47        4.883903   1.000000
   48        5.255910   1.000000
   49        6.620170   1.064857
   50        7.142846   0.000000
   51        7.756503   0.000000
   52        7.982067   0.000000
   53        8.947365   0.000000
   54        9.405783   0.000000
   55        9.952521   0.000000
   56       10.203036   0.000000
   57       10.340947   0.000000
   58       10.628249   0.000000
   59       10.864949   0.000000
   60       11.103953   0.000000
   61       11.289763   0.000000
   62       11.438198   0.000000
   63       11.621334   0.000000
   64       11.985762   0.000000
   65       12.569012   0.000000
   66       12.848389   0.000000
   67       13.028479   0.000000
   68       13.195665   0.000000
   69       13.586737   0.000000
   70       13.827825   0.000000
   71       13.903269   0.000000
   72       14.251681   0.000000
 
  0.3333333E+00  0.2500000E+00 -0.5551115E-16  0.2777778E-02
    1      -11.502524   1.000000
    2      -10.834611   1.000000
    3       -9.881574   1.000000
    4       -8.821025   1.000000
    5       -8.567164   1.000000
    6       -8.287128   1.000000
    7       -6.651138   1.000000
    8       -6.081303   1.000000
    9       -5.632430   1.000000
   10       -5.348421   1.000000
   11       -4.843601   1.000000
   12       -4.166764   1.000000
   13       -3.559677   1.000000
   14       -3.368366   1.000000
   15       -2.775885   1.000000
   16       -2.467447   1.000000
   17       -2.364580   1.000000
   18       -1.965488   1.000000
   19       -1.823794   1.000000
   20       -1.532762   1.000000
   21       -1.300276   1.000000
   22       -0.985157   1.000000
   23       -0.688432   1.000000
   24       -0.353331   1.000000
   25        0.158980   1.000000
   26        0.475450   1.000000
   27        0.577683   1.000000
   28        0.725208   1.000000
   29        0.855512   1.000000
   30        1.338872   1.000000
   31        1.393865   1.000000
   32        1.711476   1.000000
   33        2.011561   1.000000
   34        2.251014   1.000000
   35        2.439977   1.000000
   36        2.637249   1.000000
   37        2.840062   1.000000
   38        3.108562   1.000000
   39        3.451725   1.000000
   40        3.545329   1.000000
   41        3.724895   1.000000
   42        3.820379   1.000000
   43        4.012469   1.000000
   44        4.143053   1.000000
   45        4.414066   1.000000
   46        4.630496   1.000000
   47        4.932739   1.000000
   48        5.320738   1.000000
   49        6.655954   0.727927
   50        7.132816   0.000000
   51        7.624538   0.000000
   52        7.985729   0.000000
   53        8.948265   0.000000
   54        9.578318   0.000000
   55        9.990850   0.000000
   56       10.181800   0.000000
   57       10.457505   0.000000
   58       10.653545   0.000000
   59       10.848288   0.000000
   60       11.065947   0.000000
   61       11.241603   0.000000
   62       11.353823   0.000000
   63       11.536427   0.000000
   64       12.045074   0.000000
   65       12.594112   0.000000
   66       12.967668   0.000000
   67       13.073367   0.000000
   68       13.194332   0.000000
   69       13.671277   0.000000
   70       13.861090   0.000000
   71       14.005291   0.000000
   72       14.181724   0.000000
 
  0.5000000E+00  0.2500000E+00  0.0000000E+00  0.2777778E-02
    1      -11.470875   1.000000
    2      -10.911878   1.000000
    3       -9.822218   1.000000
    4       -8.815722   1.000000
    5       -8.506085   1.000000
    6       -8.367908   1.000000
    7       -6.657001   1.000000
    8       -6.077578   1.000000
    9       -5.572775   1.000000
   10       -5.246896   1.000000
   11       -4.866454   1.000000
   12       -4.356551   1.000000
   13       -3.731331   1.000000
   14       -3.539163   1.000000
   15       -2.701423   1.000000
   16       -2.468656   1.000000
   17       -2.109125   1.000000
   18       -1.938697   1.000000
   19       -1.839754   1.000000
   20       -1.347481   1.000000
   21       -0.986329   1.000000
   22       -0.930900   1.000000
   23       -0.788680   1.000000
   24       -0.150624   1.000000
   25        0.075002   1.000000
   26        0.195802   1.000000
   27        0.441035   1.000000
   28        0.588435   1.000000
   29        0.701719   1.000000
   30        1.236298   1.000000
   31        1.609219   1.000000
   32        1.823740   1.000000
   33        2.018059   1.000000
   34        2.245948   1.000000
   35        2.347995   1.000000
   36        2.553151   1.000000
   37        2.848145   1.000000
   38        3.158643   1.000000
   39        3.349093   1.000000
   40        3.558379   1.000000
   41        3.704477   1.000000
   42        3.770538   1.000000
   43        4.007545   1.000000
   44        4.253596   1.000000
   45        4.392098   1.000000
   46        4.680634   1.000000
   47        4.960831   1.000000
   48        5.349026   1.000000
   49        6.787067  -0.033383
   50        7.104101   0.000000
   51        7.540505   0.000000
   52        8.012568   0.000000
   53        8.963839   0.000000
   54        9.689131   0.000000
   55       10.020265   0.000000
   56       10.130989   0.000000
   57       10.556583   0.000000
   58       10.704320   0.000000
   59       10.835290   0.000000
   60       10.978623   0.000000
   61       11.174015   0.000000
   62       11.420054   0.000000
   63       11.520079   0.000000
   64       11.954221   0.000000
   65       12.740974   0.000000
   66       12.856115   0.000000
   67       13.096275   0.000000
   68       13.321276   0.000000
   69       13.595368   0.000000
   70       13.724910   0.000000
   71       14.103782   0.000000
   72       14.212122   0.000000
 
 -0.3333333E+00  0.2500000E+00 -0.2081668E-16  0.2777778E-02
    1      -11.462748   1.000000
    2      -10.927746   1.000000
    3       -9.813686   1.000000
    4       -8.869056   1.000000
    5       -8.441524   1.000000
    6       -8.349105   1.000000
    7       -6.692615   1.000000
    8       -6.087718   1.000000
    9       -5.636627   1.000000
   10       -5.083412   1.000000
   11       -4.903696   1.000000
   12       -4.454051   1.000000
   13       -3.713706   1.000000
   14       -3.584095   1.000000
   15       -2.786645   1.000000
   16       -2.420695   1.000000
   17       -2.035739   1.000000
   18       -1.811915   1.000000
   19       -1.704083   1.000000
   20       -1.371881   1.000000
   21       -1.133132   1.000000
   22       -0.801100   1.000000
   23       -0.595435   1.000000
   24       -0.285165   1.000000
   25       -0.173615   1.000000
   26        0.173715   1.000000
   27        0.345366   1.000000
   28        0.508906   1.000000
   29        0.655895   1.000000
   30        1.200628   1.000000
   31        1.686988   1.000000
   32        1.811471   1.000000
   33        2.123374   1.000000
   34        2.331488   1.000000
   35        2.607996   1.000000
   36        2.712294   1.000000
   37        2.863813   1.000000
   38        3.136272   1.000000
   39        3.197551   1.000000
   40        3.385118   1.000000
   41        3.577305   1.000000
   42        3.759656   1.000000
   43        4.016884   1.000000
   44        4.159731   1.000000
   45        4.384545   1.000000
   46        4.784253   1.000000
   47        5.038252   1.000000
   48        5.274065   1.000000
   49        6.929199   0.000000
   50        7.033917   0.000000
   51        7.557909   0.000000
   52        8.053940   0.000000
   53        8.982206   0.000000
   54        9.742300   0.000000
   55        9.894812   0.000000
   56       10.113965   0.000000
   57       10.507612   0.000000
   58       10.721015   0.000000
   59       10.830892   0.000000
   60       10.970092   0.000000
   61       11.231368   0.000000
   62       11.407026   0.000000
   63       11.591852   0.000000
   64       11.968222   0.000000
   65       12.630923   0.000000
   66       12.812858   0.000000
   67       13.100070   0.000000
   68       13.252196   0.000000
   69       13.514046   0.000000
   70       13.778236   0.000000
   71       14.093214   0.000000
   72       14.218216   0.000000
 
 -0.1666667E+00  0.2500000E+00 -0.2775558E-16  0.2777778E-02
    1      -11.488772   1.000000
    2      -10.865791   1.000000
    3       -9.862885   1.000000
    4       -8.911909   1.000000
    5       -8.481334   1.000000
    6       -8.219230   1.000000
    7       -6.722510   1.000000
    8       -6.105850   1.000000
    9       -5.741023   1.000000
   10       -5.132933   1.000000
   11       -4.821446   1.000000
   12       -4.373865   1.000000
   13       -3.550219   1.000000
   14       -3.455487   1.000000
   15       -2.855473   1.000000
   16       -2.535052   1.000000
   17       -2.020178   1.000000
   18       -1.939799   1.000000
   19       -1.548444   1.000000
   20       -1.399547   1.000000
   21       -1.240790   1.000000
   22       -0.856572   1.000000
   23       -0.606148   1.000000
   24       -0.563704   1.000000
   25       -0.328000   1.000000
   26        0.048521   1.000000
   27        0.466260   1.000000
   28        0.630562   1.000000
   29        0.986240   1.000000
   30        1.196922   1.000000
   31        1.749418   1.000000
   32        1.891022   1.000000
   33        2.128808   1.000000
   34        2.388069   1.000000
   35        2.619464   1.000000
   36        2.687635   1.000000
   37        3.030205   1.000000
   38        3.073327   1.000000
   39        3.231041   1.000000
   40        3.369647   1.000000
   41        3.609530   1.000000
   42        3.739765   1.000000
   43        3.906148   1.000000
   44        4.052690   1.000000
   45        4.433169   1.000000
   46        4.658817   1.000000
   47        5.102112   1.000000
   48        5.203455   1.000000
   49        6.848557   0.000000
   50        7.084547   0.000000
   51        7.694894   0.000000
   52        8.046183   0.000000
   53        8.965086   0.000000
   54        9.584913   0.000000
   55        9.843778   0.000000
   56       10.165525   0.000000
   57       10.403965   0.000000
   58       10.686293   0.000000
   59       10.847827   0.000000
   60       10.972029   0.000000
   61       11.353145   0.000000
   62       11.393125   0.000000
   63       11.670157   0.000000
   64       12.055321   0.000000
   65       12.408787   0.000000
   66       12.779648   0.000000
   67       13.090433   0.000000
   68       13.245240   0.000000
   69       13.450039   0.000000
   70       13.780080   0.000000
   71       13.985467   0.000000
   72       14.272931   0.000000
 
  0.0000000E+00  0.3333333E+00 -0.5551115E-16  0.2777778E-02
    1      -11.365591   1.000000
    2      -10.748645   1.000000
    3       -9.934121   1.000000
    4       -9.010555   1.000000
    5       -8.707274   1.000000
    6       -8.215844   1.000000
    7       -6.675269   1.000000
    8       -6.222842   1.000000
    9       -5.934228   1.000000
   10       -5.209909   1.000000
   11       -4.890871   1.000000
   12       -4.185572   1.000000
   13       -3.629536   1.000000
   14       -3.295227   1.000000
   15       -3.010697   1.000000
   16       -2.511071   1.000000
   17       -2.266303   1.000000
   18       -1.803263   1.000000
   19       -1.517463   1.000000
   20       -1.148811   1.000000
   21       -0.961988   1.000000
   22       -0.768508   1.000000
   23       -0.533114   1.000000
   24       -0.490928   1.000000
   25       -0.249578   1.000000
   26        0.272707   1.000000
   27        0.601780   1.000000
   28        0.725294   1.000000
   29        1.177135   1.000000
   30        1.325551   1.000000
   31        1.541011   1.000000
   32        1.909567   1.000000
   33        2.173166   1.000000
   34        2.370852   1.000000
   35        2.517145   1.000000
   36        2.780624   1.000000
   37        2.908808   1.000000
   38        3.004179   1.000000
   39        3.121473   1.000000
   40        3.455974   1.000000
   41        3.582367   1.000000
   42        3.786044   1.000000
   43        3.912087   1.000000
   44        4.192866   1.000000
   45        4.302766   1.000000
   46        4.704095   1.000000
   47        4.901612   1.000000
   48        4.988796   1.000000
   49        6.722505   0.157510
   50        6.952902   0.000000
   51        7.793610   0.000000
   52        8.068925   0.000000
   53        9.037552   0.000000
   54        9.272921   0.000000
   55        9.881113   0.000000
   56       10.031522   0.000000
   57       10.227323   0.000000
   58       10.445070   0.000000
   59       10.623519   0.000000
   60       10.897320   0.000000
   61       11.122956   0.000000
   62       11.496299   0.000000
   63       11.797608   0.000000
   64       11.903310   0.000000
   65       12.378323   0.000000
   66       12.666627   0.000000
   67       12.949105   0.000000
   68       13.128390   0.000000
   69       13.375069   0.000000
   70       13.742474   0.000000
   71       13.824317   0.000000
   72       14.331653   0.000000
 
  0.1666667E+00  0.3333333E+00 -0.2775558E-16  0.2777778E-02
    1      -11.374788   1.000000
    2      -10.728851   1.000000
    3       -9.941922   1.000000
    4       -8.964417   1.000000
    5       -8.744611   1.000000
    6       -8.264818   1.000000
    7       -6.631129   1.000000
    8       -6.216263   1.000000
    9       -5.877883   1.000000
   10       -5.289049   1.000000
   11       -4.989009   1.000000
   12       -4.141442   1.000000
   13       -3.349570   1.000000
   14       -3.206635   1.000000
   15       -2.977263   1.000000
   16       -2.527256   1.000000
   17       -2.436094   1.000000
   18       -2.014255   1.000000
   19       -1.755984   1.000000
   20       -1.226385   1.000000
   21       -0.987885   1.000000
   22       -0.731113   1.000000
   23       -0.566398   1.000000
   24       -0.215949   1.000000
   25       -0.079809   1.000000
   26        0.336755   1.000000
   27        0.483203   1.000000
   28        0.910618   1.000000
   29        0.989674   1.000000
   30        1.322570   1.000000
   31        1.369411   1.000000
   32        2.079939   1.000000
   33        2.234578   1.000000
   34        2.436394   1.000000
   35        2.555850   1.000000
   36        2.721523   1.000000
   37        2.822603   1.000000
   38        3.062090   1.000000
   39        3.236161   1.000000
   40        3.447100   1.000000
   41        3.653851   1.000000
   42        3.708984   1.000000
   43        3.928299   1.000000
   44        4.087292   1.000000
   45        4.350343   1.000000
   46        4.669812   1.000000
   47        4.847429   1.000000
   48        5.012148   1.000000
   49        6.598510   1.056657
   50        6.966666   0.000000
   51        7.673112   0.000000
   52        8.011708   0.000000
   53        9.143952   0.000000
   54        9.317705   0.000000
   55        9.962356   0.000000
   56       10.100287   0.000000
   57       10.150371   0.000000
   58       10.456273   0.000000
   59       10.666909   0.000000
   60       10.994147   0.000000
   61       11.120434   0.000000
   62       11.463897   0.000000
   63       11.703741   0.000000
   64       11.884496   0.000000
   65       12.332194   0.000000
   66       12.712245   0.000000
   67       12.890467   0.000000
   68       13.104437   0.000000
   69       13.409126   0.000000
   70       13.750232   0.000000
   71       13.964018   0.000000
   72       14.451263   0.000000
 
  0.3333333E+00  0.3333333E+00 -0.2775558E-16  0.2777778E-02
    1      -11.361344   1.000000
    2      -10.765178   1.000000
    3       -9.920720   1.000000
    4       -8.882776   1.000000
    5       -8.755762   1.000000
    6       -8.375974   1.000000
    7       -6.588197   1.000000
    8       -6.193627   1.000000
    9       -5.707903   1.000000
   10       -5.370270   1.000000
   11       -5.046564   1.000000
   12       -4.368174   1.000000
   13       -3.405984   1.000000
   14       -3.211729   1.000000
   15       -2.820238   1.000000
   16       -2.520391   1.000000
   17       -2.251495   1.000000
   18       -1.937996   1.000000
   19       -1.735598   1.000000
   20       -1.428170   1.000000
   21       -1.174661   1.000000
   22       -0.639503   1.000000
   23       -0.559457   1.000000
   24       -0.224765   1.000000
   25        0.239960   1.000000
   26        0.396066   1.000000
   27        0.489978   1.000000
   28        0.790710   1.000000
   29        1.071605   1.000000
   30        1.168937   1.000000
   31        1.376552   1.000000
   32        1.935740   1.000000
   33        2.131674   1.000000
   34        2.306208   1.000000
   35        2.509999   1.000000
   36        2.755297   1.000000
   37        2.867578   1.000000
   38        3.144205   1.000000
   39        3.263064   1.000000
   40        3.352556   1.000000
   41        3.689383   1.000000
   42        3.814772   1.000000
   43        3.981838   1.000000
   44        4.187980   1.000000
   45        4.341411   1.000000
   46        4.596267   1.000000
   47        4.821472   1.000000
   48        5.089219   1.000000
   49        6.561288   1.000000
   50        6.980471   0.000000
   51        7.583974   0.000000
   52        7.942836   0.000000
   53        9.128873   0.000000
   54        9.544804   0.000000
   55        9.909440   0.000000
   56       10.119792   0.000000
   57       10.275765   0.000000
   58       10.463837   0.000000
   59       10.702172   0.000000
   60       11.027424   0.000000
   61       11.103544   0.000000
   62       11.309917   0.000000
   63       11.403564   0.000000
   64       12.049099   0.000000
   65       12.427338   0.000000
   66       12.672804   0.000000
   67       12.965309   0.000000
   68       13.061623   0.000000
   69       13.657901   0.000000
   70       13.902837   0.000000
   71       14.019564   0.000000
   72       14.371207   0.000000
 
  0.5000000E+00  0.3333333E+00  0.0000000E+00  0.2777778E-02
    1      -11.335779   1.000000
    2      -10.821188   1.000000
    3       -9.895452   1.000000
    4       -8.886856   1.000000
    5       -8.644957   1.000000
    6       -8.485369   1.000000
    7       -6.577227   1.000000
    8       -6.187545   1.000000
    9       -5.589818   1.000000
   10       -5.350019   1.000000
   11       -5.041127   1.000000
   12       -4.565037   1.000000
   13       -3.721769   1.000000
   14       -3.361819   1.000000
   15       -2.637757   1.000000
   16       -2.344928   1.000000
   17       -2.007841   1.000000
   18       -1.897523   1.000000
   19       -1.636452   1.000000
   20       -1.321960   1.000000
   21       -1.105706   1.000000
   22       -0.854003   1.000000
   23       -0.516155   1.000000
   24       -0.267260   1.000000
   25        0.122918   1.000000
   26        0.294778   1.000000
   27        0.649048   1.000000
   28        0.877197   1.000000
   29        0.905653   1.000000
   30        1.236385   1.000000
   31        1.476429   1.000000
   32        1.743002   1.000000
   33        2.111302   1.000000
   34        2.262067   1.000000
   35        2.397016   1.000000
   36        2.659716   1.000000
   37        2.826223   1.000000
   38        2.976276   1.000000
   39        3.188021   1.000000
   40        3.569903   1.000000
   41        3.742757   1.000000
   42        3.849302   1.000000
   43        4.043566   1.000000
   44        4.231656   1.000000
   45        4.386559   1.000000
   46        4.528243   1.000000
   47        4.904415   1.000000
   48        5.142966   1.000000
   49        6.629643   0.934940
   50        7.004113   0.000000
   51        7.574961   0.000000
   52        7.944378   0.000000
   53        9.095478   0.000000
   54        9.600845   0.000000
   55        9.851674   0.000000
   56       10.106316   0.000000
   57       10.377169   0.000000
   58       10.545068   0.000000
   59       10.744597   0.000000
   60       10.790435   0.000000
   61       11.109162   0.000000
   62       11.262689   0.000000
   63       11.354018   0.000000
   64       11.912462   0.000000
   65       12.650889   0.000000
   66       12.836750   0.000000
   67       13.028515   0.000000
   68       13.101601   0.000000
   69       13.607631   0.000000
   70       13.915512   0.000000
   71       14.097547   0.000000
   72       14.252179   0.000000
 
 -0.3333333E+00  0.3333333E+00 -0.1387779E-16  0.2777778E-02
    1      -11.324100   1.000000
    2      -10.841900   1.000000
    3       -9.889353   1.000000
    4       -8.945436   1.000000
    5       -8.608851   1.000000
    6       -8.426649   1.000000
    7       -6.613109   1.000000
    8       -6.207848   1.000000
    9       -5.699368   1.000000
   10       -5.157740   1.000000
   11       -4.979729   1.000000
   12       -4.595669   1.000000
   13       -3.941693   1.000000
   14       -3.447529   1.000000
   15       -2.665095   1.000000
   16       -2.209542   1.000000
   17       -1.982317   1.000000
   18       -1.757514   1.000000
   19       -1.597196   1.000000
   20       -1.210451   1.000000
   21       -0.975309   1.000000
   22       -0.817274   1.000000
   23       -0.637759   1.000000
   24       -0.207687   1.000000
   25       -0.072435   1.000000
   26        0.300484   1.000000
   27        0.525426   1.000000
   28        0.717107   1.000000
   29        0.819380   1.000000
   30        1.291269   1.000000
   31        1.616398   1.000000
   32        1.962604   1.000000
   33        2.011070   1.000000
   34        2.199439   1.000000
   35        2.481347   1.000000
   36        2.519022   1.000000
   37        2.831848   1.000000
   38        3.005161   1.000000
   39        3.195588   1.000000
   40        3.418281   1.000000
   41        3.706123   1.000000
   42        3.783565   1.000000
   43        4.078980   1.000000
   44        4.207147   1.000000
   45        4.437701   1.000000
   46        4.657882   1.000000
   47        4.950135   1.000000
   48        5.106627   1.000000
   49        6.749656   0.022921
   50        7.003779   0.000000
   51        7.683990   0.000000
   52        7.973672   0.000000
   53        9.060373   0.000000
   54        9.576118   0.000000
   55        9.720735   0.000000
   56       10.065120   0.000000
   57       10.380707   0.000000
   58       10.487968   0.000000
   59       10.669256   0.000000
   60       10.774086   0.000000
   61       11.176488   0.000000
   62       11.285810   0.000000
   63       11.527108   0.000000
   64       11.782216   0.000000
   65       12.638698   0.000000
   66       12.905248   0.000000
   67       12.995472   0.000000
   68       13.276958   0.000000
   69       13.440204   0.000000
   70       13.732121   0.000000
   71       14.162345   0.000000
   72       14.255137   0.000000
 
 -0.1666667E+00  0.3333333E+00 -0.1387779E-16  0.2777778E-02
    1      -11.340822   1.000000
    2      -10.805151   1.000000
    3       -9.906988   1.000000
    4       -8.998621   1.000000
    5       -8.663152   1.000000
    6       -8.276407   1.000000
    7       -6.668107   1.000000
    8       -6.220440   1.000000
    9       -5.852531   1.000000
   10       -5.142853   1.000000
   11       -4.851030   1.000000
   12       -4.452150   1.000000
   13       -3.895729   1.000000
   14       -3.425514   1.000000
   15       -2.827427   1.000000
   16       -2.288081   1.000000
   17       -2.145713   1.000000
   18       -1.582536   1.000000
   19       -1.512193   1.000000
   20       -1.192265   1.000000
   21       -0.987800   1.000000
   22       -0.831854   1.000000
   23       -0.521179   1.000000
   24       -0.403813   1.000000
   25       -0.227092   1.000000
   26        0.302362   1.000000
   27        0.590915   1.000000
   28        0.642253   1.000000
   29        0.934729   1.000000
   30        1.282234   1.000000
   31        1.712709   1.000000
   32        1.879576   1.000000
   33        2.106184   1.000000
   34        2.287888   1.000000
   35        2.461625   1.000000
   36        2.587288   1.000000
   37        2.924526   1.000000
   38        3.046565   1.000000
   39        3.209064   1.000000
   40        3.282010   1.000000
   41        3.724094   1.000000
   42        3.807186   1.000000
   43        3.888053   1.000000
   44        4.175344   1.000000
   45        4.442665   1.000000
   46        4.735724   1.000000
   47        4.946595   1.000000
   48        5.006745   1.000000
   49        6.821587  -0.000129
   50        6.950224   0.000000
   51        7.839733   0.000000
   52        7.997472   0.000000
   53        9.023587   0.000000
   54        9.407191   0.000000
   55        9.740449   0.000000
   56       10.043653   0.000000
   57       10.287457   0.000000
   58       10.451974   0.000000
   59       10.631065   0.000000
   60       10.816439   0.000000
   61       11.137649   0.000000
   62       11.441290   0.000000
   63       11.704076   0.000000
   64       11.821831   0.000000
   65       12.526380   0.000000
   66       12.717580   0.000000
   67       13.065852   0.000000
   68       13.166833   0.000000
   69       13.377757   0.000000
   70       13.718879   0.000000
   71       14.026259   0.000000
   72       14.214262   0.000000
 
  0.0000000E+00  0.4166667E+00 -0.8326673E-16  0.2777778E-02
    1      -11.223075   1.000000
    2      -10.732583   1.000000
    3       -9.968208   1.000000
    4       -9.048456   1.000000
    5       -8.862314   1.000000
    6       -8.243740   1.000000
    7       -6.664530   1.000000
    8       -6.310627   1.000000
    9       -6.053566   1.000000
   10       -5.191644   1.000000
   11       -4.810151   1.000000
   12       -4.182350   1.000000
   13       -3.996763   1.000000
   14       -3.340699   1.000000
   15       -3.072984   1.000000
   16       -2.426927   1.000000
   17       -1.934060   1.000000
   18       -1.619085   1.000000
   19       -1.349917   1.000000
   20       -1.093251   1.000000
   21       -0.900647   1.000000
   22       -0.713060   1.000000
   23       -0.565283   1.000000
   24       -0.315349   1.000000
   25       -0.076808   1.000000
   26        0.380641   1.000000
   27        0.579967   1.000000
   28        0.768029   1.000000
   29        0.906725   1.000000
   30        1.480574   1.000000
   31        1.746847   1.000000
   32        1.858904   1.000000
   33        2.033777   1.000000
   34        2.290413   1.000000
   35        2.414430   1.000000
   36        2.617184   1.000000
   37        2.876160   1.000000
   38        3.130282   1.000000
   39        3.183832   1.000000
   40        3.388411   1.000000
   41        3.555462   1.000000
   42        3.777003   1.000000
   43        3.901994   1.000000
   44        4.259067   1.000000
   45        4.433351   1.000000
   46        4.576450   1.000000
   47        4.736303   1.000000
   48        5.152146   1.000000
   49        6.705057   0.427605
   50        6.883903   0.000000
   51        7.702531   0.000000
   52        8.242713   0.000000
   53        8.945307   0.000000
   54        9.272547   0.000000
   55        9.669154   0.000000
   56        9.856496   0.000000
   57       10.110789   0.000000
   58       10.379709   0.000000
   59       10.442044   0.000000
   60       10.729692   0.000000
   61       10.955571   0.000000
   62       11.488164   0.000000
   63       11.730150   0.000000
   64       12.058103   0.000000
   65       12.454363   0.000000
   66       12.667580   0.000000
   67       12.867597   0.000000
   68       12.930300   0.000000
   69       13.414113   0.000000
   70       13.771399   0.000000
   71       13.904460   0.000000
   72       14.138288   0.000000
 
  0.1666667E+00  0.4166667E+00 -0.5551115E-16  0.2777778E-02
    1      -11.229606   1.000000
    2      -10.724405   1.000000
    3       -9.963394   1.000000
    4       -8.994486   1.000000
    5       -8.901992   1.000000
    6       -8.300771   1.000000
    7       -6.617178   1.000000
    8       -6.317355   1.000000
    9       -5.983437   1.000000
   10       -5.267384   1.000000
   11       -4.937831   1.000000
   12       -4.260631   1.000000
   13       -3.698688   1.000000
   14       -3.217629   1.000000
   15       -3.009135   1.000000
   16       -2.429032   1.000000
   17       -2.131872   1.000000
   18       -1.799085   1.000000
   19       -1.559992   1.000000
   20       -1.042515   1.000000
   21       -0.902541   1.000000
   22       -0.691465   1.000000
   23       -0.532435   1.000000
   24       -0.115650   1.000000
   25        0.009056   1.000000
   26        0.267460   1.000000
   27        0.480449   1.000000
   28        0.645215   1.000000
   29        0.985566   1.000000
   30        1.455836   1.000000
   31        1.855953   1.000000
   32        1.920707   1.000000
   33        2.109345   1.000000
   34        2.405358   1.000000
   35        2.615965   1.000000
   36        2.686773   1.000000
   37        2.795518   1.000000
   38        2.955970   1.000000
   39        3.125501   1.000000
   40        3.457897   1.000000
   41        3.630539   1.000000
   42        3.705807   1.000000
   43        3.932194   1.000000
   44        4.237549   1.000000
   45        4.323663   1.000000
   46        4.519205   1.000000
   47        4.765094   1.000000
   48        5.114469   1.000000
   49        6.660526   1.018003
   50        6.822520   0.000000
   51        7.633031   0.000000
   52        8.100075   0.000000
   53        9.111443   0.000000
   54        9.307513   0.000000
   55        9.772566   0.000000
   56        9.878245   0.000000
   57       10.086054   0.000000
   58       10.392351   0.000000
   59       10.505479   0.000000
   60       10.836859   0.000000
   61       10.929414   0.000000
   62       11.470643   0.000000
   63       11.735241   0.000000
   64       11.938401   0.000000
   65       12.389667   0.000000
   66       12.661212   0.000000
   67       12.855598   0.000000
   68       12.999402   0.000000
   69       13.225911   0.000000
   70       13.738262   0.000000
   71       14.015436   0.000000
   72       14.391691   0.000000
 
  0.3333333E+00  0.4166667E+00 -0.5551115E-16  0.2777778E-02
    1      -11.221044   1.000000
    2      -10.745868   1.000000
    3       -9.952551   1.000000
    4       -8.941741   1.000000
    5       -8.873359   1.000000
    6       -8.431283   1.000000
    7       -6.562334   1.000000
    8       -6.292653   1.000000
    9       -5.797869   1.000000
   10       -5.332700   1.000000
   11       -5.111305   1.000000
   12       -4.553911   1.000000
   13       -3.371617   1.000000
   14       -3.074786   1.000000
   15       -2.874940   1.000000
   16       -2.531908   1.000000
   17       -2.214054   1.000000
   18       -1.947418   1.000000
   19       -1.443652   1.000000
   20       -1.120077   1.000000
   21       -0.971301   1.000000
   22       -0.781654   1.000000
   23       -0.440127   1.000000
   24       -0.085018   1.000000
   25        0.024566   1.000000
   26        0.171587   1.000000
   27        0.484982   1.000000
   28        0.667292   1.000000
   29        1.084187   1.000000
   30        1.437506   1.000000
   31        1.735363   1.000000
   32        2.069604   1.000000
   33        2.152160   1.000000
   34        2.386656   1.000000
   35        2.620504   1.000000
   36        2.736077   1.000000
   37        2.898069   1.000000
   38        2.940658   1.000000
   39        3.118894   1.000000
   40        3.431766   1.000000
   41        3.582133   1.000000
   42        3.755600   1.000000
   43        3.797205   1.000000
   44        4.168283   1.000000
   45        4.360884   1.000000
   46        4.641357   1.000000
   47        4.794998   1.000000
   48        4.993916   1.000000
   49        6.588068   1.000000
   50        6.817646   0.000000
   51        7.625589   0.000000
   52        7.969863   0.000000
   53        9.195966   0.000000
   54        9.362334   0.000000
   55        9.822074   0.000000
   56        9.939624   0.000000
   57       10.228843   0.000000
   58       10.380397   0.000000
   59       10.540056   0.000000
   60       10.854423   0.000000
   61       10.954799   0.000000
   62       11.290418   0.000000
   63       11.653161   0.000000
   64       11.894652   0.000000
   65       12.336613   0.000000
   66       12.545611   0.000000
   67       12.889970   0.000000
   68       13.107571   0.000000
   69       13.442138   0.000000
   70       13.791603   0.000000
   71       14.145650   0.000000
   72       14.532656   0.000000
 
  0.5000000E+00  0.4166667E+00 -0.5551115E-16  0.2777778E-02
    1      -11.204542   1.000000
    2      -10.776216   1.000000
    3       -9.947457   1.000000
    4       -8.971629   1.000000
    5       -8.737242   1.000000
    6       -8.545600   1.000000
    7       -6.543679   1.000000
    8       -6.270057   1.000000
    9       -5.659071   1.000000
   10       -5.342081   1.000000
   11       -5.195252   1.000000
   12       -4.717149   1.000000
   13       -3.526261   1.000000
   14       -3.149397   1.000000
   15       -2.615342   1.000000
   16       -2.492123   1.000000
   17       -2.114110   1.000000
   18       -1.790818   1.000000
   19       -1.436209   1.000000
   20       -1.226368   1.000000
   21       -0.887824   1.000000
   22       -0.826566   1.000000
   23       -0.606711   1.000000
   24       -0.221614   1.000000
   25        0.026798   1.000000
   26        0.224665   1.000000
   27        0.490751   1.000000
   28        0.907154   1.000000
   29        1.110109   1.000000
   30        1.391112   1.000000
   31        1.754288   1.000000
   32        1.950058   1.000000
   33        2.192065   1.000000
   34        2.288190   1.000000
   35        2.495077   1.000000
   36        2.576406   1.000000
   37        2.886097   1.000000
   38        2.986168   1.000000
   39        3.185119   1.000000
   40        3.358013   1.000000
   41        3.716536   1.000000
   42        3.762935   1.000000
   43        3.879196   1.000000
   44        4.180016   1.000000
   45        4.368552   1.000000
   46        4.630087   1.000000
   47        4.833052   1.000000
   48        4.981930   1.000000
   49        6.577917   1.000000
   50        6.854190   0.000000
   51        7.706855   0.000000
   52        7.922820   0.000000
   53        9.165294   0.000000
   54        9.337864   0.000000
   55        9.804994   0.000000
   56        9.995367   0.000000
   57       10.291876   0.000000
   58       10.473431   0.000000
   59       10.573967   0.000000
   60       10.733128   0.000000
   61       10.929235   0.000000
   62       11.195321   0.000000
   63       11.441967   0.000000
   64       11.966807   0.000000
   65       12.396785   0.000000
   66       12.666500   0.000000
   67       12.961518   0.000000
   68       13.132564   0.000000
   69       13.514290   0.000000
   70       14.019163   0.000000
   71       14.115736   0.000000
   72       14.286434   0.000000
 
 -0.3333333E+00  0.4166667E+00 -0.2775558E-16  0.2777778E-02
    1      -11.196874   1.000000
    2      -10.785425   1.000000
    3       -9.952614   1.000000
    4       -9.004979   1.000000
    5       -8.756020   1.000000
    6       -8.455260   1.000000
    7       -6.565524   1.000000
    8       -6.301141   1.000000
    9       -5.796244   1.000000
   10       -5.216378   1.000000
   11       -5.053401   1.000000
   12       -4.656989   1.000000
   13       -3.897186   1.000000
   14       -3.285056   1.000000
   15       -2.558849   1.000000
   16       -2.234643   1.000000
   17       -2.013178   1.000000
   18       -1.724041   1.000000
   19       -1.459607   1.000000
   20       -1.272819   1.000000
   21       -0.871144   1.000000
   22       -0.766588   1.000000
   23       -0.467636   1.000000
   24       -0.351391   1.000000
   25       -0.141223   1.000000
   26        0.300001   1.000000
   27        0.659261   1.000000
   28        0.799308   1.000000
   29        1.165597   1.000000
   30        1.454881   1.000000
   31        1.630120   1.000000
   32        1.871399   1.000000
   33        2.100383   1.000000
   34        2.175545   1.000000
   35        2.395777   1.000000
   36        2.581861   1.000000
   37        2.814942   1.000000
   38        3.018182   1.000000
   39        3.217944   1.000000
   40        3.329757   1.000000
   41        3.739299   1.000000
   42        3.812700   1.000000
   43        3.985753   1.000000
   44        4.242281   1.000000
   45        4.345898   1.000000
   46        4.599836   1.000000
   47        4.883797   1.000000
   48        5.002892   1.000000
   49        6.635515   1.031133
   50        6.916643   0.000000
   51        7.814698   0.000000
   52        7.964800   0.000000
   53        9.096143   0.000000
   54        9.296387   0.000000
   55        9.697524   0.000000
   56        9.969814   0.000000
   57       10.288422   0.000000
   58       10.344684   0.000000
   59       10.481869   0.000000
   60       10.737541   0.000000
   61       10.946491   0.000000
   62       11.320061   0.000000
   63       11.550475   0.000000
   64       11.767983   0.000000
   65       12.696756   0.000000
   66       12.762142   0.000000
   67       12.971599   0.000000
   68       13.096264   0.000000
   69       13.321708   0.000000
   70       13.841258   0.000000
   71       14.172390   0.000000
   72       14.347082   0.000000
 
 -0.1666667E+00  0.4166667E+00 -0.5551115E-16  0.2777778E-02
    1      -11.206967   1.000000
    2      -10.763117   1.000000
    3       -9.962533   1.000000
    4       -9.041563   1.000000
    5       -8.818231   1.000000
    6       -8.305955   1.000000
    7       -6.634120   1.000000
    8       -6.314661   1.000000
    9       -5.971530   1.000000
   10       -5.161349   1.000000
   11       -4.833965   1.000000
   12       -4.432655   1.000000
   13       -4.093705   1.000000
   14       -3.372317   1.000000
   15       -2.781975   1.000000
   16       -2.303827   1.000000
   17       -1.940039   1.000000
   18       -1.659878   1.000000
   19       -1.364754   1.000000
   20       -1.073253   1.000000
   21       -0.841990   1.000000
   22       -0.777717   1.000000
   23       -0.488162   1.000000
   24       -0.348096   1.000000
   25       -0.196452   1.000000
   26        0.268595   1.000000
   27        0.616912   1.000000
   28        0.891821   1.000000
   29        1.165419   1.000000
   30        1.360130   1.000000
   31        1.595881   1.000000
   32        1.857512   1.000000
   33        1.951374   1.000000
   34        2.161606   1.000000
   35        2.433375   1.000000
   36        2.612625   1.000000
   37        2.920615   1.000000
   38        3.093004   1.000000
   39        3.214220   1.000000
   40        3.293409   1.000000
   41        3.659108   1.000000
   42        3.814866   1.000000
   43        3.877628   1.000000
   44        4.265470   1.000000
   45        4.432512   1.000000
   46        4.653625   1.000000
   47        4.801644   1.000000
   48        5.080187   1.000000
   49        6.692923   0.506246
   50        6.938492   0.000000
   51        7.781169   0.000000
   52        8.164805   0.000000
   53        8.983956   0.000000
   54        9.267732   0.000000
   55        9.624891   0.000000
   56        9.897480   0.000000
   57       10.163331   0.000000
   58       10.342604   0.000000
   59       10.438875   0.000000
   60       10.694257   0.000000
   61       10.972775   0.000000
   62       11.456757   0.000000
   63       11.687854   0.000000
   64       11.899172   0.000000
   65       12.442487   0.000000
   66       12.818641   0.000000
   67       12.944352   0.000000
   68       13.056777   0.000000
   69       13.410282   0.000000
   70       13.724886   0.000000
   71       14.051095   0.000000
   72       14.143334   0.000000
 
  0.0000000E+00  0.5000000E+00 -0.8326673E-16  0.1388889E-02
    1      -11.158133   1.000000
    2      -10.734672   1.000000
    3       -9.988072   1.000000
    4       -9.047664   1.000000
    5       -8.929929   1.000000
    6       -8.252265   1.000000
    7       -6.663112   1.000000
    8       -6.344151   1.000000
    9       -6.096859   1.000000
   10       -5.175288   1.000000
   11       -4.765919   1.000000
   12       -4.187378   1.000000
   13       -4.126246   1.000000
   14       -3.385635   1.000000
   15       -3.105142   1.000000
   16       -2.244127   1.000000
   17       -1.913123   1.000000
   18       -1.475563   1.000000
   19       -1.389797   1.000000
   20       -1.110468   1.000000
   21       -0.890814   1.000000
   22       -0.659922   1.000000
   23       -0.450198   1.000000
   24       -0.426779   1.000000
   25        0.090082   1.000000
   26        0.381423   1.000000
   27        0.431015   1.000000
   28        0.799199   1.000000
   29        1.090051   1.000000
   30        1.385138   1.000000
   31        1.762230   1.000000
   32        1.884995   1.000000
   33        1.990627   1.000000
   34        2.292338   1.000000
   35        2.417804   1.000000
   36        2.595214   1.000000
   37        2.646996   1.000000
   38        3.156563   1.000000
   39        3.233022   1.000000
   40        3.462630   1.000000
   41        3.635450   1.000000
   42        3.723747   1.000000
   43        3.850191   1.000000
   44        4.250890   1.000000
   45        4.445518   1.000000
   46        4.562235   1.000000
   47        4.715669   1.000000
   48        5.249048   1.000000
   49        6.648782   1.050387
   50        6.915657   0.000000
   51        7.661040   0.000000
   52        8.365609   0.000000
   53        8.816240   0.000000
   54        9.333800   0.000000
   55        9.518674   0.000000
   56        9.760176   0.000000
   57       10.102244   0.000000
   58       10.344107   0.000000
   59       10.391376   0.000000
   60       10.647166   0.000000
   61       10.901511   0.000000
   62       11.445585   0.000000
   63       11.774951   0.000000
   64       12.165727   0.000000
   65       12.346428   0.000000
   66       12.648476   0.000000
   67       12.851481   0.000000
   68       12.953587   0.000000
   69       13.482386   0.000000
   70       13.777441   0.000000
   71       13.977634   0.000000
   72       14.026531   0.000000
 
  0.1666667E+00  0.5000000E+00 -0.5551115E-16  0.2777778E-02
    1      -11.154394   1.000000
    2      -10.744338   1.000000
    3       -9.981839   1.000000
    4       -9.026589   1.000000
    5       -8.920262   1.000000
    6       -8.313401   1.000000
    7       -6.617338   1.000000
    8       -6.354664   1.000000
    9       -6.020304   1.000000
   10       -5.221267   1.000000
   11       -4.855438   1.000000
   12       -4.365554   1.000000
   13       -4.001917   1.000000
   14       -3.321652   1.000000
   15       -2.874766   1.000000
   16       -2.187141   1.000000
   17       -2.047859   1.000000
   18       -1.715357   1.000000
   19       -1.361713   1.000000
   20       -1.054506   1.000000
   21       -0.893267   1.000000
   22       -0.648914   1.000000
   23       -0.523750   1.000000
   24       -0.369808   1.000000
   25       -0.003116   1.000000
   26        0.367239   1.000000
   27        0.595128   1.000000
   28        0.709676   1.000000
   29        1.061525   1.000000
   30        1.515173   1.000000
   31        1.703205   1.000000
   32        1.884424   1.000000
   33        2.083791   1.000000
   34        2.280486   1.000000
   35        2.507012   1.000000
   36        2.628713   1.000000
   37        2.664923   1.000000
   38        3.092991   1.000000
   39        3.209280   1.000000
   40        3.431952   1.000000
   41        3.556321   1.000000
   42        3.735485   1.000000
   43        3.916055   1.000000
   44        4.305971   1.000000
   45        4.443840   1.000000
   46        4.518854   1.000000
   47        4.687161   1.000000
   48        5.190088   1.000000
   49        6.649777   1.004037
   50        6.872525   0.000000
   51        7.676638   0.000000
   52        8.226802   0.000000
   53        8.933909   0.000000
   54        9.326759   0.000000
   55        9.598043   0.000000
   56        9.781423   0.000000
   57       10.127879   0.000000
   58       10.334938   0.000000
   59       10.418796   0.000000
   60       10.693512   0.000000
   61       10.883458   0.000000
   62       11.474146   0.000000
   63       11.654945   0.000000
   64       11.994677   0.000000
   65       12.547931   0.000000
   66       12.727048   0.000000
   67       12.786618   0.000000
   68       12.957629   0.000000
   69       13.304357   0.000000
   70       13.795446   0.000000
   71       14.021294   0.000000
   72       14.206633   0.000000
 
  0.3333333E+00  0.5000000E+00 -0.5551115E-16  0.2777778E-02
    1      -11.146460   1.000000
    2      -10.763827   1.000000
    3       -9.969224   1.000000
    4       -9.009851   1.000000
    5       -8.850629   1.000000
    6       -8.455989   1.000000
    7       -6.551015   1.000000
    8       -6.335480   1.000000
    9       -5.836773   1.000000
   10       -5.295645   1.000000
   11       -5.075377   1.000000
   12       -4.661139   1.000000
   13       -3.648106   1.000000
   14       -3.143989   1.000000
   15       -2.655135   1.000000
   16       -2.372121   1.000000
   17       -2.081470   1.000000
   18       -1.907913   1.000000
   19       -1.321007   1.000000
   20       -1.188151   1.000000
   21       -0.851487   1.000000
   22       -0.668811   1.000000
   23       -0.425900   1.000000
   24       -0.341510   1.000000
   25       -0.134434   1.000000
   26        0.258739   1.000000
   27        0.415086   1.000000
   28        0.759386   1.000000
   29        1.360501   1.000000
   30        1.508598   1.000000
   31        1.717322   1.000000
   32        1.978069   1.000000
   33        2.161585   1.000000
   34        2.346750   1.000000
   35        2.587518   1.000000
   36        2.690384   1.000000
   37        2.739370   1.000000
   38        2.896400   1.000000
   39        3.153780   1.000000
   40        3.390929   1.000000
   41        3.621094   1.000000
   42        3.734597   1.000000
   43        3.913973   1.000000
   44        4.164287   1.000000
   45        4.387282   1.000000
   46        4.589325   1.000000
   47        4.741912   1.000000
   48        5.060597   1.000000
   49        6.636422   1.000000
   50        6.784500   0.000000
   51        7.736407   0.000000
   52        8.028537   0.000000
   53        9.056791   0.000000
   54        9.300356   0.000000
   55        9.738113   0.000000
   56        9.851687   0.000000
   57       10.276234   0.000000
   58       10.325642   0.000000
   59       10.456086   0.000000
   60       10.774377   0.000000
   61       10.839501   0.000000
   62       11.288819   0.000000
   63       11.697369   0.000000
   64       11.818633   0.000000
   65       12.394663   0.000000
   66       12.726343   0.000000
   67       12.902833   0.000000
   68       13.124863   0.000000
   69       13.226757   0.000000
   70       13.810365   0.000000
   71       14.186505   0.000000
   72       14.481758   0.000000
 
  0.5000000E+00  0.5000000E+00 -0.5551115E-16  0.1388889E-02
    1      -11.142237   1.000000
    2      -10.773684   1.000000
    3       -9.962833   1.000000
    4       -9.011339   1.000000
    5       -8.768365   1.000000
    6       -8.563071   1.000000
    7       -6.535794   1.000000
    8       -6.300922   1.000000
    9       -5.695989   1.000000
   10       -5.313483   1.000000
   11       -5.254136   1.000000
   12       -4.783329   1.000000
   13       -3.352615   1.000000
   14       -3.044393   1.000000
   15       -2.783738   1.000000
   16       -2.457549   1.000000
   17       -2.253504   1.000000
   18       -1.722400   1.000000
   19       -1.264022   1.000000
   20       -1.159225   1.000000
   21       -1.020059   1.000000
   22       -0.604753   1.000000
   23       -0.481406   1.000000
   24       -0.333981   1.000000
   25       -0.107928   1.000000
   26        0.036550   1.000000
   27        0.540390   1.000000
   28        0.701679   1.000000
   29        1.365234   1.000000
   30        1.587382   1.000000
   31        1.866180   1.000000
   32        2.032363   1.000000
   33        2.140406   1.000000
   34        2.284306   1.000000
   35        2.660100   1.000000
   36        2.682897   1.000000
   37        2.733319   1.000000
   38        3.004980   1.000000
   39        3.124317   1.000000
   40        3.344837   1.000000
   41        3.643541   1.000000
   42        3.690035   1.000000
   43        3.821504   1.000000
   44        4.155388   1.000000
   45        4.315050   1.000000
   46        4.689909   1.000000
   47        4.765899   1.000000
   48        4.984456   1.000000
   49        6.623662   1.000000
   50        6.737336   0.000000
   51        7.802777   0.000000
   52        7.919571   0.000000
   53        9.091063   0.000000
   54        9.280192   0.000000
   55        9.792315   0.000000
   56        9.900501   0.000000
   57       10.322425   0.000000
   58       10.426221   0.000000
   59       10.556278   0.000000
   60       10.669788   0.000000
   61       10.846843   0.000000
   62       11.144234   0.000000
   63       11.720365   0.000000
   64       11.816540   0.000000
   65       12.358293   0.000000
   66       12.451114   0.000000
   67       12.985961   0.000000
   68       13.240108   0.000000
   69       13.415198   0.000000
   70       13.933474   0.000000
   71       14.196122   0.000000
   72       14.356906   0.000000
 
  0.0000000E+00  0.0000000E+00  0.1000000E+00  0.2777778E-02
    1      -11.721371   1.000000
    2      -10.859239   1.000000
    3      -10.005445   1.000000
    4       -8.748208   1.000000
    5       -8.136052   1.000000
    6       -8.029434   1.000000
    7       -6.921769   1.000000
    8       -5.901689   1.000000
    9       -5.835650   1.000000
   10       -4.815177   1.000000
   11       -4.243499   1.000000
   12       -3.762658   1.000000
   13       -3.571078   1.000000
   14       -3.175494   1.000000
   15       -3.105623   1.000000
   16       -2.893952   1.000000
   17       -2.584236   1.000000
   18       -2.217869   1.000000
   19       -1.778687   1.000000
   20       -1.551092   1.000000
   21       -1.339962   1.000000
   22       -1.188164   1.000000
   23       -0.738688   1.000000
   24       -0.698576   1.000000
   25       -0.332007   1.000000
   26       -0.203207   1.000000
   27        0.058780   1.000000
   28        0.264645   1.000000
   29        0.718683   1.000000
   30        1.349107   1.000000
   31        1.760509   1.000000
   32        1.875712   1.000000
   33        2.094318   1.000000
   34        2.320839   1.000000
   35        2.502307   1.000000
   36        2.696917   1.000000
   37        2.863409   1.000000
   38        2.995439   1.000000
   39        3.411112   1.000000
   40        3.554059   1.000000
   41        3.611837   1.000000
   42        3.831901   1.000000
   43        4.229213   1.000000
   44        4.408036   1.000000
   45        4.458347   1.000000
   46        4.729884   1.000000
   47        4.931720   1.000000
   48        5.818615   1.000000
   49        6.907437   0.000000
   50        7.243239   0.000000
   51        7.644787   0.000000
   52        8.067044   0.000000
   53        8.911145   0.000000
   54        9.597147   0.000000
   55        9.782349   0.000000
   56       10.085002   0.000000
   57       10.267503   0.000000
   58       10.648348   0.000000
   59       10.923870   0.000000
   60       11.209079   0.000000
   61       11.604219   0.000000
   62       11.752355   0.000000
   63       12.178162   0.000000
   64       12.346629   0.000000
   65       13.072361   0.000000
   66       13.145030   0.000000
   67       13.348424   0.000000
   68       13.486374   0.000000
   69       13.608378   0.000000
   70       13.818622   0.000000
   71       13.877208   0.000000
   72       14.039022   0.000000
 
  0.1666667E+00  0.6938894E-17  0.1000000E+00  0.2777778E-02
    1      -11.714444   1.000000
    2      -10.888518   1.000000
    3       -9.965992   1.000000
    4       -8.759992   1.000000
    5       -8.194686   1.000000
    6       -7.978314   1.000000
    7       -6.912213   1.000000
    8       -5.910442   1.000000
    9       -5.828498   1.000000
   10       -4.757437   1.000000
   11       -4.403440   1.000000
   12       -3.725867   1.000000
   13       -3.602619   1.000000
   14       -3.191296   1.000000
   15       -3.046771   1.000000
   16       -2.829538   1.000000
   17       -2.632058   1.000000
   18       -2.014548   1.000000
   19       -1.727267   1.000000
   20       -1.629065   1.000000
   21       -1.470889   1.000000
   22       -1.093220   1.000000
   23       -0.747349   1.000000
   24       -0.634834   1.000000
   25       -0.515394   1.000000
   26       -0.194714   1.000000
   27       -0.036081   1.000000
   28        0.275021   1.000000
   29        0.776650   1.000000
   30        1.348845   1.000000
   31        1.589280   1.000000
   32        1.866264   1.000000
   33        2.008136   1.000000
   34        2.423783   1.000000
   35        2.649263   1.000000
   36        2.824250   1.000000
   37        2.889159   1.000000
   38        3.096756   1.000000
   39        3.439616   1.000000
   40        3.547797   1.000000
   41        3.649525   1.000000
   42        3.785645   1.000000
   43        4.185843   1.000000
   44        4.327445   1.000000
   45        4.488196   1.000000
   46        4.665080   1.000000
   47        4.853777   1.000000
   48        5.765967   1.000000
   49        6.908575   0.000000
   50        7.249888   0.000000
   51        7.584559   0.000000
   52        8.143796   0.000000
   53        8.936975   0.000000
   54        9.678329   0.000000
   55        9.834797   0.000000
   56       10.133959   0.000000
   57       10.336711   0.000000
   58       10.562440   0.000000
   59       10.889659   0.000000
   60       11.137302   0.000000
   61       11.582279   0.000000
   62       11.852177   0.000000
   63       12.131889   0.000000
   64       12.248844   0.000000
   65       13.019336   0.000000
   66       13.177935   0.000000
   67       13.248581   0.000000
   68       13.443292   0.000000
   69       13.606515   0.000000
   70       13.742567   0.000000
   71       13.859660   0.000000
   72       14.103628   0.000000
 
  0.3333333E+00  0.0000000E+00  0.1000000E+00  0.2777778E-02
    1      -11.679844   1.000000
    2      -10.998467   1.000000
    3       -9.837794   1.000000
    4       -8.776327   1.000000
    5       -8.257957   1.000000
    6       -7.956698   1.000000
    7       -6.898921   1.000000
    8       -5.900641   1.000000
    9       -5.817821   1.000000
   10       -4.747951   1.000000
   11       -4.578526   1.000000
   12       -3.769280   1.000000
   13       -3.589156   1.000000
   14       -3.123918   1.000000
   15       -3.016298   1.000000
   16       -2.599772   1.000000
   17       -2.494305   1.000000
   18       -2.160455   1.000000
   19       -1.850785   1.000000
   20       -1.655949   1.000000
   21       -1.581134   1.000000
   22       -1.086846   1.000000
   23       -0.861789   1.000000
   24       -0.643429   1.000000
   25       -0.378973   1.000000
   26       -0.076743   1.000000
   27        0.100280   1.000000
   28        0.344627   1.000000
   29        0.617302   1.000000
   30        1.073910   1.000000
   31        1.718497   1.000000
   32        2.017927   1.000000
   33        2.376598   1.000000
   34        2.441708   1.000000
   35        2.499682   1.000000
   36        2.780102   1.000000
   37        2.873420   1.000000
   38        2.994656   1.000000
   39        3.288451   1.000000
   40        3.490308   1.000000
   41        3.696482   1.000000
   42        3.936980   1.000000
   43        4.049734   1.000000
   44        4.259742   1.000000
   45        4.453314   1.000000
   46        4.565736   1.000000
   47        4.916735   1.000000
   48        5.623256   1.000000
   49        6.965929   0.000000
   50        7.251678   0.000000
   51        7.620706   0.000000
   52        8.160642   0.000000
   53        8.958991   0.000000
   54        9.776506   0.000000
   55        9.947547   0.000000
   56       10.366805   0.000000
   57       10.393387   0.000000
   58       10.629125   0.000000
   59       10.905740   0.000000
   60       11.116873   0.000000
   61       11.520888   0.000000
   62       11.920645   0.000000
   63       12.026544   0.000000
   64       12.174637   0.000000
   65       12.991677   0.000000
   66       13.051399   0.000000
   67       13.221026   0.000000
   68       13.460822   0.000000
   69       13.616309   0.000000
   70       13.756054   0.000000
   71       13.821262   0.000000
   72       14.060281   0.000000
 
  0.5000000E+00  0.0000000E+00  0.1000000E+00  0.2777778E-02
    1      -11.647519   1.000000
    2      -11.077779   1.000000
    3       -9.753314   1.000000
    4       -8.779191   1.000000
    5       -8.288760   1.000000
    6       -7.963559   1.000000
    7       -6.894522   1.000000
    8       -5.874572   1.000000
    9       -5.823490   1.000000
   10       -4.841296   1.000000
   11       -4.564971   1.000000
   12       -3.825722   1.000000
   13       -3.545036   1.000000
   14       -3.071702   1.000000
   15       -2.913671   1.000000
   16       -2.566029   1.000000
   17       -2.402668   1.000000
   18       -2.212168   1.000000
   19       -2.008626   1.000000
   20       -1.774051   1.000000
   21       -1.619092   1.000000
   22       -1.117395   1.000000
   23       -0.882643   1.000000
   24       -0.676646   1.000000
   25       -0.309559   1.000000
   26        0.016329   1.000000
   27        0.267306   1.000000
   28        0.489993   1.000000
   29        0.778957   1.000000
   30        0.853996   1.000000
   31        1.937877   1.000000
   32        2.047847   1.000000
   33        2.178349   1.000000
   34        2.311241   1.000000
   35        2.564600   1.000000
   36        2.701351   1.000000
   37        2.807731   1.000000
   38        3.088173   1.000000
   39        3.180869   1.000000
   40        3.387494   1.000000
   41        3.641770   1.000000
   42        3.968192   1.000000
   43        4.095927   1.000000
   44        4.219895   1.000000
   45        4.306977   1.000000
   46        4.653058   1.000000
   47        4.984491   1.000000
   48        5.538579   1.000000
   49        7.053828   0.000000
   50        7.199618   0.000000
   51        7.714751   0.000000
   52        8.115164   0.000000
   53        8.963258   0.000000
   54        9.803979   0.000000
   55       10.007223   0.000000
   56       10.294529   0.000000
   57       10.638871   0.000000
   58       10.797797   0.000000
   59       10.991859   0.000000
   60       11.146314   0.000000
   61       11.494801   0.000000
   62       11.767678   0.000000
   63       11.965522   0.000000
   64       12.286192   0.000000
   65       12.870582   0.000000
   66       13.036485   0.000000
   67       13.199196   0.000000
   68       13.516740   0.000000
   69       13.621147   0.000000
   70       13.840710   0.000000
   71       13.914579   0.000000
   72       14.037567   0.000000
 
 -0.3333333E+00  0.0000000E+00  0.1000000E+00  0.2777778E-02
    1      -11.657493   1.000000
    2      -11.052980   1.000000
    3       -9.789396   1.000000
    4       -8.763593   1.000000
    5       -8.252100   1.000000
    6       -7.992021   1.000000
    7       -6.904256   1.000000
    8       -5.867501   1.000000
    9       -5.832454   1.000000
   10       -4.887011   1.000000
   11       -4.447891   1.000000
   12       -3.832764   1.000000
   13       -3.524810   1.000000
   14       -3.072688   1.000000
   15       -2.893073   1.000000
   16       -2.644067   1.000000
   17       -2.488977   1.000000
   18       -2.290428   1.000000
   19       -2.029145   1.000000
   20       -1.710978   1.000000
   21       -1.528688   1.000000
   22       -1.245727   1.000000
   23       -0.882441   1.000000
   24       -0.524332   1.000000
   25       -0.359650   1.000000
   26        0.014384   1.000000
   27        0.305774   1.000000
   28        0.527917   1.000000
   29        0.804993   1.000000
   30        1.074884   1.000000
   31        1.757175   1.000000
   32        1.946257   1.000000
   33        2.136877   1.000000
   34        2.301799   1.000000
   35        2.570737   1.000000
   36        2.602367   1.000000
   37        2.890180   1.000000
   38        3.087494   1.000000
   39        3.188286   1.000000
   40        3.448609   1.000000
   41        3.571497   1.000000
   42        3.836281   1.000000
   43        4.015310   1.000000
   44        4.207221   1.000000
   45        4.464823   1.000000
   46        4.742945   1.000000
   47        5.020886   1.000000
   48        5.616095   1.000000
   49        7.086429   0.000000
   50        7.148536   0.000000
   51        7.820950   0.000000
   52        8.007908   0.000000
   53        8.941211   0.000000
   54        9.767193   0.000000
   55        9.913914   0.000000
   56       10.249835   0.000000
   57       10.481852   0.000000
   58       10.947384   0.000000
   59       11.021386   0.000000
   60       11.306864   0.000000
   61       11.474081   0.000000
   62       11.618102   0.000000
   63       12.050436   0.000000
   64       12.316896   0.000000
   65       12.880730   0.000000
   66       13.161070   0.000000
   67       13.217947   0.000000
   68       13.526517   0.000000
   69       13.667191   0.000000
   70       13.888536   0.000000
   71       13.990914   0.000000
   72       14.126575   0.000000
 
 -0.1666667E+00  0.0000000E+00  0.1000000E+00  0.2777778E-02
    1      -11.696086   1.000000
    2      -10.946900   1.000000
    3       -9.910992   1.000000
    4       -8.749494   1.000000
    5       -8.165313   1.000000
    6       -8.033560   1.000000
    7       -6.918218   1.000000
    8       -5.886871   1.000000
    9       -5.831701   1.000000
   10       -4.868395   1.000000
   11       -4.293336   1.000000
   12       -3.799379   1.000000
   13       -3.542247   1.000000
   14       -3.119570   1.000000
   15       -3.060207   1.000000
   16       -2.710985   1.000000
   17       -2.541580   1.000000
   18       -2.373265   1.000000
   19       -1.845134   1.000000
   20       -1.706770   1.000000
   21       -1.468678   1.000000
   22       -1.112944   1.000000
   23       -0.856645   1.000000
   24       -0.613958   1.000000
   25       -0.183092   1.000000
   26       -0.062772   1.000000
   27        0.147718   1.000000
   28        0.370291   1.000000
   29        0.636544   1.000000
   30        1.323464   1.000000
   31        1.740814   1.000000
   32        1.990254   1.000000
   33        2.135795   1.000000
   34        2.332384   1.000000
   35        2.436802   1.000000
   36        2.696122   1.000000
   37        2.853178   1.000000
   38        2.920896   1.000000
   39        3.266959   1.000000
   40        3.472130   1.000000
   41        3.567562   1.000000
   42        3.889751   1.000000
   43        4.117960   1.000000
   44        4.248214   1.000000
   45        4.527835   1.000000
   46        4.808854   1.000000
   47        4.988296   1.000000
   48        5.752609   1.000000
   49        6.973759   0.000000
   50        7.215781   0.000000
   51        7.797672   0.000000
   52        7.968857   0.000000
   53        8.911294   0.000000
   54        9.651827   0.000000
   55        9.815622   0.000000
   56       10.194050   0.000000
   57       10.275417   0.000000
   58       10.806859   0.000000
   59       11.076512   0.000000
   60       11.191790   0.000000
   61       11.593913   0.000000
   62       11.645851   0.000000
   63       12.177718   0.000000
   64       12.318100   0.000000
   65       12.995390   0.000000
   66       13.176815   0.000000
   67       13.316739   0.000000
   68       13.523931   0.000000
   69       13.772956   0.000000
   70       13.842123   0.000000
   71       13.913492   0.000000
   72       14.040667   0.000000
 
  0.0000000E+00  0.8333333E-01  0.1000000E+00  0.2777778E-02
    1      -11.720402   1.000000
    2      -10.867449   1.000000
    3       -9.984370   1.000000
    4       -8.712090   1.000000
    5       -8.094257   1.000000
    6       -8.033116   1.000000
    7       -6.983788   1.000000
    8       -5.922300   1.000000
    9       -5.871625   1.000000
   10       -4.789312   1.000000
   11       -4.266772   1.000000
   12       -3.887556   1.000000
   13       -3.621666   1.000000
   14       -3.313105   1.000000
   15       -3.048612   1.000000
   16       -2.810335   1.000000
   17       -2.607302   1.000000
   18       -1.987735   1.000000
   19       -1.799230   1.000000
   20       -1.600131   1.000000
   21       -1.381924   1.000000
   22       -1.062014   1.000000
   23       -0.948858   1.000000
   24       -0.572377   1.000000
   25       -0.341693   1.000000
   26       -0.225592   1.000000
   27        0.006280   1.000000
   28        0.222779   1.000000
   29        0.443468   1.000000
   30        1.510352   1.000000
   31        1.891829   1.000000
   32        1.969735   1.000000
   33        2.219538   1.000000
   34        2.347029   1.000000
   35        2.592377   1.000000
   36        2.680272   1.000000
   37        2.898166   1.000000
   38        3.150094   1.000000
   39        3.417065   1.000000
   40        3.582313   1.000000
   41        3.663545   1.000000
   42        3.896713   1.000000
   43        4.272511   1.000000
   44        4.334708   1.000000
   45        4.493404   1.000000
   46        4.675514   1.000000
   47        4.848772   1.000000
   48        5.741537   1.000000
   49        6.891323   0.000000
   50        7.223255   0.000000
   51        7.569110   0.000000
   52        8.143942   0.000000
   53        8.958734   0.000000
   54        9.553462   0.000000
   55        9.867413   0.000000
   56       10.175087   0.000000
   57       10.346449   0.000000
   58       10.650542   0.000000
   59       10.950865   0.000000
   60       11.147189   0.000000
   61       11.527216   0.000000
   62       11.670982   0.000000
   63       12.096355   0.000000
   64       12.386504   0.000000
   65       12.856240   0.000000
   66       13.037594   0.000000
   67       13.239535   0.000000
   68       13.304675   0.000000
   69       13.522023   0.000000
   70       13.768410   0.000000
   71       13.896543   0.000000
   72       14.026213   0.000000
 
  0.1666667E+00  0.8333333E-01  0.1000000E+00  0.2777778E-02
    1      -11.721638   1.000000
    2      -10.867108   1.000000
    3       -9.973576   1.000000
    4       -8.731928   1.000000
    5       -8.127299   1.000000
    6       -8.001667   1.000000
    7       -6.976748   1.000000
    8       -5.904644   1.000000
    9       -5.867375   1.000000
   10       -4.741533   1.000000
   11       -4.340871   1.000000
   12       -3.899177   1.000000
   13       -3.650268   1.000000
   14       -3.207284   1.000000
   15       -3.064908   1.000000
   16       -2.884031   1.000000
   17       -2.715628   1.000000
   18       -1.818285   1.000000
   19       -1.692885   1.000000
   20       -1.553559   1.000000
   21       -1.374448   1.000000
   22       -1.223883   1.000000
   23       -0.859272   1.000000
   24       -0.722498   1.000000
   25       -0.421077   1.000000
   26       -0.253999   1.000000
   27        0.058422   1.000000
   28        0.274124   1.000000
   29        0.723425   1.000000
   30        1.389890   1.000000
   31        1.684296   1.000000
   32        1.731711   1.000000
   33        2.003182   1.000000
   34        2.512913   1.000000
   35        2.659077   1.000000
   36        2.865564   1.000000
   37        3.020600   1.000000
   38        3.181276   1.000000
   39        3.490103   1.000000
   40        3.646635   1.000000
   41        3.676737   1.000000
   42        3.788578   1.000000
   43        4.246581   1.000000
   44        4.405010   1.000000
   45        4.529457   1.000000
   46        4.634329   1.000000
   47        4.803170   1.000000
   48        5.679483   1.000000
   49        6.870291   0.000000
   50        7.248805   0.000000
   51        7.606551   0.000000
   52        8.127298   0.000000
   53        8.937023   0.000000
   54        9.572821   0.000000
   55        9.871123   0.000000
   56       10.196334   0.000000
   57       10.391452   0.000000
   58       10.595587   0.000000
   59       10.908875   0.000000
   60       11.127488   0.000000
   61       11.545815   0.000000
   62       11.741943   0.000000
   63       12.025519   0.000000
   64       12.356612   0.000000
   65       12.867073   0.000000
   66       12.953643   0.000000
   67       13.204992   0.000000
   68       13.281103   0.000000
   69       13.390198   0.000000
   70       13.738095   0.000000
   71       13.822541   0.000000
   72       14.011975   0.000000
 
  0.3333333E+00  0.8333333E-01  0.1000000E+00  0.2777778E-02
    1      -11.692427   1.000000
    2      -10.968341   1.000000
    3       -9.844606   1.000000
    4       -8.773025   1.000000
    5       -8.187936   1.000000
    6       -7.970950   1.000000
    7       -6.957996   1.000000
    8       -5.886434   1.000000
    9       -5.849927   1.000000
   10       -4.695691   1.000000
   11       -4.550575   1.000000
   12       -3.958138   1.000000
   13       -3.623183   1.000000
   14       -3.115704   1.000000
   15       -2.970469   1.000000
   16       -2.785969   1.000000
   17       -2.634883   1.000000
   18       -1.998771   1.000000
   19       -1.822538   1.000000
   20       -1.659397   1.000000
   21       -1.454394   1.000000
   22       -1.145876   1.000000
   23       -0.882038   1.000000
   24       -0.570328   1.000000
   25       -0.370639   1.000000
   26       -0.241744   1.000000
   27        0.097635   1.000000
   28        0.572950   1.000000
   29        0.724796   1.000000
   30        1.113126   1.000000
   31        1.630892   1.000000
   32        1.940141   1.000000
   33        2.032381   1.000000
   34        2.487557   1.000000
   35        2.540798   1.000000
   36        2.850933   1.000000
   37        3.004130   1.000000
   38        3.136194   1.000000
   39        3.471134   1.000000
   40        3.542365   1.000000
   41        3.602241   1.000000
   42        3.929769   1.000000
   43        4.258081   1.000000
   44        4.381995   1.000000
   45        4.517304   1.000000
   46        4.637895   1.000000
   47        4.791453   1.000000
   48        5.516605   1.000000
   49        6.921942   0.000000
   50        7.264726   0.000000
   51        7.721585   0.000000
   52        8.055579   0.000000
   53        8.939949   0.000000
   54        9.674654   0.000000
   55        9.977490   0.000000
   56       10.323862   0.000000
   57       10.520694   0.000000
   58       10.650880   0.000000
   59       10.898451   0.000000
   60       11.188828   0.000000
   61       11.494737   0.000000
   62       11.835260   0.000000
   63       11.951821   0.000000
   64       12.126158   0.000000
   65       12.794866   0.000000
   66       13.029094   0.000000
   67       13.118815   0.000000
   68       13.305421   0.000000
   69       13.433462   0.000000
   70       13.634010   0.000000
   71       13.778760   0.000000
   72       14.000915   0.000000
 
  0.5000000E+00  0.8333333E-01  0.1000000E+00  0.2777778E-02
    1      -11.656000   1.000000
    2      -11.063024   1.000000
    3       -9.733756   1.000000
    4       -8.798781   1.000000
    5       -8.226403   1.000000
    6       -7.962386   1.000000
    7       -6.945290   1.000000
    8       -5.884770   1.000000
    9       -5.836481   1.000000
   10       -4.757236   1.000000
   11       -4.606769   1.000000
   12       -4.006232   1.000000
   13       -3.601327   1.000000
   14       -3.035615   1.000000
   15       -2.920702   1.000000
   16       -2.577759   1.000000
   17       -2.471347   1.000000
   18       -2.184406   1.000000
   19       -1.983926   1.000000
   20       -1.810235   1.000000
   21       -1.579093   1.000000
   22       -1.269241   1.000000
   23       -0.815323   1.000000
   24       -0.540367   1.000000
   25       -0.275759   1.000000
   26        0.081924   1.000000
   27        0.182361   1.000000
   28        0.523809   1.000000
   29        0.796609   1.000000
   30        0.937992   1.000000
   31        1.806182   1.000000
   32        2.030357   1.000000
   33        2.190719   1.000000
   34        2.376502   1.000000
   35        2.561977   1.000000
   36        2.684017   1.000000
   37        2.826142   1.000000
   38        3.061680   1.000000
   39        3.295049   1.000000
   40        3.530483   1.000000
   41        3.585198   1.000000
   42        4.085878   1.000000
   43        4.253578   1.000000
   44        4.335741   1.000000
   45        4.466005   1.000000
   46        4.598628   1.000000
   47        4.849398   1.000000
   48        5.403495   1.000000
   49        7.023791   0.000000
   50        7.217443   0.000000
   51        7.851352   0.000000
   52        7.957481   0.000000
   53        8.972560   0.000000
   54        9.765276   0.000000
   55       10.048803   0.000000
   56       10.358118   0.000000
   57       10.703529   0.000000
   58       10.800380   0.000000
   59       10.954627   0.000000
   60       11.226907   0.000000
   61       11.467298   0.000000
   62       11.738630   0.000000
   63       11.922678   0.000000
   64       12.086624   0.000000
   65       12.724744   0.000000
   66       12.955774   0.000000
   67       13.162208   0.000000
   68       13.343325   0.000000
   69       13.528859   0.000000
   70       13.663773   0.000000
   71       13.808293   0.000000
   72       14.056673   0.000000
 
 -0.3333333E+00  0.8333333E-01  0.1000000E+00  0.2777778E-02
    1      -11.654322   1.000000
    2      -11.064429   1.000000
    3       -9.748043   1.000000
    4       -8.772281   1.000000
    5       -8.217977   1.000000
    6       -7.972178   1.000000
    7       -6.951994   1.000000
    8       -5.900658   1.000000
    9       -5.844501   1.000000
   10       -4.841531   1.000000
   11       -4.491896   1.000000
   12       -3.994676   1.000000
   13       -3.605286   1.000000
   14       -3.116671   1.000000
   15       -2.882225   1.000000
   16       -2.548554   1.000000
   17       -2.302065   1.000000
   18       -2.197112   1.000000
   19       -2.045929   1.000000
   20       -1.869279   1.000000
   21       -1.613766   1.000000
   22       -1.341089   1.000000
   23       -0.900859   1.000000
   24       -0.566834   1.000000
   25       -0.196136   1.000000
   26        0.115859   1.000000
   27        0.316984   1.000000
   28        0.560513   1.000000
   29        0.751029   1.000000
   30        0.891356   1.000000
   31        1.909624   1.000000
   32        2.024788   1.000000
   33        2.116898   1.000000
   34        2.330702   1.000000
   35        2.599084   1.000000
   36        2.694341   1.000000
   37        2.965531   1.000000
   38        3.093379   1.000000
   39        3.308342   1.000000
   40        3.455267   1.000000
   41        3.550396   1.000000
   42        3.886754   1.000000
   43        4.124899   1.000000
   44        4.278404   1.000000
   45        4.522020   1.000000
   46        4.650519   1.000000
   47        4.908364   1.000000
   48        5.491681   1.000000
   49        7.106641   0.000000
   50        7.133241   0.000000
   51        7.807307   0.000000
   52        7.984588   0.000000
   53        9.003520   0.000000
   54        9.824527   0.000000
   55        9.919637   0.000000
   56       10.374530   0.000000
   57       10.601488   0.000000
   58       10.893594   0.000000
   59       11.041823   0.000000
   60       11.277195   0.000000
   61       11.394897   0.000000
   62       11.585219   0.000000
   63       12.024037   0.000000
   64       12.181314   0.000000
   65       12.700306   0.000000
   66       13.026114   0.000000
   67       13.180617   0.000000
   68       13.415575   0.000000
   69       13.556548   0.000000
   70       13.762114   0.000000
   71       13.938336   0.000000
   72       14.046718   0.000000
 
 -0.1666667E+00  0.8333333E-01  0.1000000E+00  0.2777778E-02
    1      -11.689604   1.000000
    2      -10.970175   1.000000
    3       -9.868748   1.000000
    4       -8.727566   1.000000
    5       -8.159034   1.000000
    6       -7.999459   1.000000
    7       -6.971760   1.000000
    8       -5.920094   1.000000
    9       -5.861870   1.000000
   10       -4.834966   1.000000
   11       -4.353786   1.000000
   12       -3.934931   1.000000
   13       -3.600931   1.000000
   14       -3.286534   1.000000
   15       -2.931089   1.000000
   16       -2.626071   1.000000
   17       -2.403823   1.000000
   18       -2.205183   1.000000
   19       -1.903089   1.000000
   20       -1.793491   1.000000
   21       -1.519547   1.000000
   22       -1.100815   1.000000
   23       -1.037303   1.000000
   24       -0.398286   1.000000
   25       -0.235383   1.000000
   26       -0.102771   1.000000
   27        0.066263   1.000000
   28        0.271536   1.000000
   29        0.606560   1.000000
   30        1.429091   1.000000
   31        1.776687   1.000000
   32        2.004585   1.000000
   33        2.223551   1.000000
   34        2.431949   1.000000
   35        2.614195   1.000000
   36        2.694680   1.000000
   37        2.933995   1.000000
   38        3.154754   1.000000
   39        3.266107   1.000000
   40        3.461619   1.000000
   41        3.566309   1.000000
   42        3.939564   1.000000
   43        4.013080   1.000000
   44        4.368747   1.000000
   45        4.518265   1.000000
   46        4.682507   1.000000
   47        4.896851   1.000000
   48        5.663649   1.000000
   49        6.981106   0.000000
   50        7.201236   0.000000
   51        7.652442   0.000000
   52        8.087273   0.000000
   53        8.992581   0.000000
   54        9.677440   0.000000
   55        9.888339   0.000000
   56       10.324525   0.000000
   57       10.384877   0.000000
   58       10.767432   0.000000
   59       11.094691   0.000000
   60       11.136110   0.000000
   61       11.505390   0.000000
   62       11.565727   0.000000
   63       12.159747   0.000000
   64       12.228208   0.000000
   65       12.784559   0.000000
   66       13.080409   0.000000
   67       13.260996   0.000000
   68       13.360345   0.000000
   69       13.641663   0.000000
   70       13.851045   0.000000
   71       13.909017   0.000000
   72       14.068665   0.000000
 
  0.0000000E+00  0.1666667E+00  0.1000000E+00  0.2777778E-02
    1      -11.666355   1.000000
    2      -10.852529   1.000000
    3       -9.948979   1.000000
    4       -8.750226   1.000000
    5       -8.206709   1.000000
    6       -8.040706   1.000000
    7       -6.934621   1.000000
    8       -5.994645   1.000000
    9       -5.879964   1.000000
   10       -4.943085   1.000000
   11       -4.501401   1.000000
   12       -4.052530   1.000000
   13       -3.685974   1.000000
   14       -3.243748   1.000000
   15       -2.882207   1.000000
   16       -2.557829   1.000000
   17       -2.439454   1.000000
   18       -2.143077   1.000000
   19       -1.914442   1.000000
   20       -1.504640   1.000000
   21       -1.264039   1.000000
   22       -1.121387   1.000000
   23       -1.051864   1.000000
   24       -0.490917   1.000000
   25       -0.276358   1.000000
   26       -0.218613   1.000000
   27        0.021067   1.000000
   28        0.429732   1.000000
   29        0.697408   1.000000
   30        1.774016   1.000000
   31        1.785915   1.000000
   32        2.130563   1.000000
   33        2.268503   1.000000
   34        2.420101   1.000000
   35        2.612295   1.000000
   36        2.801498   1.000000
   37        2.889758   1.000000
   38        3.118791   1.000000
   39        3.221497   1.000000
   40        3.461318   1.000000
   41        3.719613   1.000000
   42        3.988045   1.000000
   43        4.064533   1.000000
   44        4.344321   1.000000
   45        4.384662   1.000000
   46        4.599049   1.000000
   47        4.938803   1.000000
   48        5.548645   1.000000
   49        6.834769  -0.000558
   50        7.201349   0.000000
   51        7.578189   0.000000
   52        8.163121   0.000000
   53        9.017801   0.000000
   54        9.482405   0.000000
   55        9.982181   0.000000
   56       10.247191   0.000000
   57       10.391046   0.000000
   58       10.637338   0.000000
   59       10.926902   0.000000
   60       11.107794   0.000000
   61       11.434311   0.000000
   62       11.536071   0.000000
   63       11.969394   0.000000
   64       12.197344   0.000000
   65       12.627481   0.000000
   66       12.908881   0.000000
   67       13.089673   0.000000
   68       13.324012   0.000000
   69       13.454380   0.000000
   70       13.732124   0.000000
   71       13.887500   0.000000
   72       13.956618   0.000000
 
  0.1666667E+00  0.1666667E+00  0.1000000E+00  0.2777778E-02
    1      -11.674917   1.000000
    2      -10.826203   1.000000
    3       -9.963892   1.000000
    4       -8.765065   1.000000
    5       -8.225084   1.000000
    6       -8.027709   1.000000
    7       -6.925039   1.000000
    8       -5.993224   1.000000
    9       -5.858236   1.000000
   10       -4.933888   1.000000
   11       -4.489146   1.000000
   12       -4.065095   1.000000
   13       -3.646550   1.000000
   14       -3.166745   1.000000
   15       -3.009960   1.000000
   16       -2.774720   1.000000
   17       -2.422698   1.000000
   18       -1.939162   1.000000
   19       -1.842461   1.000000
   20       -1.591098   1.000000
   21       -1.316341   1.000000
   22       -1.110585   1.000000
   23       -0.960518   1.000000
   24       -0.563050   1.000000
   25       -0.470957   1.000000
   26       -0.144487   1.000000
   27        0.221731   1.000000
   28        0.555047   1.000000
   29        0.705320   1.000000
   30        1.575146   1.000000
   31        1.725126   1.000000
   32        1.937070   1.000000
   33        2.157752   1.000000
   34        2.371256   1.000000
   35        2.618566   1.000000
   36        2.846639   1.000000
   37        3.065335   1.000000
   38        3.173342   1.000000
   39        3.344463   1.000000
   40        3.516282   1.000000
   41        3.705571   1.000000
   42        3.928277   1.000000
   43        4.244444   1.000000
   44        4.338164   1.000000
   45        4.435958   1.000000
   46        4.612550   1.000000
   47        4.862037   1.000000
   48        5.481746   1.000000
   49        6.782692  -0.007099
   50        7.238338   0.000000
   51        7.692620   0.000000
   52        8.072589   0.000000
   53        8.974540   0.000000
   54        9.460716   0.000000
   55        9.963652   0.000000
   56       10.213988   0.000000
   57       10.441073   0.000000
   58       10.622645   0.000000
   59       10.845746   0.000000
   60       11.103119   0.000000
   61       11.478856   0.000000
   62       11.597658   0.000000
   63       11.891750   0.000000
   64       12.134644   0.000000
   65       12.736727   0.000000
   66       12.930274   0.000000
   67       13.041378   0.000000
   68       13.265677   0.000000
   69       13.380128   0.000000
   70       13.632400   0.000000
   71       13.740770   0.000000
   72       13.957778   0.000000
 
  0.3333333E+00  0.1666667E+00  0.1000000E+00  0.2777778E-02
    1      -11.652956   1.000000
    2      -10.907024   1.000000
    3       -9.856050   1.000000
    4       -8.804413   1.000000
    5       -8.254083   1.000000
    6       -8.032112   1.000000
    7       -6.912051   1.000000
    8       -5.969384   1.000000
    9       -5.812515   1.000000
   10       -4.911034   1.000000
   11       -4.534368   1.000000
   12       -4.138898   1.000000
   13       -3.626027   1.000000
   14       -3.300079   1.000000
   15       -2.935936   1.000000
   16       -2.836164   1.000000
   17       -2.283706   1.000000
   18       -2.174685   1.000000
   19       -1.876761   1.000000
   20       -1.522534   1.000000
   21       -1.265623   1.000000
   22       -1.049246   1.000000
   23       -0.819908   1.000000
   24       -0.464806   1.000000
   25       -0.417216   1.000000
   26       -0.121072   1.000000
   27        0.131105   1.000000
   28        0.708361   1.000000
   29        0.942095   1.000000
   30        1.303041   1.000000
   31        1.574498   1.000000
   32        1.783260   1.000000
   33        2.033084   1.000000
   34        2.343588   1.000000
   35        2.532345   1.000000
   36        2.883023   1.000000
   37        3.089872   1.000000
   38        3.231920   1.000000
   39        3.451837   1.000000
   40        3.521378   1.000000
   41        3.750970   1.000000
   42        3.906239   1.000000
   43        4.186445   1.000000
   44        4.279738   1.000000
   45        4.487328   1.000000
   46        4.706615   1.000000
   47        4.853526   1.000000
   48        5.366047   1.000000
   49        6.820286  -0.000027
   50        7.252946   0.000000
   51        7.831400   0.000000
   52        7.934605   0.000000
   53        8.967854   0.000000
   54        9.587847   0.000000
   55       10.007223   0.000000
   56       10.257347   0.000000
   57       10.554371   0.000000
   58       10.694646   0.000000
   59       10.800561   0.000000
   60       11.166613   0.000000
   61       11.415147   0.000000
   62       11.705383   0.000000
   63       11.758826   0.000000
   64       11.948368   0.000000
   65       12.759550   0.000000
   66       12.971529   0.000000
   67       13.137016   0.000000
   68       13.237542   0.000000
   69       13.401648   0.000000
   70       13.482324   0.000000
   71       13.718623   0.000000
   72       13.932842   0.000000
 
  0.5000000E+00  0.1666667E+00  0.1000000E+00  0.2777778E-02
    1      -11.616953   1.000000
    2      -11.004966   1.000000
    3       -9.741714   1.000000
    4       -8.834595   1.000000
    5       -8.270000   1.000000
    6       -8.045364   1.000000
    7       -6.907212   1.000000
    8       -5.944052   1.000000
    9       -5.789569   1.000000
   10       -4.864009   1.000000
   11       -4.662105   1.000000
   12       -4.173848   1.000000
   13       -3.641652   1.000000
   14       -3.299990   1.000000
   15       -3.005436   1.000000
   16       -2.735239   1.000000
   17       -2.306466   1.000000
   18       -2.094207   1.000000
   19       -1.952714   1.000000
   20       -1.613238   1.000000
   21       -1.413577   1.000000
   22       -0.898081   1.000000
   23       -0.647779   1.000000
   24       -0.404178   1.000000
   25       -0.102629   1.000000
   26       -0.063148   1.000000
   27        0.075279   1.000000
   28        0.541684   1.000000
   29        0.906521   1.000000
   30        1.064835   1.000000
   31        1.729157   1.000000
   32        1.931739   1.000000
   33        2.069277   1.000000
   34        2.253566   1.000000
   35        2.468533   1.000000
   36        2.820703   1.000000
   37        2.971768   1.000000
   38        3.158510   1.000000
   39        3.477138   1.000000
   40        3.504452   1.000000
   41        3.678624   1.000000
   42        3.978121   1.000000
   43        4.081569   1.000000
   44        4.389733   1.000000
   45        4.463881   1.000000
   46        4.681910   1.000000
   47        4.863666   1.000000
   48        5.318364   1.000000
   49        6.930846   0.000000
   50        7.213606   0.000000
   51        7.784747   0.000000
   52        7.964900   0.000000
   53        9.008274   0.000000
   54        9.739574   0.000000
   55       10.058587   0.000000
   56       10.269030   0.000000
   57       10.688320   0.000000
   58       10.744818   0.000000
   59       10.903330   0.000000
   60       11.262900   0.000000
   61       11.332361   0.000000
   62       11.559768   0.000000
   63       11.840466   0.000000
   64       11.870901   0.000000
   65       12.668224   0.000000
   66       12.999279   0.000000
   67       13.069261   0.000000
   68       13.244467   0.000000
   69       13.527953   0.000000
   70       13.586601   0.000000
   71       13.776106   0.000000
   72       13.923607   0.000000
 
 -0.3333333E+00  0.1666667E+00  0.1000000E+00  0.2777778E-02
    1      -11.605180   1.000000
    2      -11.029263   1.000000
    3       -9.733988   1.000000
    4       -8.815569   1.000000
    5       -8.256020   1.000000
    6       -8.057430   1.000000
    7       -6.915707   1.000000
    8       -5.941140   1.000000
    9       -5.815602   1.000000
   10       -4.904405   1.000000
   11       -4.629129   1.000000
   12       -4.175368   1.000000
   13       -3.683593   1.000000
   14       -3.280797   1.000000
   15       -3.026870   1.000000
   16       -2.598770   1.000000
   17       -2.307221   1.000000
   18       -2.018900   1.000000
   19       -1.832602   1.000000
   20       -1.728587   1.000000
   21       -1.514771   1.000000
   22       -1.162190   1.000000
   23       -0.561489   1.000000
   24       -0.411903   1.000000
   25       -0.150349   1.000000
   26        0.212381   1.000000
   27        0.245520   1.000000
   28        0.453829   1.000000
   29        0.763792   1.000000
   30        0.868319   1.000000
   31        1.839493   1.000000
   32        1.942326   1.000000
   33        2.209862   1.000000
   34        2.316161   1.000000
   35        2.665218   1.000000
   36        2.783709   1.000000
   37        2.954311   1.000000
   38        3.117833   1.000000
   39        3.381135   1.000000
   40        3.417833   1.000000
   41        3.728052   1.000000
   42        3.873035   1.000000
   43        4.065542   1.000000
   44        4.252346   1.000000
   45        4.312643   1.000000
   46        4.657920   1.000000
   47        5.077203   1.000000
   48        5.344488   1.000000
   49        7.058491   0.000000
   50        7.107554   0.000000
   51        7.655435   0.000000
   52        8.070326   0.000000
   53        9.067516   0.000000
   54        9.851151   0.000000
   55        9.914234   0.000000
   56       10.325952   0.000000
   57       10.659653   0.000000
   58       10.830475   0.000000
   59       10.947158   0.000000
   60       11.152445   0.000000
   61       11.395698   0.000000
   62       11.457153   0.000000
   63       11.924831   0.000000
   64       11.999460   0.000000
   65       12.541849   0.000000
   66       12.937713   0.000000
   67       13.082353   0.000000
   68       13.334659   0.000000
   69       13.488948   0.000000
   70       13.780619   0.000000
   71       13.936543   0.000000
   72       14.010770   0.000000
 
 -0.1666667E+00  0.1666667E+00  0.1000000E+00  0.2777778E-02
    1      -11.633247   1.000000
    2      -10.955806   1.000000
    3       -9.834260   1.000000
    4       -8.770972   1.000000
    5       -8.220918   1.000000
    6       -8.057928   1.000000
    7       -6.930090   1.000000
    8       -5.967764   1.000000
    9       -5.860408   1.000000
   10       -4.946261   1.000000
   11       -4.528067   1.000000
   12       -4.130505   1.000000
   13       -3.704569   1.000000
   14       -3.325026   1.000000
   15       -2.839672   1.000000
   16       -2.546028   1.000000
   17       -2.378795   1.000000
   18       -2.073957   1.000000
   19       -1.866292   1.000000
   20       -1.655311   1.000000
   21       -1.401769   1.000000
   22       -1.249406   1.000000
   23       -0.776155   1.000000
   24       -0.413141   1.000000
   25       -0.195942   1.000000
   26       -0.038479   1.000000
   27        0.067732   1.000000
   28        0.535664   1.000000
   29        0.668600   1.000000
   30        1.295852   1.000000
   31        1.895754   1.000000
   32        2.033419   1.000000
   33        2.250956   1.000000
   34        2.445333   1.000000
   35        2.664291   1.000000
   36        2.830224   1.000000
   37        2.964120   1.000000
   38        3.116690   1.000000
   39        3.288619   1.000000
   40        3.437820   1.000000
   41        3.655612   1.000000
   42        3.825667   1.000000
   43        4.033922   1.000000
   44        4.194459   1.000000
   45        4.383846   1.000000
   46        4.601674   1.000000
   47        5.082156   1.000000
   48        5.486042   1.000000
   49        6.956612   0.000000
   50        7.154500   0.000000
   51        7.566018   0.000000
   52        8.153454   0.000000
   53        9.070929   0.000000
   54        9.650438   0.000000
   55        9.965154   0.000000
   56       10.375579   0.000000
   57       10.447048   0.000000
   58       10.706771   0.000000
   59       10.997739   0.000000
   60       11.137276   0.000000
   61       11.340807   0.000000
   62       11.516032   0.000000
   63       12.011239   0.000000
   64       12.091568   0.000000
   65       12.519525   0.000000
   66       12.898088   0.000000
   67       13.192255   0.000000
   68       13.376690   0.000000
   69       13.447110   0.000000
   70       13.873224   0.000000
   71       13.952048   0.000000
   72       14.063730   0.000000
 
  0.0000000E+00  0.2500000E+00  0.1000000E+00  0.2777778E-02
    1      -11.565295   1.000000
    2      -10.816470   1.000000
    3       -9.914780   1.000000
    4       -8.868159   1.000000
    5       -8.357304   1.000000
    6       -8.092352   1.000000
    7       -6.841817   1.000000
    8       -6.112008   1.000000
    9       -5.854507   1.000000
   10       -5.107259   1.000000
   11       -4.773448   1.000000
   12       -4.191612   1.000000
   13       -3.625732   1.000000
   14       -3.055531   1.000000
   15       -3.015083   1.000000
   16       -2.640326   1.000000
   17       -2.234560   1.000000
   18       -2.130593   1.000000
   19       -1.894306   1.000000
   20       -1.420388   1.000000
   21       -1.253540   1.000000
   22       -1.006110   1.000000
   23       -0.708991   1.000000
   24       -0.543891   1.000000
   25       -0.467581   1.000000
   26        0.090977   1.000000
   27        0.481030   1.000000
   28        0.722050   1.000000
   29        0.926335   1.000000
   30        1.552841   1.000000
   31        1.865971   1.000000
   32        2.064054   1.000000
   33        2.237796   1.000000
   34        2.501917   1.000000
   35        2.613555   1.000000
   36        2.780682   1.000000
   37        2.961482   1.000000
   38        3.078709   1.000000
   39        3.244663   1.000000
   40        3.360073   1.000000
   41        3.623374   1.000000
   42        3.829681   1.000000
   43        4.001559   1.000000
   44        4.133995   1.000000
   45        4.424451   1.000000
   46        4.558320   1.000000
   47        5.058916   1.000000
   48        5.266276   1.000000
   49        6.781989  -0.043083
   50        7.135309   0.000000
   51        7.700460   0.000000
   52        8.112025   0.000000
   53        9.079967   0.000000
   54        9.410204   0.000000
   55       10.068615   0.000000
   56       10.255774   0.000000
   57       10.305333   0.000000
   58       10.550295   0.000000
   59       10.854738   0.000000
   60       11.051022   0.000000
   61       11.259660   0.000000
   62       11.485144   0.000000
   63       11.818102   0.000000
   64       11.968848   0.000000
   65       12.457389   0.000000
   66       12.738551   0.000000
   67       13.131803   0.000000
   68       13.250023   0.000000
   69       13.479472   0.000000
   70       13.765582   0.000000
   71       13.876859   0.000000
   72       14.035494   0.000000
 
  0.1666667E+00  0.2500000E+00  0.1000000E+00  0.2777778E-02
    1      -11.579009   1.000000
    2      -10.776365   1.000000
    3       -9.940139   1.000000
    4       -8.866567   1.000000
    5       -8.399966   1.000000
    6       -8.074035   1.000000
    7       -6.810432   1.000000
    8       -6.131979   1.000000
    9       -5.844165   1.000000
   10       -5.136962   1.000000
   11       -4.775757   1.000000
   12       -4.136802   1.000000
   13       -3.554025   1.000000
   14       -3.020853   1.000000
   15       -2.928246   1.000000
   16       -2.698503   1.000000
   17       -2.274646   1.000000
   18       -2.140662   1.000000
   19       -1.943291   1.000000
   20       -1.746782   1.000000
   21       -1.243465   1.000000
   22       -0.932861   1.000000
   23       -0.713259   1.000000
   24       -0.471827   1.000000
   25       -0.236644   1.000000
   26       -0.039872   1.000000
   27        0.385561   1.000000
   28        0.766283   1.000000
   29        1.035661   1.000000
   30        1.494895   1.000000
   31        1.860283   1.000000
   32        1.962263   1.000000
   33        2.253639   1.000000
   34        2.366096   1.000000
   35        2.614855   1.000000
   36        2.871118   1.000000
   37        2.988193   1.000000
   38        3.145427   1.000000
   39        3.287526   1.000000
   40        3.392860   1.000000
   41        3.579368   1.000000
   42        3.910319   1.000000
   43        4.147013   1.000000
   44        4.254053   1.000000
   45        4.416465   1.000000
   46        4.522925   1.000000
   47        4.920467   1.000000
   48        5.197642   1.000000
   49        6.686331   0.353973
   50        7.166151   0.000000
   51        7.828541   0.000000
   52        7.998081   0.000000
   53        9.064504   0.000000
   54        9.370238   0.000000
   55       10.071360   0.000000
   56       10.197324   0.000000
   57       10.345104   0.000000
   58       10.553278   0.000000
   59       10.776091   0.000000
   60       11.080549   0.000000
   61       11.328166   0.000000
   62       11.509879   0.000000
   63       11.786557   0.000000
   64       11.906746   0.000000
   65       12.503543   0.000000
   66       12.741896   0.000000
   67       13.091952   0.000000
   68       13.264318   0.000000
   69       13.356332   0.000000
   70       13.693959   0.000000
   71       13.765383   0.000000
   72       14.080149   0.000000
 
  0.3333333E+00  0.2500000E+00  0.1000000E+00  0.2777778E-02
    1      -11.564756   1.000000
    2      -10.830461   1.000000
    3       -9.865393   1.000000
    4       -8.877771   1.000000
    5       -8.432996   1.000000
    6       -8.099824   1.000000
    7       -6.785332   1.000000
    8       -6.123072   1.000000
    9       -5.769417   1.000000
   10       -5.141577   1.000000
   11       -4.738191   1.000000
   12       -4.188188   1.000000
   13       -3.583724   1.000000
   14       -3.290263   1.000000
   15       -2.937749   1.000000
   16       -2.770084   1.000000
   17       -2.310106   1.000000
   18       -2.037192   1.000000
   19       -1.798164   1.000000
   20       -1.610193   1.000000
   21       -1.290085   1.000000
   22       -0.986077   1.000000
   23       -0.650866   1.000000
   24       -0.355083   1.000000
   25       -0.054948   1.000000
   26        0.206166   1.000000
   27        0.289889   1.000000
   28        0.730202   1.000000
   29        1.025334   1.000000
   30        1.337714   1.000000
   31        1.574328   1.000000
   32        1.901172   1.000000
   33        2.053390   1.000000
   34        2.300045   1.000000
   35        2.481993   1.000000
   36        2.917721   1.000000
   37        3.017228   1.000000
   38        3.237033   1.000000
   39        3.405152   1.000000
   40        3.570338   1.000000
   41        3.701715   1.000000
   42        3.930917   1.000000
   43        4.054318   1.000000
   44        4.181499   1.000000
   45        4.466666   1.000000
   46        4.649009   1.000000
   47        4.811954   1.000000
   48        5.193524   1.000000
   49        6.692449   0.318328
   50        7.181652   0.000000
   51        7.803153   0.000000
   52        7.943407   0.000000
   53        9.077811   0.000000
   54        9.525833   0.000000
   55       10.041264   0.000000
   56       10.163594   0.000000
   57       10.457138   0.000000
   58       10.667579   0.000000
   59       10.738284   0.000000
   60       11.075343   0.000000
   61       11.274942   0.000000
   62       11.554751   0.000000
   63       11.615454   0.000000
   64       11.795837   0.000000
   65       12.625878   0.000000
   66       12.804643   0.000000
   67       13.117939   0.000000
   68       13.324085   0.000000
   69       13.408103   0.000000
   70       13.525582   0.000000
   71       13.792929   0.000000
   72       14.037088   0.000000
 
  0.5000000E+00  0.2500000E+00  0.1000000E+00  0.2777778E-02
    1      -11.533014   1.000000
    2      -10.917806   1.000000
    3       -9.772570   1.000000
    4       -8.892461   1.000000
    5       -8.429210   1.000000
    6       -8.140058   1.000000
    7       -6.789369   1.000000
    8       -6.094461   1.000000
    9       -5.703262   1.000000
   10       -5.089263   1.000000
   11       -4.740119   1.000000
   12       -4.288561   1.000000
   13       -3.662886   1.000000
   14       -3.506035   1.000000
   15       -2.959568   1.000000
   16       -2.836379   1.000000
   17       -2.288195   1.000000
   18       -1.983021   1.000000
   19       -1.840283   1.000000
   20       -1.355101   1.000000
   21       -1.068226   1.000000
   22       -0.870629   1.000000
   23       -0.575529   1.000000
   24       -0.188962   1.000000
   25       -0.035497   1.000000
   26        0.122844   1.000000
   27        0.274306   1.000000
   28        0.614451   1.000000
   29        0.908962   1.000000
   30        1.225891   1.000000
   31        1.546731   1.000000
   32        1.913049   1.000000
   33        2.004476   1.000000
   34        2.230996   1.000000
   35        2.391171   1.000000
   36        2.803957   1.000000
   37        3.009415   1.000000
   38        3.248899   1.000000
   39        3.489990   1.000000
   40        3.517094   1.000000
   41        3.774782   1.000000
   42        3.897283   1.000000
   43        3.934427   1.000000
   44        4.265340   1.000000
   45        4.472876   1.000000
   46        4.681240   1.000000
   47        4.836936   1.000000
   48        5.257545   1.000000
   49        6.793570  -0.041173
   50        7.169849   0.000000
   51        7.673680   0.000000
   52        7.993811   0.000000
   53        9.104300   0.000000
   54        9.720549   0.000000
   55       10.045275   0.000000
   56       10.092793   0.000000
   57       10.598798   0.000000
   58       10.651191   0.000000
   59       10.829589   0.000000
   60       11.147347   0.000000
   61       11.169918   0.000000
   62       11.452966   0.000000
   63       11.629715   0.000000
   64       11.727086   0.000000
   65       12.636859   0.000000
   66       12.866742   0.000000
   67       13.173509   0.000000
   68       13.335325   0.000000
   69       13.515211   0.000000
   70       13.579145   0.000000
   71       13.836336   0.000000
   72       13.986927   0.000000
 
 -0.3333333E+00  0.2500000E+00  0.1000000E+00  0.2777778E-02
    1      -11.515152   1.000000
    2      -10.955462   1.000000
    3       -9.754547   1.000000
    4       -8.892816   1.000000
    5       -8.377899   1.000000
    6       -8.169791   1.000000
    7       -6.816965   1.000000
    8       -6.072812   1.000000
    9       -5.717947   1.000000
   10       -5.046748   1.000000
   11       -4.736396   1.000000
   12       -4.374096   1.000000
   13       -3.704983   1.000000
   14       -3.509338   1.000000
   15       -3.105174   1.000000
   16       -2.643426   1.000000
   17       -2.300587   1.000000
   18       -1.977922   1.000000
   19       -1.780749   1.000000
   20       -1.346611   1.000000
   21       -1.100900   1.000000
   22       -0.724089   1.000000
   23       -0.481911   1.000000
   24       -0.290137   1.000000
   25        0.075622   1.000000
   26        0.160238   1.000000
   27        0.251794   1.000000
   28        0.431853   1.000000
   29        0.731770   1.000000
   30        1.089964   1.000000
   31        1.740901   1.000000
   32        1.988331   1.000000
   33        2.069414   1.000000
   34        2.349873   1.000000
   35        2.517805   1.000000
   36        2.733776   1.000000
   37        2.955258   1.000000
   38        3.191959   1.000000
   39        3.313293   1.000000
   40        3.510870   1.000000
   41        3.661697   1.000000
   42        3.802952   1.000000
   43        3.995792   1.000000
   44        4.120306   1.000000
   45        4.473353   1.000000
   46        4.711187   1.000000
   47        5.049604   1.000000
   48        5.259046   1.000000
   49        6.931385   0.000000
   50        7.096224   0.000000
   51        7.585472   0.000000
   52        8.069845   0.000000
   53        9.150114   0.000000
   54        9.780313   0.000000
   55        9.944438   0.000000
   56       10.143619   0.000000
   57       10.547406   0.000000
   58       10.721922   0.000000
   59       10.835474   0.000000
   60       11.068779   0.000000
   61       11.223213   0.000000
   62       11.417241   0.000000
   63       11.719921   0.000000
   64       11.799298   0.000000
   65       12.579009   0.000000
   66       12.913874   0.000000
   67       12.982496   0.000000
   68       13.336960   0.000000
   69       13.546217   0.000000
   70       13.776196   0.000000
   71       13.949598   0.000000
   72       14.111629   0.000000
 
 -0.1666667E+00  0.2500000E+00  0.1000000E+00  0.2777778E-02
    1      -11.533806   1.000000
    2      -10.906383   1.000000
    3       -9.823144   1.000000
    4       -8.879903   1.000000
    5       -8.336217   1.000000
    6       -8.150737   1.000000
    7       -6.844068   1.000000
    8       -6.081360   1.000000
    9       -5.794350   1.000000
   10       -5.078286   1.000000
   11       -4.715630   1.000000
   12       -4.339945   1.000000
   13       -3.698569   1.000000
   14       -3.290664   1.000000
   15       -3.128077   1.000000
   16       -2.632343   1.000000
   17       -2.250833   1.000000
   18       -1.905107   1.000000
   19       -1.668847   1.000000
   20       -1.462746   1.000000
   21       -1.322410   1.000000
   22       -0.897367   1.000000
   23       -0.620172   1.000000
   24       -0.428778   1.000000
   25       -0.124352   1.000000
   26        0.113407   1.000000
   27        0.375393   1.000000
   28        0.589086   1.000000
   29        0.957868   1.000000
   30        1.165686   1.000000
   31        1.724950   1.000000
   32        2.046753   1.000000
   33        2.135204   1.000000
   34        2.561104   1.000000
   35        2.672031   1.000000
   36        2.815120   1.000000
   37        2.927146   1.000000
   38        3.096228   1.000000
   39        3.231197   1.000000
   40        3.403308   1.000000
   41        3.596409   1.000000
   42        3.780899   1.000000
   43        3.885217   1.000000
   44        4.152336   1.000000
   45        4.412028   1.000000
   46        4.653371   1.000000
   47        5.170563   1.000000
   48        5.253829   1.000000
   49        6.932493   0.000000
   50        7.070168   0.000000
   51        7.589870   0.000000
   52        8.132597   0.000000
   53        9.143051   0.000000
   54        9.583430   0.000000
   55       10.007482   0.000000
   56       10.213057   0.000000
   57       10.441033   0.000000
   58       10.636242   0.000000
   59       10.872127   0.000000
   60       11.089113   0.000000
   61       11.137223   0.000000
   62       11.464229   0.000000
   63       11.793119   0.000000
   64       11.902227   0.000000
   65       12.513397   0.000000
   66       12.790388   0.000000
   67       13.099719   0.000000
   68       13.248294   0.000000
   69       13.571752   0.000000
   70       13.850363   0.000000
   71       13.999961   0.000000
   72       14.102117   0.000000
 
  0.0000000E+00  0.3333333E+00  0.1000000E+00  0.2777778E-02
    1      -11.430052   1.000000
    2      -10.770093   1.000000
    3       -9.904384   1.000000
    4       -9.021516   1.000000
    5       -8.511986   1.000000
    6       -8.154316   1.000000
    7       -6.765129   1.000000
    8       -6.236129   1.000000
    9       -5.886755   1.000000
   10       -5.177890   1.000000
   11       -4.897786   1.000000
   12       -4.258137   1.000000
   13       -3.512303   1.000000
   14       -3.442465   1.000000
   15       -2.976795   1.000000
   16       -2.656915   1.000000
   17       -2.319013   1.000000
   18       -1.829766   1.000000
   19       -1.598996   1.000000
   20       -1.363966   1.000000
   21       -1.220848   1.000000
   22       -0.795177   1.000000
   23       -0.591304   1.000000
   24       -0.402842   1.000000
   25       -0.205984   1.000000
   26        0.309201   1.000000
   27        0.745359   1.000000
   28        0.903845   1.000000
   29        1.134671   1.000000
   30        1.308446   1.000000
   31        1.815307   1.000000
   32        1.999287   1.000000
   33        2.228554   1.000000
   34        2.323721   1.000000
   35        2.528807   1.000000
   36        2.708569   1.000000
   37        2.934389   1.000000
   38        3.060317   1.000000
   39        3.179522   1.000000
   40        3.389014   1.000000
   41        3.651122   1.000000
   42        3.758274   1.000000
   43        3.882168   1.000000
   44        4.040187   1.000000
   45        4.409016   1.000000
   46        4.693125   1.000000
   47        4.958261   1.000000
   48        5.118752   1.000000
   49        6.784013  -0.057020
   50        6.998826   0.000000
   51        7.877779   0.000000
   52        8.031665   0.000000
   53        9.079034   0.000000
   54        9.378527   0.000000
   55       10.013197   0.000000
   56       10.052954   0.000000
   57       10.205526   0.000000
   58       10.380706   0.000000
   59       10.749782   0.000000
   60       10.929826   0.000000
   61       11.113801   0.000000
   62       11.398859   0.000000
   63       11.701273   0.000000
   64       11.905909   0.000000
   65       12.563387   0.000000
   66       12.698069   0.000000
   67       13.063993   0.000000
   68       13.203330   0.000000
   69       13.568933   0.000000
   70       13.696473   0.000000
   71       13.805295   0.000000
   72       14.000650   0.000000
 
  0.1666667E+00  0.3333333E+00  0.1000000E+00  0.2777778E-02
    1      -11.445365   1.000000
    2      -10.732536   1.000000
    3       -9.921819   1.000000
    4       -9.002999   1.000000
    5       -8.573913   1.000000
    6       -8.135614   1.000000
    7       -6.721374   1.000000
    8       -6.266456   1.000000
    9       -5.889371   1.000000
   10       -5.211853   1.000000
   11       -4.965089   1.000000
   12       -4.169822   1.000000
   13       -3.425552   1.000000
   14       -3.192067   1.000000
   15       -2.957325   1.000000
   16       -2.590798   1.000000
   17       -2.413599   1.000000
   18       -2.175567   1.000000
   19       -1.681199   1.000000
   20       -1.491170   1.000000
   21       -1.161174   1.000000
   22       -0.782698   1.000000
   23       -0.614100   1.000000
   24       -0.422325   1.000000
   25       -0.151993   1.000000
   26        0.327274   1.000000
   27        0.791704   1.000000
   28        0.974493   1.000000
   29        1.032649   1.000000
   30        1.346393   1.000000
   31        1.661413   1.000000
   32        1.996632   1.000000
   33        2.334731   1.000000
   34        2.428400   1.000000
   35        2.596478   1.000000
   36        2.805436   1.000000
   37        2.892810   1.000000
   38        3.037859   1.000000
   39        3.382271   1.000000
   40        3.467205   1.000000
   41        3.528159   1.000000
   42        3.782814   1.000000
   43        3.886399   1.000000
   44        4.180432   1.000000
   45        4.337687   1.000000
   46        4.637379   1.000000
   47        4.884775   1.000000
   48        4.992885   1.000000
   49        6.657023   0.886010
   50        7.015127   0.000000
   51        7.830269   0.000000
   52        8.021517   0.000000
   53        9.153418   0.000000
   54        9.332402   0.000000
   55       10.023748   0.000000
   56       10.084043   0.000000
   57       10.224479   0.000000
   58       10.359035   0.000000
   59       10.728310   0.000000
   60       10.943494   0.000000
   61       11.148123   0.000000
   62       11.476570   0.000000
   63       11.693817   0.000000
   64       11.912578   0.000000
   65       12.403658   0.000000
   66       12.613971   0.000000
   67       13.077400   0.000000
   68       13.189107   0.000000
   69       13.443554   0.000000
   70       13.671815   0.000000
   71       13.815884   0.000000
   72       14.130666   0.000000
 
  0.3333333E+00  0.3333333E+00  0.1000000E+00  0.2777778E-02
    1      -11.437717   1.000000
    2      -10.762796   1.000000
    3       -9.878742   1.000000
    4       -8.974962   1.000000
    5       -8.623079   1.000000
    6       -8.180676   1.000000
    7       -6.666954   1.000000
    8       -6.267600   1.000000
    9       -5.797573   1.000000
   10       -5.250494   1.000000
   11       -4.963550   1.000000
   12       -4.258787   1.000000
   13       -3.505591   1.000000
   14       -3.168563   1.000000
   15       -3.002569   1.000000
   16       -2.554394   1.000000
   17       -2.360354   1.000000
   18       -2.011099   1.000000
   19       -1.872925   1.000000
   20       -1.582638   1.000000
   21       -1.261046   1.000000
   22       -0.712908   1.000000
   23       -0.430440   1.000000
   24       -0.142214   1.000000
   25       -0.053091   1.000000
   26        0.420596   1.000000
   27        0.620591   1.000000
   28        0.861554   1.000000
   29        1.025452   1.000000
   30        1.200172   1.000000
   31        1.514272   1.000000
   32        2.011676   1.000000
   33        2.144533   1.000000
   34        2.397529   1.000000
   35        2.605646   1.000000
   36        2.784273   1.000000
   37        2.979833   1.000000
   38        3.089266   1.000000
   39        3.326491   1.000000
   40        3.549458   1.000000
   41        3.690546   1.000000
   42        3.833055   1.000000
   43        3.966100   1.000000
   44        4.205686   1.000000
   45        4.385887   1.000000
   46        4.548937   1.000000
   47        4.821175   1.000000
   48        4.995740   1.000000
   49        6.609967   1.094289
   50        7.031163   0.000000
   51        7.698555   0.000000
   52        7.982730   0.000000
   53        9.258534   0.000000
   54        9.448667   0.000000
   55        9.956588   0.000000
   56       10.066601   0.000000
   57       10.323163   0.000000
   58       10.508665   0.000000
   59       10.709662   0.000000
   60       10.945217   0.000000
   61       11.109425   0.000000
   62       11.420240   0.000000
   63       11.590020   0.000000
   64       11.831407   0.000000
   65       12.411474   0.000000
   66       12.555569   0.000000
   67       13.165475   0.000000
   68       13.267517   0.000000
   69       13.473069   0.000000
   70       13.636037   0.000000
   71       13.928576   0.000000
   72       14.208225   0.000000
 
  0.5000000E+00  0.3333333E+00  0.1000000E+00  0.2777778E-02
    1      -11.412802   1.000000
    2      -10.827582   1.000000
    3       -9.823039   1.000000
    4       -8.966792   1.000000
    5       -8.610705   1.000000
    6       -8.241968   1.000000
    7       -6.657559   1.000000
    8       -6.238777   1.000000
    9       -5.691260   1.000000
   10       -5.239968   1.000000
   11       -4.916027   1.000000
   12       -4.430021   1.000000
   13       -3.656922   1.000000
   14       -3.413435   1.000000
   15       -2.997749   1.000000
   16       -2.584084   1.000000
   17       -2.196818   1.000000
   18       -2.023347   1.000000
   19       -1.759157   1.000000
   20       -1.392424   1.000000
   21       -1.063586   1.000000
   22       -0.740493   1.000000
   23       -0.380395   1.000000
   24       -0.144606   1.000000
   25        0.245107   1.000000
   26        0.417322   1.000000
   27        0.507043   1.000000
   28        0.688603   1.000000
   29        0.969608   1.000000
   30        1.272893   1.000000
   31        1.445935   1.000000
   32        1.792868   1.000000
   33        2.160447   1.000000
   34        2.287869   1.000000
   35        2.434668   1.000000
   36        2.687341   1.000000
   37        2.886660   1.000000
   38        3.086569   1.000000
   39        3.465208   1.000000
   40        3.569868   1.000000
   41        3.712589   1.000000
   42        3.844871   1.000000
   43        4.058964   1.000000
   44        4.163549   1.000000
   45        4.393332   1.000000
   46        4.569039   1.000000
   47        4.884871   1.000000
   48        5.113408   1.000000
   49        6.664779   0.685805
   50        7.055271   0.000000
   51        7.611506   0.000000
   52        7.978425   0.000000
   53        9.252561   0.000000
   54        9.582806   0.000000
   55        9.918448   0.000000
   56       10.057974   0.000000
   57       10.459571   0.000000
   58       10.554665   0.000000
   59       10.724107   0.000000
   60       10.958531   0.000000
   61       11.066254   0.000000
   62       11.356032   0.000000
   63       11.443905   0.000000
   64       11.684330   0.000000
   65       12.521685   0.000000
   66       12.729764   0.000000
   67       13.223773   0.000000
   68       13.381685   0.000000
   69       13.513112   0.000000
   70       13.666161   0.000000
   71       14.014080   0.000000
   72       14.148776   0.000000
 
 -0.3333333E+00  0.3333333E+00  0.1000000E+00  0.2777778E-02
    1      -11.394144   1.000000
    2      -10.864510   1.000000
    3       -9.810252   1.000000
    4       -8.992278   1.000000
    5       -8.524901   1.000000
    6       -8.279353   1.000000
    7       -6.695865   1.000000
    8       -6.211332   1.000000
    9       -5.695991   1.000000
   10       -5.176126   1.000000
   11       -4.834631   1.000000
   12       -4.534807   1.000000
   13       -3.816066   1.000000
   14       -3.549006   1.000000
   15       -2.848880   1.000000
   16       -2.681785   1.000000
   17       -2.316098   1.000000
   18       -1.912910   1.000000
   19       -1.642301   1.000000
   20       -1.106455   1.000000
   21       -0.904635   1.000000
   22       -0.665770   1.000000
   23       -0.543365   1.000000
   24       -0.127453   1.000000
   25        0.134555   1.000000
   26        0.400007   1.000000
   27        0.479878   1.000000
   28        0.668996   1.000000
   29        0.839489   1.000000
   30        1.303947   1.000000
   31        1.533452   1.000000
   32        1.934827   1.000000
   33        1.996914   1.000000
   34        2.241569   1.000000
   35        2.507687   1.000000
   36        2.726686   1.000000
   37        2.893464   1.000000
   38        3.025423   1.000000
   39        3.201111   1.000000
   40        3.497465   1.000000
   41        3.627933   1.000000
   42        3.673454   1.000000
   43        4.095790   1.000000
   44        4.198294   1.000000
   45        4.492262   1.000000
   46        4.731186   1.000000
   47        4.922813   1.000000
   48        5.198786   1.000000
   49        6.781682  -0.038953
   50        7.051119   0.000000
   51        7.609800   0.000000
   52        8.025164   0.000000
   53        9.249212   0.000000
   54        9.564535   0.000000
   55        9.887533   0.000000
   56       10.048937   0.000000
   57       10.364944   0.000000
   58       10.506004   0.000000
   59       10.787465   0.000000
   60       10.993578   0.000000
   61       11.103665   0.000000
   62       11.296017   0.000000
   63       11.531562   0.000000
   64       11.655361   0.000000
   65       12.613135   0.000000
   66       12.839751   0.000000
   67       13.117670   0.000000
   68       13.347758   0.000000
   69       13.565589   0.000000
   70       13.747525   0.000000
   71       13.996982   0.000000
   72       14.127854   0.000000
 
 -0.1666667E+00  0.3333333E+00  0.1000000E+00  0.2777778E-02
    1      -11.404078   1.000000
    2      -10.836437   1.000000
    3       -9.848980   1.000000
    4       -9.017947   1.000000
    5       -8.475534   1.000000
    6       -8.237858   1.000000
    7       -6.748977   1.000000
    8       -6.209599   1.000000
    9       -5.797681   1.000000
   10       -5.157088   1.000000
   11       -4.809787   1.000000
   12       -4.459725   1.000000
   13       -3.751104   1.000000
   14       -3.554347   1.000000
   15       -2.905093   1.000000
   16       -2.692187   1.000000
   17       -2.150259   1.000000
   18       -1.917634   1.000000
   19       -1.672432   1.000000
   20       -1.119889   1.000000
   21       -1.039463   1.000000
   22       -0.706463   1.000000
   23       -0.518538   1.000000
   24       -0.283050   1.000000
   25        0.015025   1.000000
   26        0.311936   1.000000
   27        0.518262   1.000000
   28        0.792608   1.000000
   29        0.950375   1.000000
   30        1.294774   1.000000
   31        1.674028   1.000000
   32        1.884186   1.000000
   33        2.216113   1.000000
   34        2.401344   1.000000
   35        2.539003   1.000000
   36        2.698309   1.000000
   37        2.866250   1.000000
   38        2.975896   1.000000
   39        3.180340   1.000000
   40        3.320705   1.000000
   41        3.545472   1.000000
   42        3.654584   1.000000
   43        4.071328   1.000000
   44        4.132636   1.000000
   45        4.512930   1.000000
   46        4.743356   1.000000
   47        4.948368   1.000000
   48        5.210023   1.000000
   49        6.875145   0.000000
   50        6.989520   0.000000
   51        7.725374   0.000000
   52        8.058764   0.000000
   53        9.186329   0.000000
   54        9.458683   0.000000
   55        9.939871   0.000000
   56       10.030387   0.000000
   57       10.232490   0.000000
   58       10.481835   0.000000
   59       10.771654   0.000000
   60       10.959776   0.000000
   61       11.091387   0.000000
   62       11.318377   0.000000
   63       11.670987   0.000000
   64       11.782100   0.000000
   65       12.679242   0.000000
   66       12.754374   0.000000
   67       13.030437   0.000000
   68       13.242050   0.000000
   69       13.615571   0.000000
   70       13.734435   0.000000
   71       13.987475   0.000000
   72       14.066468   0.000000
 
  0.0000000E+00  0.4166667E+00  0.1000000E+00  0.2777778E-02
    1      -11.284645   1.000000
    2      -10.734611   1.000000
    3       -9.934251   1.000000
    4       -9.139552   1.000000
    5       -8.647382   1.000000
    6       -8.215725   1.000000
    7       -6.718228   1.000000
    8       -6.320047   1.000000
    9       -5.991447   1.000000
   10       -5.181234   1.000000
   11       -4.858396   1.000000
   12       -4.254680   1.000000
   13       -3.880061   1.000000
   14       -3.295979   1.000000
   15       -3.072209   1.000000
   16       -2.548380   1.000000
   17       -2.307877   1.000000
   18       -1.680712   1.000000
   19       -1.416184   1.000000
   20       -1.065951   1.000000
   21       -1.015377   1.000000
   22       -0.813627   1.000000
   23       -0.557546   1.000000
   24       -0.251530   1.000000
   25        0.019117   1.000000
   26        0.415782   1.000000
   27        0.662092   1.000000
   28        0.852616   1.000000
   29        1.237229   1.000000
   30        1.599571   1.000000
   31        1.746794   1.000000
   32        1.900598   1.000000
   33        2.073958   1.000000
   34        2.284264   1.000000
   35        2.377311   1.000000
   36        2.627338   1.000000
   37        2.840187   1.000000
   38        2.957436   1.000000
   39        3.174289   1.000000
   40        3.273876   1.000000
   41        3.509496   1.000000
   42        3.787460   1.000000
   43        3.953971   1.000000
   44        4.198126   1.000000
   45        4.413721   1.000000
   46        4.709418   1.000000
   47        4.806624   1.000000
   48        5.166440   1.000000
   49        6.763134  -0.124158
   50        6.905769   0.000000
   51        7.823232   0.000000
   52        8.191770   0.000000
   53        8.954658   0.000000
   54        9.416984   0.000000
   55        9.748808   0.000000
   56        9.807871   0.000000
   57       10.091212   0.000000
   58       10.275799   0.000000
   59       10.648889   0.000000
   60       10.777003   0.000000
   61       10.962561   0.000000
   62       11.353912   0.000000
   63       11.676123   0.000000
   64       11.975722   0.000000
   65       12.564556   0.000000
   66       12.853441   0.000000
   67       13.070770   0.000000
   68       13.254656   0.000000
   69       13.465062   0.000000
   70       13.612819   0.000000
   71       13.844572   0.000000
   72       14.017188   0.000000
 
  0.1666667E+00  0.4166667E+00  0.1000000E+00  0.2777778E-02
    1      -11.296801   1.000000
    2      -10.712611   1.000000
    3       -9.936943   1.000000
    4       -9.108571   1.000000
    5       -8.715150   1.000000
    6       -8.197812   1.000000
    7       -6.684762   1.000000
    8       -6.354898   1.000000
    9       -5.989037   1.000000
   10       -5.197411   1.000000
   11       -4.974048   1.000000
   12       -4.184447   1.000000
   13       -3.612984   1.000000
   14       -3.269169   1.000000
   15       -3.112358   1.000000
   16       -2.558005   1.000000
   17       -2.251791   1.000000
   18       -1.811234   1.000000
   19       -1.464379   1.000000
   20       -1.192659   1.000000
   21       -1.020887   1.000000
   22       -0.941617   1.000000
   23       -0.575729   1.000000
   24       -0.184136   1.000000
   25       -0.024524   1.000000
   26        0.350979   1.000000
   27        0.788263   1.000000
   28        0.873000   1.000000
   29        1.162144   1.000000
   30        1.427348   1.000000
   31        1.730916   1.000000
   32        1.976291   1.000000
   33        2.130591   1.000000
   34        2.424141   1.000000
   35        2.643836   1.000000
   36        2.747691   1.000000
   37        2.803887   1.000000
   38        2.951986   1.000000
   39        3.188563   1.000000
   40        3.414616   1.000000
   41        3.522415   1.000000
   42        3.690419   1.000000
   43        3.983180   1.000000
   44        4.252033   1.000000
   45        4.350807   1.000000
   46        4.600650   1.000000
   47        4.709812   1.000000
   48        5.108642   1.000000
   49        6.693613   0.670027
   50        6.855739   0.000000
   51        7.702930   0.000000
   52        8.159367   0.000000
   53        9.072820   0.000000
   54        9.420176   0.000000
   55        9.774191   0.000000
   56        9.852485   0.000000
   57       10.167586   0.000000
   58       10.242277   0.000000
   59       10.603186   0.000000
   60       10.736126   0.000000
   61       10.976247   0.000000
   62       11.488031   0.000000
   63       11.661949   0.000000
   64       12.003523   0.000000
   65       12.533221   0.000000
   66       12.699580   0.000000
   67       12.993682   0.000000
   68       13.165257   0.000000
   69       13.340331   0.000000
   70       13.691874   0.000000
   71       13.816227   0.000000
   72       14.127353   0.000000
 
  0.3333333E+00  0.4166667E+00  0.1000000E+00  0.2777778E-02
    1      -11.292753   1.000000
    2      -10.730504   1.000000
    3       -9.913008   1.000000
    4       -9.050369   1.000000
    5       -8.770611   1.000000
    6       -8.261726   1.000000
    7       -6.606587   1.000000
    8       -6.365167   1.000000
    9       -5.878393   1.000000
   10       -5.220350   1.000000
   11       -5.094633   1.000000
   12       -4.379801   1.000000
   13       -3.444975   1.000000
   14       -3.191142   1.000000
   15       -2.941284   1.000000
   16       -2.481240   1.000000
   17       -2.376767   1.000000
   18       -1.824848   1.000000
   19       -1.726621   1.000000
   20       -1.447191   1.000000
   21       -1.061108   1.000000
   22       -0.561069   1.000000
   23       -0.456261   1.000000
   24       -0.143432   1.000000
   25       -0.037111   1.000000
   26        0.353380   1.000000
   27        0.683821   1.000000
   28        0.918445   1.000000
   29        0.998633   1.000000
   30        1.356621   1.000000
   31        1.685403   1.000000
   32        2.067324   1.000000
   33        2.199611   1.000000
   34        2.428786   1.000000
   35        2.571480   1.000000
   36        2.774931   1.000000
   37        2.899688   1.000000
   38        2.995351   1.000000
   39        3.294535   1.000000
   40        3.461056   1.000000
   41        3.538892   1.000000
   42        3.719828   1.000000
   43        3.889415   1.000000
   44        4.231969   1.000000
   45        4.335555   1.000000
   46        4.574348   1.000000
   47        4.805176   1.000000
   48        4.974510   1.000000
   49        6.622121   1.000000
   50        6.847778   0.000000
   51        7.613455   0.000000
   52        8.038163   0.000000
   53        9.257048   0.000000
   54        9.429078   0.000000
   55        9.799272   0.000000
   56        9.949695   0.000000
   57       10.250587   0.000000
   58       10.291702   0.000000
   59       10.567195   0.000000
   60       10.751497   0.000000
   61       10.966618   0.000000
   62       11.383114   0.000000
   63       11.745230   0.000000
   64       11.922589   0.000000
   65       12.372422   0.000000
   66       12.499156   0.000000
   67       13.064659   0.000000
   68       13.195881   0.000000
   69       13.432529   0.000000
   70       13.726797   0.000000
   71       13.905481   0.000000
   72       14.271918   0.000000
 
  0.5000000E+00  0.4166667E+00  0.1000000E+00  0.2777778E-02
    1      -11.275648   1.000000
    2      -10.769567   1.000000
    3       -9.888578   1.000000
    4       -9.033400   1.000000
    5       -8.742158   1.000000
    6       -8.346054   1.000000
    7       -6.574402   1.000000
    8       -6.329363   1.000000
    9       -5.735311   1.000000
   10       -5.290705   1.000000
   11       -5.084041   1.000000
   12       -4.599365   1.000000
   13       -3.518383   1.000000
   14       -3.190763   1.000000
   15       -2.930832   1.000000
   16       -2.417209   1.000000
   17       -2.171027   1.000000
   18       -2.012230   1.000000
   19       -1.781826   1.000000
   20       -1.379726   1.000000
   21       -0.980967   1.000000
   22       -0.574046   1.000000
   23       -0.307597   1.000000
   24       -0.199527   1.000000
   25        0.219706   1.000000
   26        0.314529   1.000000
   27        0.546260   1.000000
   28        0.935126   1.000000
   29        1.088368   1.000000
   30        1.364458   1.000000
   31        1.619846   1.000000
   32        1.910029   1.000000
   33        2.127041   1.000000
   34        2.353474   1.000000
   35        2.506034   1.000000
   36        2.733838   1.000000
   37        2.855373   1.000000
   38        3.056419   1.000000
   39        3.162807   1.000000
   40        3.461504   1.000000
   41        3.601470   1.000000
   42        3.786814   1.000000
   43        3.948714   1.000000
   44        4.172031   1.000000
   45        4.410878   1.000000
   46        4.536367   1.000000
   47        4.926158   1.000000
   48        4.985726   1.000000
   49        6.612602   1.036240
   50        6.885595   0.000000
   51        7.618618   0.000000
   52        7.987780   0.000000
   53        9.287828   0.000000
   54        9.387201   0.000000
   55        9.826749   0.000000
   56       10.015459   0.000000
   57       10.310008   0.000000
   58       10.447623   0.000000
   59       10.586107   0.000000
   60       10.733748   0.000000
   61       10.977988   0.000000
   62       11.219764   0.000000
   63       11.546782   0.000000
   64       11.764041   0.000000
   65       12.426740   0.000000
   66       12.654327   0.000000
   67       13.179557   0.000000
   68       13.289396   0.000000
   69       13.581743   0.000000
   70       13.766234   0.000000
   71       13.971207   0.000000
   72       14.250002   0.000000
 
 -0.3333333E+00  0.4166667E+00  0.1000000E+00  0.2777778E-02
    1      -11.261674   1.000000
    2      -10.792254   1.000000
    3       -9.887497   1.000000
    4       -9.079476   1.000000
    5       -8.637979   1.000000
    6       -8.386156   1.000000
    7       -6.601586   1.000000
    8       -6.304254   1.000000
    9       -5.745037   1.000000
   10       -5.276709   1.000000
   11       -4.947410   1.000000
   12       -4.650614   1.000000
   13       -3.809916   1.000000
   14       -3.318906   1.000000
   15       -2.797297   1.000000
   16       -2.414087   1.000000
   17       -2.226802   1.000000
   18       -1.896562   1.000000
   19       -1.623802   1.000000
   20       -1.395574   1.000000
   21       -0.792743   1.000000
   22       -0.634840   1.000000
   23       -0.376240   1.000000
   24       -0.089493   1.000000
   25        0.142733   1.000000
   26        0.287036   1.000000
   27        0.853585   1.000000
   28        0.922386   1.000000
   29        1.021746   1.000000
   30        1.416565   1.000000
   31        1.532541   1.000000
   32        1.849019   1.000000
   33        2.095418   1.000000
   34        2.241019   1.000000
   35        2.483912   1.000000
   36        2.628728   1.000000
   37        2.762338   1.000000
   38        2.944845   1.000000
   39        3.048928   1.000000
   40        3.381471   1.000000
   41        3.601901   1.000000
   42        3.874111   1.000000
   43        4.088213   1.000000
   44        4.141593   1.000000
   45        4.344185   1.000000
   46        4.645875   1.000000
   47        4.989283   1.000000
   48        5.085147   1.000000
   49        6.674112   0.745946
   50        6.940444   0.000000
   51        7.734014   0.000000
   52        7.994672   0.000000
   53        9.215473   0.000000
   54        9.367521   0.000000
   55        9.780707   0.000000
   56        9.976564   0.000000
   57       10.226463   0.000000
   58       10.365646   0.000000
   59       10.683403   0.000000
   60       10.811525   0.000000
   61       11.052705   0.000000
   62       11.270368   0.000000
   63       11.401903   0.000000
   64       11.620414   0.000000
   65       12.636162   0.000000
   66       12.872484   0.000000
   67       13.195855   0.000000
   68       13.250845   0.000000
   69       13.584005   0.000000
   70       13.767760   0.000000
   71       14.094342   0.000000
   72       14.157186   0.000000
 
 -0.1666667E+00  0.4166667E+00  0.1000000E+00  0.2777778E-02
    1      -11.266752   1.000000
    2      -10.774971   1.000000
    3       -9.909325   1.000000
    4       -9.126466   1.000000
    5       -8.603874   1.000000
    6       -8.315695   1.000000
    7       -6.670231   1.000000
    8       -6.302201   1.000000
    9       -5.886841   1.000000
   10       -5.200081   1.000000
   11       -4.828951   1.000000
   12       -4.498292   1.000000
   13       -3.978438   1.000000
   14       -3.359275   1.000000
   15       -2.894677   1.000000
   16       -2.385378   1.000000
   17       -2.197829   1.000000
   18       -2.041699   1.000000
   19       -1.500002   1.000000
   20       -1.030538   1.000000
   21       -0.871368   1.000000
   22       -0.632484   1.000000
   23       -0.524597   1.000000
   24       -0.173207   1.000000
   25        0.050153   1.000000
   26        0.522823   1.000000
   27        0.708496   1.000000
   28        0.793179   1.000000
   29        1.060047   1.000000
   30        1.564251   1.000000
   31        1.682854   1.000000
   32        1.915579   1.000000
   33        2.068705   1.000000
   34        2.181824   1.000000
   35        2.375809   1.000000
   36        2.535665   1.000000
   37        2.847822   1.000000
   38        2.939290   1.000000
   39        3.064471   1.000000
   40        3.193836   1.000000
   41        3.595151   1.000000
   42        3.851496   1.000000
   43        4.000923   1.000000
   44        4.176956   1.000000
   45        4.405627   1.000000
   46        4.741081   1.000000
   47        4.940061   1.000000
   48        5.144100   1.000000
   49        6.751032  -0.118768
   50        6.953785   0.000000
   51        7.875162   0.000000
   52        8.039836   0.000000
   53        9.073803   0.000000
   54        9.394762   0.000000
   55        9.734163   0.000000
   56        9.887482   0.000000
   57       10.066403   0.000000
   58       10.317298   0.000000
   59       10.713901   0.000000
   60       10.814666   0.000000
   61       10.996384   0.000000
   62       11.269811   0.000000
   63       11.633448   0.000000
   64       11.733691   0.000000
   65       12.721211   0.000000
   66       12.791903   0.000000
   67       13.131237   0.000000
   68       13.304757   0.000000
   69       13.526031   0.000000
   70       13.712227   0.000000
   71       13.904216   0.000000
   72       14.077809   0.000000
 
  0.0000000E+00  0.5000000E+00  0.1000000E+00  0.2777778E-02
    1      -11.174614   1.000000
    2      -10.727355   1.000000
    3       -9.991644   1.000000
    4       -9.162465   1.000000
    5       -8.752591   1.000000
    6       -8.271546   1.000000
    7       -6.698002   1.000000
    8       -6.328901   1.000000
    9       -6.073720   1.000000
   10       -5.175645   1.000000
   11       -4.804439   1.000000
   12       -4.217991   1.000000
   13       -4.053602   1.000000
   14       -3.258283   1.000000
   15       -3.032597   1.000000
   16       -2.548638   1.000000
   17       -1.985573   1.000000
   18       -1.723958   1.000000
   19       -1.343230   1.000000
   20       -0.995229   1.000000
   21       -0.863139   1.000000
   22       -0.671396   1.000000
   23       -0.540764   1.000000
   24       -0.310103   1.000000
   25        0.076041   1.000000
   26        0.311172   1.000000
   27        0.710623   1.000000
   28        0.872679   1.000000
   29        1.142295   1.000000
   30        1.539235   1.000000
   31        1.756525   1.000000
   32        1.892379   1.000000
   33        1.962930   1.000000
   34        2.291608   1.000000
   35        2.353545   1.000000
   36        2.579444   1.000000
   37        2.655398   1.000000
   38        2.949544   1.000000
   39        3.291073   1.000000
   40        3.378602   1.000000
   41        3.460396   1.000000
   42        3.758743   1.000000
   43        3.875475   1.000000
   44        4.259677   1.000000
   45        4.483297   1.000000
   46        4.579982   1.000000
   47        4.736776   1.000000
   48        5.248950   1.000000
   49        6.685216   0.826119
   50        6.894383   0.000000
   51        7.706442   0.000000
   52        8.388754   0.000000
   53        8.831238   0.000000
   54        9.441815   0.000000
   55        9.586845   0.000000
   56        9.654811   0.000000
   57       10.035430   0.000000
   58       10.212851   0.000000
   59       10.526425   0.000000
   60       10.688344   0.000000
   61       10.863971   0.000000
   62       11.408976   0.000000
   63       11.638495   0.000000
   64       11.982475   0.000000
   65       12.619458   0.000000
   66       12.911128   0.000000
   67       13.170496   0.000000
   68       13.254296   0.000000
   69       13.389276   0.000000
   70       13.649204   0.000000
   71       13.946817   0.000000
   72       14.088326   0.000000
 
  0.1666667E+00  0.5000000E+00  0.1000000E+00  0.2777778E-02
    1      -11.178013   1.000000
    2      -10.724313   1.000000
    3       -9.990638   1.000000
    4       -9.124475   1.000000
    5       -8.808884   1.000000
    6       -8.254383   1.000000
    7       -6.683953   1.000000
    8       -6.360350   1.000000
    9       -6.060898   1.000000
   10       -5.169522   1.000000
   11       -4.885139   1.000000
   12       -4.225572   1.000000
   13       -3.929063   1.000000
   14       -3.304864   1.000000
   15       -3.037981   1.000000
   16       -2.461590   1.000000
   17       -1.896925   1.000000
   18       -1.546943   1.000000
   19       -1.373868   1.000000
   20       -1.175847   1.000000
   21       -1.023192   1.000000
   22       -0.744294   1.000000
   23       -0.590702   1.000000
   24       -0.207726   1.000000
   25        0.182580   1.000000
   26        0.372359   1.000000
   27        0.566153   1.000000
   28        0.704747   1.000000
   29        0.839967   1.000000
   30        1.596156   1.000000
   31        1.880724   1.000000
   32        1.958738   1.000000
   33        2.138409   1.000000
   34        2.266684   1.000000
   35        2.493328   1.000000
   36        2.616947   1.000000
   37        2.733285   1.000000
   38        2.933682   1.000000
   39        3.219573   1.000000
   40        3.428406   1.000000
   41        3.580071   1.000000
   42        3.722786   1.000000
   43        3.906497   1.000000
   44        4.302978   1.000000
   45        4.432517   1.000000
   46        4.521458   1.000000
   47        4.710084   1.000000
   48        5.170319   1.000000
   49        6.654682   1.006806
   50        6.849344   0.000000
   51        7.628198   0.000000
   52        8.330954   0.000000
   53        8.926005   0.000000
   54        9.439440   0.000000
   55        9.608055   0.000000
   56        9.715782   0.000000
   57       10.059258   0.000000
   58       10.227747   0.000000
   59       10.404219   0.000000
   60       10.652515   0.000000
   61       10.880994   0.000000
   62       11.516878   0.000000
   63       11.666861   0.000000
   64       12.033706   0.000000
   65       12.568839   0.000000
   66       12.852485   0.000000
   67       13.026172   0.000000
   68       13.207412   0.000000
   69       13.277211   0.000000
   70       13.803218   0.000000
   71       13.863516   0.000000
   72       14.127385   0.000000
 
  0.3333333E+00  0.5000000E+00  0.1000000E+00  0.2777778E-02
    1      -11.172713   1.000000
    2      -10.741648   1.000000
    3       -9.974990   1.000000
    4       -9.058407   1.000000
    5       -8.848175   1.000000
    6       -8.333887   1.000000
    7       -6.591026   1.000000
    8       -6.389190   1.000000
    9       -5.933177   1.000000
   10       -5.192823   1.000000
   11       -5.068478   1.000000
   12       -4.514465   1.000000
   13       -3.603710   1.000000
   14       -3.248093   1.000000
   15       -2.849596   1.000000
   16       -2.281305   1.000000
   17       -2.105999   1.000000
   18       -1.698161   1.000000
   19       -1.494175   1.000000
   20       -1.212361   1.000000
   21       -1.039975   1.000000
   22       -0.718086   1.000000
   23       -0.503071   1.000000
   24       -0.056380   1.000000
   25       -0.002819   1.000000
   26        0.104144   1.000000
   27        0.547006   1.000000
   28        0.852624   1.000000
   29        0.931639   1.000000
   30        1.477712   1.000000
   31        1.788949   1.000000
   32        2.073775   1.000000
   33        2.186405   1.000000
   34        2.528503   1.000000
   35        2.601880   1.000000
   36        2.666949   1.000000
   37        2.800540   1.000000
   38        2.882750   1.000000
   39        3.145270   1.000000
   40        3.450387   1.000000
   41        3.558057   1.000000
   42        3.731765   1.000000
   43        3.877328   1.000000
   44        4.205852   1.000000
   45        4.456234   1.000000
   46        4.542025   1.000000
   47        4.718662   1.000000
   48        5.031429   1.000000
   49        6.638886   1.000000
   50        6.779036   0.000000
   51        7.612259   0.000000
   52        8.150017   0.000000
   53        9.067353   0.000000
   54        9.434391   0.000000
   55        9.689193   0.000000
   56        9.854124   0.000000
   57       10.056865   0.000000
   58       10.280336   0.000000
   59       10.384714   0.000000
   60       10.656255   0.000000
   61       10.873995   0.000000
   62       11.391330   0.000000
   63       11.901897   0.000000
   64       11.961916   0.000000
   65       12.524476   0.000000
   66       12.665554   0.000000
   67       12.881352   0.000000
   68       13.024086   0.000000
   69       13.447981   0.000000
   70       13.816520   0.000000
   71       14.019508   0.000000
   72       14.301659   0.000000
 
  0.5000000E+00  0.5000000E+00  0.1000000E+00  0.2777778E-02
    1      -11.163409   1.000000
    2      -10.762120   1.000000
    3       -9.960674   1.000000
    4       -9.053168   1.000000
    5       -8.790899   1.000000
    6       -8.443623   1.000000
    7       -6.541562   1.000000
    8       -6.353370   1.000000
    9       -5.765347   1.000000
   10       -5.300606   1.000000
   11       -5.157361   1.000000
   12       -4.730875   1.000000
   13       -3.357984   1.000000
   14       -3.082702   1.000000
   15       -2.797759   1.000000
   16       -2.516583   1.000000
   17       -2.061530   1.000000
   18       -1.936380   1.000000
   19       -1.507399   1.000000
   20       -1.205259   1.000000
   21       -0.870636   1.000000
   22       -0.752069   1.000000
   23       -0.352045   1.000000
   24       -0.265595   1.000000
   25       -0.052412   1.000000
   26        0.088714   1.000000
   27        0.657060   1.000000
   28        0.898243   1.000000
   29        1.123330   1.000000
   30        1.458958   1.000000
   31        1.718349   1.000000
   32        2.120345   1.000000
   33        2.175291   1.000000
   34        2.478338   1.000000
   35        2.609522   1.000000
   36        2.679389   1.000000
   37        2.757885   1.000000
   38        3.043872   1.000000
   39        3.072004   1.000000
   40        3.387767   1.000000
   41        3.563734   1.000000
   42        3.719931   1.000000
   43        3.767851   1.000000
   44        4.109156   1.000000
   45        4.404931   1.000000
   46        4.615708   1.000000
   47        4.799198   1.000000
   48        5.017906   1.000000
   49        6.636043   1.000000
   50        6.750231   0.000000
   51        7.702933   0.000000
   52        8.024864   0.000000
   53        9.087785   0.000000
   54        9.387995   0.000000
   55        9.741390   0.000000
   56        9.955064   0.000000
   57       10.146629   0.000000
   58       10.309839   0.000000
   59       10.498305   0.000000
   60       10.656396   0.000000
   61       10.854609   0.000000
   62       11.216775   0.000000
   63       11.833614   0.000000
   64       11.892308   0.000000
   65       12.416956   0.000000
   66       12.611226   0.000000
   67       13.005357   0.000000
   68       13.186621   0.000000
   69       13.636501   0.000000
   70       13.831354   0.000000
   71       14.045011   0.000000
   72       14.335465   0.000000
 
 -0.3333333E+00  0.5000000E+00  0.1000000E+00  0.2777778E-02
    1      -11.159656   1.000000
    2      -10.765494   1.000000
    3       -9.961851   1.000000
    4       -9.104192   1.000000
    5       -8.695764   1.000000
    6       -8.486070   1.000000
    7       -6.559543   1.000000
    8       -6.325617   1.000000
    9       -5.771214   1.000000
   10       -5.369178   1.000000
   11       -5.030973   1.000000
   12       -4.715642   1.000000
   13       -3.600294   1.000000
   14       -3.046317   1.000000
   15       -2.679448   1.000000
   16       -2.460708   1.000000
   17       -2.250212   1.000000
   18       -1.726707   1.000000
   19       -1.640531   1.000000
   20       -1.445131   1.000000
   21       -0.742003   1.000000
   22       -0.523045   1.000000
   23       -0.463522   1.000000
   24       -0.272876   1.000000
   25        0.002683   1.000000
   26        0.356019   1.000000
   27        0.575494   1.000000
   28        0.904892   1.000000
   29        1.322710   1.000000
   30        1.470009   1.000000
   31        1.787826   1.000000
   32        2.041529   1.000000
   33        2.101511   1.000000
   34        2.182839   1.000000
   35        2.540007   1.000000
   36        2.618358   1.000000
   37        2.720759   1.000000
   38        2.882720   1.000000
   39        3.137127   1.000000
   40        3.289000   1.000000
   41        3.661928   1.000000
   42        3.728946   1.000000
   43        3.918052   1.000000
   44        4.104029   1.000000
   45        4.313654   1.000000
   46        4.551196   1.000000
   47        4.884804   1.000000
   48        5.128311   1.000000
   49        6.651632   1.000000
   50        6.798627   0.000000
   51        7.849390   0.000000
   52        7.982262   0.000000
   53        9.037208   0.000000
   54        9.374585   0.000000
   55        9.683102   0.000000
   56        9.914114   0.000000
   57       10.205462   0.000000
   58       10.318887   0.000000
   59       10.459472   0.000000
   60       10.659067   0.000000
   61       11.034052   0.000000
   62       11.224277   0.000000
   63       11.582362   0.000000
   64       11.693348   0.000000
   65       12.607670   0.000000
   66       12.890099   0.000000
   67       13.015797   0.000000
   68       13.303770   0.000000
   69       13.655131   0.000000
   70       13.831449   0.000000
   71       14.028416   0.000000
   72       14.296145   0.000000
 
 -0.1666667E+00  0.5000000E+00  0.1000000E+00  0.2777778E-02
    1      -11.165591   1.000000
    2      -10.748034   1.000000
    3       -9.977174   1.000000
    4       -9.150829   1.000000
    5       -8.705169   1.000000
    6       -8.381622   1.000000
    7       -6.627437   1.000000
    8       -6.326514   1.000000
    9       -5.953915   1.000000
   10       -5.259222   1.000000
   11       -4.870546   1.000000
   12       -4.481281   1.000000
   13       -3.928419   1.000000
   14       -3.175721   1.000000
   15       -2.765112   1.000000
   16       -2.408870   1.000000
   17       -2.188814   1.000000
   18       -1.871957   1.000000
   19       -1.514730   1.000000
   20       -1.169018   1.000000
   21       -0.764954   1.000000
   22       -0.621146   1.000000
   23       -0.507030   1.000000
   24       -0.190013   1.000000
   25        0.031944   1.000000
   26        0.491870   1.000000
   27        0.604764   1.000000
   28        0.968651   1.000000
   29        1.351148   1.000000
   30        1.481797   1.000000
   31        1.586684   1.000000
   32        1.919701   1.000000
   33        2.012239   1.000000
   34        2.245327   1.000000
   35        2.422176   1.000000
   36        2.546348   1.000000
   37        2.699965   1.000000
   38        2.861070   1.000000
   39        3.153167   1.000000
   40        3.274150   1.000000
   41        3.607929   1.000000
   42        3.738390   1.000000
   43        3.945769   1.000000
   44        4.263097   1.000000
   45        4.352842   1.000000
   46        4.554774   1.000000
   47        4.826181   1.000000
   48        5.223257   1.000000
   49        6.685720   0.918384
   50        6.870894   0.000000
   51        7.803513   0.000000
   52        8.178297   0.000000
   53        8.940674   0.000000
   54        9.418075   0.000000
   55        9.622379   0.000000
   56        9.743745   0.000000
   57       10.061781   0.000000
   58       10.245249   0.000000
   59       10.587617   0.000000
   60       10.708255   0.000000
   61       10.903915   0.000000
   62       11.393330   0.000000
   63       11.592521   0.000000
   64       11.702035   0.000000
   65       12.833546   0.000000
   66       12.898411   0.000000
   67       13.067601   0.000000
   68       13.250123   0.000000
   69       13.523772   0.000000
   70       13.706594   0.000000
   71       13.932864   0.000000
   72       14.171669   0.000000
 
  0.0000000E+00 -0.4166667E+00  0.1000000E+00  0.2777778E-02
    1      -11.168804   1.000000
    2      -10.728220   1.000000
    3      -10.034816   1.000000
    4       -9.076895   1.000000
    5       -8.829680   1.000000
    6       -8.306975   1.000000
    7       -6.686875   1.000000
    8       -6.267439   1.000000
    9       -6.082049   1.000000
   10       -5.196127   1.000000
   11       -4.824275   1.000000
   12       -4.165328   1.000000
   13       -3.956712   1.000000
   14       -3.216694   1.000000
   15       -3.041555   1.000000
   16       -2.301269   1.000000
   17       -2.053038   1.000000
   18       -1.736423   1.000000
   19       -1.408685   1.000000
   20       -0.997808   1.000000
   21       -0.818982   1.000000
   22       -0.731775   1.000000
   23       -0.574427   1.000000
   24       -0.280830   1.000000
   25        0.191027   1.000000
   26        0.349471   1.000000
   27        0.496468   1.000000
   28        0.799670   1.000000
   29        0.930434   1.000000
   30        1.363965   1.000000
   31        1.670189   1.000000
   32        1.871362   1.000000
   33        1.998461   1.000000
   34        2.261720   1.000000
   35        2.431632   1.000000
   36        2.615827   1.000000
   37        2.826472   1.000000
   38        3.002259   1.000000
   39        3.251132   1.000000
   40        3.429242   1.000000
   41        3.564918   1.000000
   42        3.666965   1.000000
   43        3.889140   1.000000
   44        4.200721   1.000000
   45        4.397904   1.000000
   46        4.504013   1.000000
   47        4.773641   1.000000
   48        5.174454   1.000000
   49        6.672852   0.983203
   50        6.863606   0.000000
   51        7.650242   0.000000
   52        8.347883   0.000000
   53        8.941585   0.000000
   54        9.361582   0.000000
   55        9.672352   0.000000
   56        9.716874   0.000000
   57       10.075372   0.000000
   58       10.221521   0.000000
   59       10.396998   0.000000
   60       10.677274   0.000000
   61       10.862708   0.000000
   62       11.513023   0.000000
   63       11.690783   0.000000
   64       11.897990   0.000000
   65       12.772130   0.000000
   66       12.915121   0.000000
   67       13.086750   0.000000
   68       13.233235   0.000000
   69       13.371314   0.000000
   70       13.878831   0.000000
   71       14.003058   0.000000
   72       14.178242   0.000000
 
  0.1666667E+00 -0.4166667E+00  0.1000000E+00  0.2777778E-02
    1      -11.159169   1.000000
    2      -10.744564   1.000000
    3      -10.037477   1.000000
    4       -9.039436   1.000000
    5       -8.860264   1.000000
    6       -8.295033   1.000000
    7       -6.690446   1.000000
    8       -6.290514   1.000000
    9       -6.057470   1.000000
   10       -5.129997   1.000000
   11       -4.842813   1.000000
   12       -4.294033   1.000000
   13       -4.038334   1.000000
   14       -3.299296   1.000000
   15       -2.932816   1.000000
   16       -2.235006   1.000000
   17       -1.848335   1.000000
   18       -1.463099   1.000000
   19       -1.399721   1.000000
   20       -1.144886   1.000000
   21       -0.987473   1.000000
   22       -0.667540   1.000000
   23       -0.445632   1.000000
   24       -0.357993   1.000000
   25        0.047844   1.000000
   26        0.224343   1.000000
   27        0.507929   1.000000
   28        0.663674   1.000000
   29        0.950749   1.000000
   30        1.408466   1.000000
   31        1.495156   1.000000
   32        1.824358   1.000000
   33        1.996867   1.000000
   34        2.268820   1.000000
   35        2.500971   1.000000
   36        2.687828   1.000000
   37        2.823255   1.000000
   38        3.159426   1.000000
   39        3.269373   1.000000
   40        3.395554   1.000000
   41        3.642972   1.000000
   42        3.739850   1.000000
   43        3.826492   1.000000
   44        4.242354   1.000000
   45        4.379590   1.000000
   46        4.590102   1.000000
   47        4.759981   1.000000
   48        5.075639   1.000000
   49        6.654717   1.020912
   50        6.882377   0.000000
   51        7.652243   0.000000
   52        8.378348   0.000000
   53        8.929680   0.000000
   54        9.327921   0.000000
   55        9.613018   0.000000
   56        9.787047   0.000000
   57       10.036513   0.000000
   58       10.218448   0.000000
   59       10.312642   0.000000
   60       10.692050   0.000000
   61       10.914212   0.000000
   62       11.480166   0.000000
   63       11.751087   0.000000
   64       11.967464   0.000000
   65       12.596567   0.000000
   66       12.773204   0.000000
   67       13.165936   0.000000
   68       13.270792   0.000000
   69       13.390307   0.000000
   70       13.867221   0.000000
   71       13.997912   0.000000
   72       14.228249   0.000000
 
  0.3333333E+00 -0.4166667E+00  0.1000000E+00  0.2777778E-02
    1      -11.148129   1.000000
    2      -10.767240   1.000000
    3      -10.029770   1.000000
    4       -8.988689   1.000000
    5       -8.854709   1.000000
    6       -8.387887   1.000000
    7       -6.605989   1.000000
    8       -6.325901   1.000000
    9       -5.911855   1.000000
   10       -5.142634   1.000000
   11       -5.029080   1.000000
   12       -4.589569   1.000000
   13       -3.845527   1.000000
   14       -3.258334   1.000000
   15       -2.677118   1.000000
   16       -2.063549   1.000000
   17       -1.844908   1.000000
   18       -1.621699   1.000000
   19       -1.357785   1.000000
   20       -1.179579   1.000000
   21       -1.022585   1.000000
   22       -0.835657   1.000000
   23       -0.460345   1.000000
   24       -0.300778   1.000000
   25       -0.179872   1.000000
   26        0.205094   1.000000
   27        0.427961   1.000000
   28        0.738200   1.000000
   29        1.120492   1.000000
   30        1.243286   1.000000
   31        1.624733   1.000000
   32        1.809441   1.000000
   33        2.195031   1.000000
   34        2.320368   1.000000
   35        2.467840   1.000000
   36        2.628975   1.000000
   37        2.892791   1.000000
   38        3.121687   1.000000
   39        3.270235   1.000000
   40        3.348768   1.000000
   41        3.649978   1.000000
   42        3.755933   1.000000
   43        3.886860   1.000000
   44        4.282846   1.000000
   45        4.458051   1.000000
   46        4.520538   1.000000
   47        4.732514   1.000000
   48        4.962777   1.000000
   49        6.623516   1.029923
   50        6.860994   0.000000
   51        7.690899   0.000000
   52        8.176832   0.000000
   53        9.042501   0.000000
   54        9.318647   0.000000
   55        9.668577   0.000000
   56        9.844560   0.000000
   57        9.970664   0.000000
   58       10.263192   0.000000
   59       10.415170   0.000000
   60       10.712946   0.000000
   61       10.887465   0.000000
   62       11.402434   0.000000
   63       11.849214   0.000000
   64       11.964748   0.000000
   65       12.607344   0.000000
   66       12.744709   0.000000
   67       12.978548   0.000000
   68       13.137691   0.000000
   69       13.391670   0.000000
   70       13.912169   0.000000
   71       14.188625   0.000000
   72       14.318960   0.000000
 
  0.5000000E+00 -0.4166667E+00  0.1000000E+00  0.2777778E-02
    1      -11.147395   1.000000
    2      -10.772965   1.000000
    3      -10.019211   1.000000
    4       -8.998397   1.000000
    5       -8.760664   1.000000
    6       -8.522832   1.000000
    7       -6.541342   1.000000
    8       -6.304401   1.000000
    9       -5.734915   1.000000
   10       -5.330531   1.000000
   11       -5.130458   1.000000
   12       -4.753240   1.000000
   13       -3.490312   1.000000
   14       -3.131873   1.000000
   15       -2.625971   1.000000
   16       -2.248161   1.000000
   17       -2.001025   1.000000
   18       -1.744785   1.000000
   19       -1.335610   1.000000
   20       -1.184294   1.000000
   21       -1.013082   1.000000
   22       -0.761064   1.000000
   23       -0.492877   1.000000
   24       -0.316662   1.000000
   25       -0.184891   1.000000
   26       -0.011267   1.000000
   27        0.414107   1.000000
   28        1.001104   1.000000
   29        1.153014   1.000000
   30        1.378952   1.000000
   31        1.653150   1.000000
   32        1.940513   1.000000
   33        2.211541   1.000000
   34        2.351137   1.000000
   35        2.464383   1.000000
   36        2.652178   1.000000
   37        2.922093   1.000000
   38        3.058709   1.000000
   39        3.207289   1.000000
   40        3.291826   1.000000
   41        3.623389   1.000000
   42        3.739527   1.000000
   43        3.828413   1.000000
   44        4.154215   1.000000
   45        4.357868   1.000000
   46        4.620475   1.000000
   47        4.785739   1.000000
   48        4.966535   1.000000
   49        6.590185   1.000000
   50        6.816489   0.000000
   51        7.775843   0.000000
   52        7.973954   0.000000
   53        9.096747   0.000000
   54        9.307714   0.000000
   55        9.794313   0.000000
   56        9.851756   0.000000
   57       10.052369   0.000000
   58       10.289798   0.000000
   59       10.525118   0.000000
   60       10.747025   0.000000
   61       10.832521   0.000000
   62       11.263876   0.000000
   63       11.752645   0.000000
   64       12.201667   0.000000
   65       12.495435   0.000000
   66       12.709800   0.000000
   67       12.931040   0.000000
   68       13.065083   0.000000
   69       13.540961   0.000000
   70       14.002594   0.000000
   71       14.248134   0.000000
   72       14.392670   0.000000
 
 -0.3333333E+00 -0.4166667E+00  0.1000000E+00  0.2777778E-02
    1      -11.157954   1.000000
    2      -10.756095   1.000000
    3      -10.016073   1.000000
    4       -9.036102   1.000000
    5       -8.715243   1.000000
    6       -8.547584   1.000000
    7       -6.556298   1.000000
    8       -6.272614   1.000000
    9       -5.734067   1.000000
   10       -5.441806   1.000000
   11       -5.073598   1.000000
   12       -4.677675   1.000000
   13       -3.340852   1.000000
   14       -2.949203   1.000000
   15       -2.723039   1.000000
   16       -2.465602   1.000000
   17       -2.253391   1.000000
   18       -1.851916   1.000000
   19       -1.384873   1.000000
   20       -1.234689   1.000000
   21       -0.913563   1.000000
   22       -0.646895   1.000000
   23       -0.505705   1.000000
   24       -0.297934   1.000000
   25       -0.082015   1.000000
   26        0.108201   1.000000
   27        0.526084   1.000000
   28        0.866747   1.000000
   29        1.246688   1.000000
   30        1.432439   1.000000
   31        1.712288   1.000000
   32        2.064982   1.000000
   33        2.189044   1.000000
   34        2.267681   1.000000
   35        2.444443   1.000000
   36        2.661869   1.000000
   37        2.873458   1.000000
   38        3.073424   1.000000
   39        3.103280   1.000000
   40        3.333564   1.000000
   41        3.580836   1.000000
   42        3.656383   1.000000
   43        3.755037   1.000000
   44        4.085220   1.000000
   45        4.323422   1.000000
   46        4.577307   1.000000
   47        4.879232   1.000000
   48        5.049920   1.000000
   49        6.591389   1.000000
   50        6.804409   0.000000
   51        7.774383   0.000000
   52        7.961631   0.000000
   53        9.119917   0.000000
   54        9.343690   0.000000
   55        9.713949   0.000000
   56        9.900838   0.000000
   57       10.203459   0.000000
   58       10.300766   0.000000
   59       10.400232   0.000000
   60       10.683673   0.000000
   61       11.008132   0.000000
   62       11.214377   0.000000
   63       11.732962   0.000000
   64       12.010193   0.000000
   65       12.449384   0.000000
   66       12.792923   0.000000
   67       13.031819   0.000000
   68       13.313091   0.000000
   69       13.642838   0.000000
   70       13.965369   0.000000
   71       14.112975   0.000000
   72       14.420181   0.000000
 
 -0.1666667E+00 -0.4166667E+00  0.1000000E+00  0.2777778E-02
    1      -11.168296   1.000000
    2      -10.734060   1.000000
    3      -10.023962   1.000000
    4       -9.070573   1.000000
    5       -8.782420   1.000000
    6       -8.413943   1.000000
    7       -6.616545   1.000000
    8       -6.275031   1.000000
    9       -5.946263   1.000000
   10       -5.315965   1.000000
   11       -4.945981   1.000000
   12       -4.397781   1.000000
   13       -3.666176   1.000000
   14       -3.025056   1.000000
   15       -2.760038   1.000000
   16       -2.453972   1.000000
   17       -2.154261   1.000000
   18       -2.034752   1.000000
   19       -1.386401   1.000000
   20       -1.150396   1.000000
   21       -0.851568   1.000000
   22       -0.733091   1.000000
   23       -0.550775   1.000000
   24       -0.141277   1.000000
   25        0.148166   1.000000
   26        0.312752   1.000000
   27        0.477218   1.000000
   28        0.730649   1.000000
   29        1.268230   1.000000
   30        1.380463   1.000000
   31        1.728180   1.000000
   32        1.865350   1.000000
   33        2.124693   1.000000
   34        2.294215   1.000000
   35        2.497440   1.000000
   36        2.680778   1.000000
   37        2.765269   1.000000
   38        2.939797   1.000000
   39        3.085839   1.000000
   40        3.361738   1.000000
   41        3.540923   1.000000
   42        3.662753   1.000000
   43        3.954340   1.000000
   44        4.141333   1.000000
   45        4.301909   1.000000
   46        4.509268   1.000000
   47        4.815792   1.000000
   48        5.159834   1.000000
   49        6.639271   1.000000
   50        6.832846   0.000000
   51        7.688169   0.000000
   52        8.136789   0.000000
   53        9.076078   0.000000
   54        9.388731   0.000000
   55        9.669244   0.000000
   56        9.800425   0.000000
   57       10.088186   0.000000
   58       10.297428   0.000000
   59       10.467893   0.000000
   60       10.690862   0.000000
   61       10.844969   0.000000
   62       11.530620   0.000000
   63       11.673465   0.000000
   64       11.772531   0.000000
   65       12.665729   0.000000
   66       12.982961   0.000000
   67       13.082323   0.000000
   68       13.265840   0.000000
   69       13.497005   0.000000
   70       13.791167   0.000000
   71       14.067961   0.000000
   72       14.316836   0.000000
 
  0.0000000E+00 -0.3333333E+00  0.1000000E+00  0.2777778E-02
    1      -11.276438   1.000000
    2      -10.727778   1.000000
    3      -10.039068   1.000000
    4       -8.930657   1.000000
    5       -8.863653   1.000000
    6       -8.298417   1.000000
    7       -6.670256   1.000000
    8       -6.176826   1.000000
    9       -5.994444   1.000000
   10       -5.229914   1.000000
   11       -4.884682   1.000000
   12       -4.103852   1.000000
   13       -3.649850   1.000000
   14       -3.142770   1.000000
   15       -2.982834   1.000000
   16       -2.349890   1.000000
   17       -2.149886   1.000000
   18       -1.881368   1.000000
   19       -1.571200   1.000000
   20       -1.076275   1.000000
   21       -0.971903   1.000000
   22       -0.746758   1.000000
   23       -0.561921   1.000000
   24       -0.149341   1.000000
   25       -0.001562   1.000000
   26        0.220029   1.000000
   27        0.550826   1.000000
   28        0.687445   1.000000
   29        0.815548   1.000000
   30        1.353701   1.000000
   31        1.457049   1.000000
   32        1.844934   1.000000
   33        2.203352   1.000000
   34        2.417025   1.000000
   35        2.459403   1.000000
   36        2.635948   1.000000
   37        2.819055   1.000000
   38        2.885133   1.000000
   39        3.131563   1.000000
   40        3.443085   1.000000
   41        3.593288   1.000000
   42        3.801903   1.000000
   43        3.910944   1.000000
   44        4.049351   1.000000
   45        4.275995   1.000000
   46        4.619957   1.000000
   47        4.868199   1.000000
   48        5.040056   1.000000
   49        6.660802   0.953966
   50        6.915796   0.000000
   51        7.660432   0.000000
   52        8.200265   0.000000
   53        9.107660   0.000000
   54        9.328757   0.000000
   55        9.768787   0.000000
   56        9.886919   0.000000
   57       10.172677   0.000000
   58       10.337633   0.000000
   59       10.399982   0.000000
   60       10.753688   0.000000
   61       10.919992   0.000000
   62       11.587715   0.000000
   63       11.853992   0.000000
   64       11.991820   0.000000
   65       12.598601   0.000000
   66       12.963646   0.000000
   67       13.039930   0.000000
   68       13.341333   0.000000
   69       13.521449   0.000000
   70       13.884539   0.000000
   71       14.080964   0.000000
   72       14.485131   0.000000
 
  0.1666667E+00 -0.3333333E+00  0.1000000E+00  0.2777778E-02
    1      -11.256986   1.000000
    2      -10.766912   1.000000
    3      -10.031947   1.000000
    4       -8.896140   1.000000
    5       -8.869220   1.000000
    6       -8.299845   1.000000
    7       -6.687156   1.000000
    8       -6.197923   1.000000
    9       -5.955126   1.000000
   10       -5.127880   1.000000
   11       -4.859142   1.000000
   12       -4.323650   1.000000
   13       -3.894048   1.000000
   14       -3.280152   1.000000
   15       -2.797835   1.000000
   16       -2.195409   1.000000
   17       -1.977644   1.000000
   18       -1.653049   1.000000
   19       -1.369841   1.000000
   20       -1.084709   1.000000
   21       -0.969730   1.000000
   22       -0.785079   1.000000
   23       -0.540105   1.000000
   24       -0.331706   1.000000
   25       -0.194291   1.000000
   26        0.153408   1.000000
   27        0.513751   1.000000
   28        0.655569   1.000000
   29        0.983498   1.000000
   30        1.157259   1.000000
   31        1.363781   1.000000
   32        1.800828   1.000000
   33        2.067806   1.000000
   34        2.260757   1.000000
   35        2.503990   1.000000
   36        2.683524   1.000000
   37        2.865763   1.000000
   38        3.061708   1.000000
   39        3.247484   1.000000
   40        3.347299   1.000000
   41        3.639150   1.000000
   42        3.798730   1.000000
   43        3.931189   1.000000
   44        4.159951   1.000000
   45        4.362797   1.000000
   46        4.669681   1.000000
   47        4.809824   1.000000
   48        4.977788   1.000000
   49        6.735425   0.030538
   50        6.904346   0.000000
   51        7.728478   0.000000
   52        8.204744   0.000000
   53        9.052346   0.000000
   54        9.382934   0.000000
   55        9.628324   0.000000
   56        9.826617   0.000000
   57       10.188355   0.000000
   58       10.354409   0.000000
   59       10.415812   0.000000
   60       10.761262   0.000000
   61       10.985453   0.000000
   62       11.528962   0.000000
   63       11.785823   0.000000
   64       11.989050   0.000000
   65       12.639762   0.000000
   66       12.855490   0.000000
   67       13.082272   0.000000
   68       13.287814   0.000000
   69       13.503892   0.000000
   70       13.928600   0.000000
   71       14.189977   0.000000
   72       14.386791   0.000000
 
  0.3333333E+00 -0.3333333E+00  0.1000000E+00  0.2777778E-02
    1      -11.237511   1.000000
    2      -10.804421   1.000000
    3      -10.024557   1.000000
    4       -8.884987   1.000000
    5       -8.792351   1.000000
    6       -8.406205   1.000000
    7       -6.628030   1.000000
    8       -6.219963   1.000000
    9       -5.806292   1.000000
   10       -5.098441   1.000000
   11       -5.003833   1.000000
   12       -4.583253   1.000000
   13       -3.907438   1.000000
   14       -3.317532   1.000000
   15       -2.586353   1.000000
   16       -1.984520   1.000000
   17       -1.789320   1.000000
   18       -1.582453   1.000000
   19       -1.376296   1.000000
   20       -1.161094   1.000000
   21       -1.065466   1.000000
   22       -0.828069   1.000000
   23       -0.563719   1.000000
   24       -0.404076   1.000000
   25       -0.244599   1.000000
   26        0.115101   1.000000
   27        0.356945   1.000000
   28        0.665883   1.000000
   29        0.920414   1.000000
   30        1.277888   1.000000
   31        1.569160   1.000000
   32        1.687844   1.000000
   33        2.036730   1.000000
   34        2.200607   1.000000
   35        2.440026   1.000000
   36        2.550849   1.000000
   37        2.883471   1.000000
   38        3.134746   1.000000
   39        3.285547   1.000000
   40        3.383677   1.000000
   41        3.643194   1.000000
   42        3.836067   1.000000
   43        4.005667   1.000000
   44        4.234454   1.000000
   45        4.386621   1.000000
   46        4.595298   1.000000
   47        4.786517   1.000000
   48        5.030093   1.000000
   49        6.720839   0.200121
   50        6.921107   0.000000
   51        7.773147   0.000000
   52        8.010472   0.000000
   53        9.054541   0.000000
   54        9.404190   0.000000
   55        9.668391   0.000000
   56        9.822604   0.000000
   57       10.167958   0.000000
   58       10.411899   0.000000
   59       10.547699   0.000000
   60       10.803790   0.000000
   61       10.998643   0.000000
   62       11.443323   0.000000
   63       11.659157   0.000000
   64       12.040433   0.000000
   65       12.577012   0.000000
   66       12.901477   0.000000
   67       13.102811   0.000000
   68       13.292890   0.000000
   69       13.495964   0.000000
   70       13.875930   0.000000
   71       14.286318   0.000000
   72       14.428204   0.000000
 
  0.5000000E+00 -0.3333333E+00  0.1000000E+00  0.2777778E-02
    1      -11.240256   1.000000
    2      -10.801158   1.000000
    3      -10.023202   1.000000
    4       -8.886323   1.000000
    5       -8.677577   1.000000
    6       -8.561184   1.000000
    7       -6.561098   1.000000
    8       -6.204499   1.000000
    9       -5.650412   1.000000
   10       -5.347142   1.000000
   11       -5.025943   1.000000
   12       -4.681602   1.000000
   13       -3.685327   1.000000
   14       -3.252416   1.000000
   15       -2.501807   1.000000
   16       -2.080655   1.000000
   17       -1.827760   1.000000
   18       -1.587695   1.000000
   19       -1.433493   1.000000
   20       -1.280490   1.000000
   21       -1.083830   1.000000
   22       -0.910219   1.000000
   23       -0.609871   1.000000
   24       -0.518883   1.000000
   25       -0.086648   1.000000
   26        0.223683   1.000000
   27        0.359667   1.000000
   28        0.786398   1.000000
   29        0.903848   1.000000
   30        1.402792   1.000000
   31        1.493786   1.000000
   32        1.788079   1.000000
   33        2.157482   1.000000
   34        2.239933   1.000000
   35        2.347161   1.000000
   36        2.497312   1.000000
   37        2.856000   1.000000
   38        3.100377   1.000000
   39        3.202133   1.000000
   40        3.389888   1.000000
   41        3.655576   1.000000
   42        3.800550   1.000000
   43        4.016654   1.000000
   44        4.234798   1.000000
   45        4.426754   1.000000
   46        4.506478   1.000000
   47        4.785743   1.000000
   48        5.114667   1.000000
   49        6.640491   0.918387
   50        6.924547   0.000000
   51        7.715318   0.000000
   52        7.896134   0.000000
   53        9.074734   0.000000
   54        9.384449   0.000000
   55        9.765227   0.000000
   56        9.919620   0.000000
   57       10.224923   0.000000
   58       10.358972   0.000000
   59       10.731366   0.000000
   60       10.811485   0.000000
   61       10.990865   0.000000
   62       11.308126   0.000000
   63       11.583553   0.000000
   64       12.227196   0.000000
   65       12.662714   0.000000
   66       12.849490   0.000000
   67       13.042787   0.000000
   68       13.246864   0.000000
   69       13.428466   0.000000
   70       14.010947   0.000000
   71       14.338375   0.000000
   72       14.480063   0.000000
 
 -0.3333333E+00 -0.3333333E+00  0.1000000E+00  0.2777778E-02
    1      -11.261828   1.000000
    2      -10.761044   1.000000
    3      -10.029206   1.000000
    4       -8.891088   1.000000
    5       -8.745904   1.000000
    6       -8.512883   1.000000
    7       -6.564563   1.000000
    8       -6.166871   1.000000
    9       -5.663101   1.000000
   10       -5.485284   1.000000
   11       -5.022069   1.000000
   12       -4.543411   1.000000
   13       -3.345344   1.000000
   14       -3.134145   1.000000
   15       -2.564833   1.000000
   16       -2.451474   1.000000
   17       -2.038356   1.000000
   18       -1.917978   1.000000
   19       -1.448012   1.000000
   20       -1.254369   1.000000
   21       -1.098505   1.000000
   22       -0.863311   1.000000
   23       -0.610828   1.000000
   24       -0.255388   1.000000
   25        0.086464   1.000000
   26        0.137899   1.000000
   27        0.415114   1.000000
   28        0.936066   1.000000
   29        1.070858   1.000000
   30        1.187084   1.000000
   31        1.482878   1.000000
   32        1.890581   1.000000
   33        2.151224   1.000000
   34        2.288628   1.000000
   35        2.508291   1.000000
   36        2.572648   1.000000
   37        2.907193   1.000000
   38        2.993630   1.000000
   39        3.169327   1.000000
   40        3.274049   1.000000
   41        3.629186   1.000000
   42        3.698503   1.000000
   43        3.893147   1.000000
   44        4.193391   1.000000
   45        4.354726   1.000000
   46        4.614107   1.000000
   47        4.788831   1.000000
   48        5.135117   1.000000
   49        6.573456   1.020901
   50        6.914152   0.000000
   51        7.627084   0.000000
   52        7.938691   0.000000
   53        9.139715   0.000000
   54        9.405779   0.000000
   55        9.783099   0.000000
   56        9.958930   0.000000
   57       10.190914   0.000000
   58       10.405709   0.000000
   59       10.638998   0.000000
   60       10.866172   0.000000
   61       11.026908   0.000000
   62       11.242370   0.000000
   63       11.670508   0.000000
   64       12.340412   0.000000
   65       12.518432   0.000000
   66       12.743402   0.000000
   67       13.129171   0.000000
   68       13.275533   0.000000
   69       13.596094   0.000000
   70       14.116508   0.000000
   71       14.202702   0.000000
   72       14.453542   0.000000
 
 -0.1666667E+00 -0.3333333E+00  0.1000000E+00  0.2777778E-02
    1      -11.278623   1.000000
    2      -10.725087   1.000000
    3      -10.037681   1.000000
    4       -8.913280   1.000000
    5       -8.836503   1.000000
    6       -8.385829   1.000000
    7       -6.612795   1.000000
    8       -6.167239   1.000000
    9       -5.874401   1.000000
   10       -5.361375   1.000000
   11       -4.976132   1.000000
   12       -4.252384   1.000000
   13       -3.339253   1.000000
   14       -3.012232   1.000000
   15       -2.796828   1.000000
   16       -2.532741   1.000000
   17       -2.302921   1.000000
   18       -2.009747   1.000000
   19       -1.574895   1.000000
   20       -1.105951   1.000000
   21       -1.075051   1.000000
   22       -0.818228   1.000000
   23       -0.517604   1.000000
   24       -0.068050   1.000000
   25        0.039373   1.000000
   26        0.274996   1.000000
   27        0.432970   1.000000
   28        0.698302   1.000000
   29        1.108182   1.000000
   30        1.274477   1.000000
   31        1.407815   1.000000
   32        2.019313   1.000000
   33        2.235483   1.000000
   34        2.337347   1.000000
   35        2.508020   1.000000
   36        2.670470   1.000000
   37        2.755451   1.000000
   38        2.905348   1.000000
   39        3.083173   1.000000
   40        3.399573   1.000000
   41        3.614937   1.000000
   42        3.700948   1.000000
   43        3.850188   1.000000
   44        4.115396   1.000000
   45        4.242071   1.000000
   46        4.634319   1.000000
   47        4.856051   1.000000
   48        5.097737   1.000000
   49        6.582081   1.000000
   50        6.921181   0.000000
   51        7.614929   0.000000
   52        8.052054   0.000000
   53        9.193071   0.000000
   54        9.361141   0.000000
   55        9.769419   0.000000
   56        9.995148   0.000000
   57       10.088490   0.000000
   58       10.434383   0.000000
   59       10.531330   0.000000
   60       10.789541   0.000000
   61       10.896242   0.000000
   62       11.464680   0.000000
   63       11.888123   0.000000
   64       12.089225   0.000000
   65       12.383976   0.000000
   66       12.978650   0.000000
   67       13.128468   0.000000
   68       13.353968   0.000000
   69       13.638053   0.000000
   70       13.913137   0.000000
   71       14.195499   0.000000
   72       14.437730   0.000000
 
  0.0000000E+00 -0.2500000E+00  0.1000000E+00  0.2777778E-02
    1      -11.426767   1.000000
    2      -10.750796   1.000000
    3      -10.020938   1.000000
    4       -8.915120   1.000000
    5       -8.697745   1.000000
    6       -8.234420   1.000000
    7       -6.658547   1.000000
    8       -6.091834   1.000000
    9       -5.826856   1.000000
   10       -5.301864   1.000000
   11       -4.841128   1.000000
   12       -4.030507   1.000000
   13       -3.263349   1.000000
   14       -3.189793   1.000000
   15       -2.783169   1.000000
   16       -2.464583   1.000000
   17       -2.334580   1.000000
   18       -2.066115   1.000000
   19       -1.831554   1.000000
   20       -1.366742   1.000000
   21       -1.131500   1.000000
   22       -0.866492   1.000000
   23       -0.477124   1.000000
   24       -0.391426   1.000000
   25       -0.132977   1.000000
   26        0.238732   1.000000
   27        0.461490   1.000000
   28        0.797218   1.000000
   29        0.998197   1.000000
   30        1.213483   1.000000
   31        1.427827   1.000000
   32        2.023945   1.000000
   33        2.177877   1.000000
   34        2.360522   1.000000
   35        2.418838   1.000000
   36        2.631642   1.000000
   37        2.675151   1.000000
   38        2.952433   1.000000
   39        3.049337   1.000000
   40        3.414785   1.000000
   41        3.529107   1.000000
   42        3.714034   1.000000
   43        3.799011   1.000000
   44        4.163236   1.000000
   45        4.432580   1.000000
   46        4.611088   1.000000
   47        4.876827   1.000000
   48        5.288656   1.000000
   49        6.646531   0.978620
   50        7.064699   0.000000
   51        7.713528   0.000000
   52        8.094826   0.000000
   53        9.041422   0.000000
   54        9.443396   0.000000
   55        9.756168   0.000000
   56        9.974058   0.000000
   57       10.223048   0.000000
   58       10.498122   0.000000
   59       10.650138   0.000000
   60       10.962162   0.000000
   61       11.091738   0.000000
   62       11.501965   0.000000
   63       12.099512   0.000000
   64       12.150082   0.000000
   65       12.529831   0.000000
   66       12.974962   0.000000
   67       13.167532   0.000000
   68       13.486287   0.000000
   69       13.703971   0.000000
   70       13.896875   0.000000
   71       14.096481   0.000000
   72       14.604783   0.000000
 
  0.1666667E+00 -0.2500000E+00  0.1000000E+00  0.2777778E-02
    1      -11.404160   1.000000
    2      -10.809143   1.000000
    3       -9.989998   1.000000
    4       -8.893980   1.000000
    5       -8.684339   1.000000
    6       -8.248588   1.000000
    7       -6.684956   1.000000
    8       -6.110104   1.000000
    9       -5.787250   1.000000
   10       -5.177865   1.000000
   11       -4.849652   1.000000
   12       -4.272797   1.000000
   13       -3.537746   1.000000
   14       -3.310727   1.000000
   15       -2.722006   1.000000
   16       -2.252317   1.000000
   17       -2.105754   1.000000
   18       -1.875977   1.000000
   19       -1.546507   1.000000
   20       -1.334864   1.000000
   21       -1.137208   1.000000
   22       -0.826450   1.000000
   23       -0.573583   1.000000
   24       -0.394253   1.000000
   25       -0.333779   1.000000
   26        0.009529   1.000000
   27        0.551631   1.000000
   28        0.610510   1.000000
   29        0.973734   1.000000
   30        1.075189   1.000000
   31        1.574946   1.000000
   32        1.898204   1.000000
   33        2.070281   1.000000
   34        2.299136   1.000000
   35        2.510607   1.000000
   36        2.639322   1.000000
   37        2.809132   1.000000
   38        2.968797   1.000000
   39        3.084986   1.000000
   40        3.372513   1.000000
   41        3.598160   1.000000
   42        3.743513   1.000000
   43        3.901160   1.000000
   44        4.194939   1.000000
   45        4.349984   1.000000
   46        4.609000   1.000000
   47        4.935546   1.000000
   48        5.218796   1.000000
   49        6.751530  -0.032927
   50        7.036992   0.000000
   51        7.797554   0.000000
   52        8.019319   0.000000
   53        9.036525   0.000000
   54        9.552475   0.000000
   55        9.712009   0.000000
   56        9.883474   0.000000
   57       10.342165   0.000000
   58       10.449654   0.000000
   59       10.671363   0.000000
   60       10.926635   0.000000
   61       11.051590   0.000000
   62       11.453150   0.000000
   63       11.932451   0.000000
   64       12.327410   0.000000
   65       12.619728   0.000000
   66       12.900859   0.000000
   67       13.042680   0.000000
   68       13.391073   0.000000
   69       13.657974   0.000000
   70       13.926983   0.000000
   71       14.136055   0.000000
   72       14.704875   0.000000
 
  0.3333333E+00 -0.2500000E+00  0.1000000E+00  0.2777778E-02
    1      -11.375513   1.000000
    2      -10.872415   1.000000
    3       -9.963389   1.000000
    4       -8.836836   1.000000
    5       -8.642354   1.000000
    6       -8.358382   1.000000
    7       -6.656144   1.000000
    8       -6.111177   1.000000
    9       -5.670707   1.000000
   10       -5.088799   1.000000
   11       -4.975577   1.000000
   12       -4.461206   1.000000
   13       -3.730833   1.000000
   14       -3.416765   1.000000
   15       -2.627197   1.000000
   16       -2.095994   1.000000
   17       -1.835328   1.000000
   18       -1.701890   1.000000
   19       -1.474608   1.000000
   20       -1.354274   1.000000
   21       -1.033296   1.000000
   22       -0.833112   1.000000
   23       -0.662385   1.000000
   24       -0.515935   1.000000
   25       -0.281890   1.000000
   26        0.049037   1.000000
   27        0.417143   1.000000
   28        0.521928   1.000000
   29        0.726631   1.000000
   30        1.049499   1.000000
   31        1.610127   1.000000
   32        1.946934   1.000000
   33        2.119540   1.000000
   34        2.205107   1.000000
   35        2.360292   1.000000
   36        2.517117   1.000000
   37        2.819345   1.000000
   38        3.062333   1.000000
   39        3.242407   1.000000
   40        3.379753   1.000000
   41        3.566968   1.000000
   42        3.764607   1.000000
   43        3.999736   1.000000
   44        4.195517   1.000000
   45        4.291662   1.000000
   46        4.738266   1.000000
   47        4.942333   1.000000
   48        5.230857   1.000000
   49        6.851628   0.000000
   50        6.980721   0.000000
   51        7.713104   0.000000
   52        7.960844   0.000000
   53        9.016231   0.000000
   54        9.531953   0.000000
   55        9.822024   0.000000
   56        9.912239   0.000000
   57       10.324273   0.000000
   58       10.591921   0.000000
   59       10.716482   0.000000
   60       10.928622   0.000000
   61       11.116826   0.000000
   62       11.361471   0.000000
   63       11.768818   0.000000
   64       12.263695   0.000000
   65       12.660418   0.000000
   66       13.050183   0.000000
   67       13.080494   0.000000
   68       13.307951   0.000000
   69       13.641984   0.000000
   70       13.823707   0.000000
   71       14.321878   0.000000
   72       14.603959   0.000000
 
  0.5000000E+00 -0.2500000E+00  0.1000000E+00  0.2777778E-02
    1      -11.372950   1.000000
    2      -10.877639   1.000000
    3       -9.963406   1.000000
    4       -8.794583   1.000000
    5       -8.572490   1.000000
    6       -8.499055   1.000000
    7       -6.600704   1.000000
    8       -6.098996   1.000000
    9       -5.569719   1.000000
   10       -5.298825   1.000000
   11       -4.898100   1.000000
   12       -4.506861   1.000000
   13       -3.711807   1.000000
   14       -3.416180   1.000000
   15       -2.574252   1.000000
   16       -2.002751   1.000000
   17       -1.857194   1.000000
   18       -1.740201   1.000000
   19       -1.686358   1.000000
   20       -1.311006   1.000000
   21       -0.974954   1.000000
   22       -0.927717   1.000000
   23       -0.803354   1.000000
   24       -0.273474   1.000000
   25       -0.180105   1.000000
   26        0.091851   1.000000
   27        0.366258   1.000000
   28        0.592060   1.000000
   29        0.753808   1.000000
   30        1.115479   1.000000
   31        1.568096   1.000000
   32        1.813035   1.000000
   33        1.941431   1.000000
   34        2.254570   1.000000
   35        2.379132   1.000000
   36        2.585241   1.000000
   37        2.790584   1.000000
   38        2.978817   1.000000
   39        3.135168   1.000000
   40        3.515953   1.000000
   41        3.631321   1.000000
   42        3.690693   1.000000
   43        4.042406   1.000000
   44        4.211447   1.000000
   45        4.360917   1.000000
   46        4.659630   1.000000
   47        4.948902   1.000000
   48        5.338228   1.000000
   49        6.796796  -0.049978
   50        6.999384   0.000000
   51        7.569075   0.000000
   52        7.967677   0.000000
   53        8.990655   0.000000
   54        9.487073   0.000000
   55        9.819841   0.000000
   56       10.027985   0.000000
   57       10.351730   0.000000
   58       10.640608   0.000000
   59       10.849759   0.000000
   60       10.967064   0.000000
   61       11.162363   0.000000
   62       11.359028   0.000000
   63       11.605786   0.000000
   64       12.278820   0.000000
   65       12.719898   0.000000
   66       12.994162   0.000000
   67       13.157518   0.000000
   68       13.375239   0.000000
   69       13.600210   0.000000
   70       13.874179   0.000000
   71       14.275389   0.000000
   72       14.532586   0.000000
 
 -0.3333333E+00 -0.2500000E+00  0.1000000E+00  0.2777778E-02
    1      -11.399854   1.000000
    2      -10.819327   1.000000
    3       -9.989338   1.000000
    4       -8.799275   1.000000
    5       -8.673100   1.000000
    6       -8.412001   1.000000
    7       -6.586210   1.000000
    8       -6.064263   1.000000
    9       -5.598616   1.000000
   10       -5.463729   1.000000
   11       -4.852217   1.000000
   12       -4.341949   1.000000
   13       -3.499325   1.000000
   14       -3.309916   1.000000
   15       -2.580636   1.000000
   16       -2.281879   1.000000
   17       -2.061087   1.000000
   18       -1.831605   1.000000
   19       -1.698564   1.000000
   20       -1.478154   1.000000
   21       -1.293903   1.000000
   22       -0.849481   1.000000
   23       -0.612981   1.000000
   24       -0.443026   1.000000
   25        0.092799   1.000000
   26        0.334184   1.000000
   27        0.504735   1.000000
   28        0.762577   1.000000
   29        0.889762   1.000000
   30        1.222678   1.000000
   31        1.366798   1.000000
   32        1.678587   1.000000
   33        2.005190   1.000000
   34        2.148831   1.000000
   35        2.356943   1.000000
   36        2.636645   1.000000
   37        2.826780   1.000000
   38        2.968211   1.000000
   39        3.135971   1.000000
   40        3.448716   1.000000
   41        3.628849   1.000000
   42        3.783791   1.000000
   43        4.008090   1.000000
   44        4.169003   1.000000
   45        4.296016   1.000000
   46        4.587499   1.000000
   47        4.966471   1.000000
   48        5.390480   1.000000
   49        6.674498   0.592084
   50        7.033511   0.000000
   51        7.546323   0.000000
   52        7.990283   0.000000
   53        9.001608   0.000000
   54        9.501564   0.000000
   55        9.760307   0.000000
   56       10.044859   0.000000
   57       10.270739   0.000000
   58       10.702423   0.000000
   59       10.870000   0.000000
   60       11.051611   0.000000
   61       11.151198   0.000000
   62       11.425045   0.000000
   63       11.515048   0.000000
   64       12.447825   0.000000
   65       12.674024   0.000000
   66       12.940261   0.000000
   67       13.144691   0.000000
   68       13.376111   0.000000
   69       13.649904   0.000000
   70       14.089781   0.000000
   71       14.210158   0.000000
   72       14.467801   0.000000
 
 -0.1666667E+00 -0.2500000E+00  0.1000000E+00  0.2777778E-02
    1      -11.424895   1.000000
    2      -10.755988   1.000000
    3      -10.020153   1.000000
    4       -8.872759   1.000000
    5       -8.701681   1.000000
    6       -8.301537   1.000000
    7       -6.615219   1.000000
    8       -6.057549   1.000000
    9       -5.754297   1.000000
   10       -5.417808   1.000000
   11       -4.856726   1.000000
   12       -4.071841   1.000000
   13       -3.262029   1.000000
   14       -3.159317   1.000000
   15       -2.642632   1.000000
   16       -2.550380   1.000000
   17       -2.365360   1.000000
   18       -1.997241   1.000000
   19       -1.846058   1.000000
   20       -1.514369   1.000000
   21       -1.189463   1.000000
   22       -0.797677   1.000000
   23       -0.619613   1.000000
   24       -0.397972   1.000000
   25        0.098780   1.000000
   26        0.351280   1.000000
   27        0.649713   1.000000
   28        0.812746   1.000000
   29        0.989139   1.000000
   30        1.168404   1.000000
   31        1.318473   1.000000
   32        1.900720   1.000000
   33        2.022169   1.000000
   34        2.251700   1.000000
   35        2.425487   1.000000
   36        2.601189   1.000000
   37        2.783345   1.000000
   38        3.011588   1.000000
   39        3.105209   1.000000
   40        3.310147   1.000000
   41        3.632555   1.000000
   42        3.752940   1.000000
   43        3.871891   1.000000
   44        4.061050   1.000000
   45        4.410826   1.000000
   46        4.612621   1.000000
   47        4.912994   1.000000
   48        5.360633   1.000000
   49        6.610653   1.060769
   50        7.057337   0.000000
   51        7.612140   0.000000
   52        8.050205   0.000000
   53        9.035055   0.000000
   54        9.473968   0.000000
   55        9.737697   0.000000
   56       10.044043   0.000000
   57       10.175339   0.000000
   58       10.644498   0.000000
   59       10.734961   0.000000
   60       11.009892   0.000000
   61       11.169362   0.000000
   62       11.446573   0.000000
   63       11.754218   0.000000
   64       12.388795   0.000000
   65       12.586051   0.000000
   66       12.953654   0.000000
   67       13.184769   0.000000
   68       13.406024   0.000000
   69       13.824617   0.000000
   70       14.030140   0.000000
   71       14.223221   0.000000
   72       14.407622   0.000000
 
  0.0000000E+00 -0.1666667E+00  0.1000000E+00  0.2777778E-02
    1      -11.566169   1.000000
    2      -10.791152   1.000000
    3      -10.009866   1.000000
    4       -8.886431   1.000000
    5       -8.494848   1.000000
    6       -8.136556   1.000000
    7       -6.687764   1.000000
    8       -6.014873   1.000000
    9       -5.722317   1.000000
   10       -5.280214   1.000000
   11       -4.652593   1.000000
   12       -3.916735   1.000000
   13       -3.378058   1.000000
   14       -2.960306   1.000000
   15       -2.765805   1.000000
   16       -2.527491   1.000000
   17       -2.385686   1.000000
   18       -2.209794   1.000000
   19       -1.900889   1.000000
   20       -1.626171   1.000000
   21       -1.491374   1.000000
   22       -1.056348   1.000000
   23       -0.669122   1.000000
   24       -0.554537   1.000000
   25       -0.133522   1.000000
   26        0.237114   1.000000
   27        0.528886   1.000000
   28        0.622158   1.000000
   29        0.925422   1.000000
   30        1.394047   1.000000
   31        1.732549   1.000000
   32        1.902219   1.000000
   33        2.017512   1.000000
   34        2.198608   1.000000
   35        2.463704   1.000000
   36        2.525854   1.000000
   37        2.756085   1.000000
   38        2.890473   1.000000
   39        3.126542   1.000000
   40        3.206847   1.000000
   41        3.622513   1.000000
   42        3.752534   1.000000
   43        3.875179   1.000000
   44        4.158554   1.000000
   45        4.487191   1.000000
   46        4.752168   1.000000
   47        4.975278   1.000000
   48        5.561881   1.000000
   49        6.719972   0.127053
   50        7.192746   0.000000
   51        7.786919   0.000000
   52        7.998324   0.000000
   53        8.940809   0.000000
   54        9.512501   0.000000
   55        9.740745   0.000000
   56       10.052744   0.000000
   57       10.166902   0.000000
   58       10.587058   0.000000
   59       10.997208   0.000000
   60       11.133339   0.000000
   61       11.287179   0.000000
   62       11.593709   0.000000
   63       11.892610   0.000000
   64       12.342423   0.000000
   65       12.872098   0.000000
   66       13.125548   0.000000
   67       13.320842   0.000000
   68       13.553081   0.000000
   69       13.744553   0.000000
   70       13.949503   0.000000
   71       14.136300   0.000000
   72       14.353911   0.000000
 
  0.1666667E+00 -0.1666667E+00  0.1000000E+00  0.2777778E-02
    1      -11.545785   1.000000
    2      -10.855001   1.000000
    3       -9.957371   1.000000
    4       -8.870978   1.000000
    5       -8.499956   1.000000
    6       -8.142672   1.000000
    7       -6.712587   1.000000
    8       -6.022297   1.000000
    9       -5.705712   1.000000
   10       -5.163138   1.000000
   11       -4.731282   1.000000
   12       -4.114977   1.000000
   13       -3.443512   1.000000
   14       -3.083005   1.000000
   15       -2.757534   1.000000
   16       -2.407013   1.000000
   17       -2.206476   1.000000
   18       -2.041864   1.000000
   19       -1.873405   1.000000
   20       -1.535844   1.000000
   21       -1.319250   1.000000
   22       -0.955999   1.000000
   23       -0.854106   1.000000
   24       -0.409038   1.000000
   25       -0.367789   1.000000
   26       -0.030115   1.000000
   27        0.452210   1.000000
   28        0.531624   1.000000
   29        0.842230   1.000000
   30        1.336195   1.000000
   31        1.772937   1.000000
   32        1.905221   1.000000
   33        2.029238   1.000000
   34        2.291366   1.000000
   35        2.467027   1.000000
   36        2.603915   1.000000
   37        2.928143   1.000000
   38        2.999885   1.000000
   39        3.146648   1.000000
   40        3.271427   1.000000
   41        3.544480   1.000000
   42        3.675278   1.000000
   43        3.879471   1.000000
   44        4.142225   1.000000
   45        4.386255   1.000000
   46        4.699986   1.000000
   47        5.006101   1.000000
   48        5.508899   1.000000
   49        6.782071  -0.040751
   50        7.184644   0.000000
   51        7.747663   0.000000
   52        8.004307   0.000000
   53        8.998121   0.000000
   54        9.602012   0.000000
   55        9.870398   0.000000
   56        9.992156   0.000000
   57       10.289594   0.000000
   58       10.551740   0.000000
   59       10.890987   0.000000
   60       11.025989   0.000000
   61       11.203067   0.000000
   62       11.518546   0.000000
   63       12.175137   0.000000
   64       12.289210   0.000000
   65       12.801513   0.000000
   66       12.997721   0.000000
   67       13.256269   0.000000
   68       13.515631   0.000000
   69       13.748246   0.000000
   70       13.973591   0.000000
   71       14.024734   0.000000
   72       14.444897   0.000000
 
  0.3333333E+00 -0.1666667E+00  0.1000000E+00  0.2777778E-02
    1      -11.510812   1.000000
    2      -10.943669   1.000000
    3       -9.894320   1.000000
    4       -8.815011   1.000000
    5       -8.498449   1.000000
    6       -8.219898   1.000000
    7       -6.708554   1.000000
    8       -6.008775   1.000000
    9       -5.649858   1.000000
   10       -5.010388   1.000000
   11       -4.909714   1.000000
   12       -4.216206   1.000000
   13       -3.535752   1.000000
   14       -3.340518   1.000000
   15       -2.761894   1.000000
   16       -2.306010   1.000000
   17       -2.116708   1.000000
   18       -1.929040   1.000000
   19       -1.585331   1.000000
   20       -1.387703   1.000000
   21       -1.193655   1.000000
   22       -0.997119   1.000000
   23       -0.778764   1.000000
   24       -0.529131   1.000000
   25       -0.335180   1.000000
   26       -0.064534   1.000000
   27        0.294170   1.000000
   28        0.434614   1.000000
   29        0.827252   1.000000
   30        1.033064   1.000000
   31        1.728766   1.000000
   32        1.827174   1.000000
   33        2.026025   1.000000
   34        2.307428   1.000000
   35        2.610602   1.000000
   36        2.725753   1.000000
   37        2.885882   1.000000
   38        2.981445   1.000000
   39        3.240647   1.000000
   40        3.325385   1.000000
   41        3.475814   1.000000
   42        3.769084   1.000000
   43        3.904724   1.000000
   44        4.095096   1.000000
   45        4.195216   1.000000
   46        4.793753   1.000000
   47        5.061724   1.000000
   48        5.467112   1.000000
   49        6.887817   0.000000
   50        7.124296   0.000000
   51        7.609796   0.000000
   52        8.070389   0.000000
   53        9.006000   0.000000
   54        9.661266   0.000000
   55        9.897412   0.000000
   56       10.094856   0.000000
   57       10.434347   0.000000
   58       10.588397   0.000000
   59       10.828861   0.000000
   60       11.051289   0.000000
   61       11.180105   0.000000
   62       11.468148   0.000000
   63       12.025807   0.000000
   64       12.518184   0.000000
   65       12.751145   0.000000
   66       12.939604   0.000000
   67       13.239120   0.000000
   68       13.371313   0.000000
   69       13.745681   0.000000
   70       13.871663   0.000000
   71       14.174828   0.000000
   72       14.443683   0.000000
 
  0.5000000E+00 -0.1666667E+00  0.1000000E+00  0.2777778E-02
    1      -11.497883   1.000000
    2      -10.971684   1.000000
    3       -9.878682   1.000000
    4       -8.770082   1.000000
    5       -8.480780   1.000000
    6       -8.305286   1.000000
    7       -6.677585   1.000000
    8       -6.002621   1.000000
    9       -5.597483   1.000000
   10       -5.142710   1.000000
   11       -4.808925   1.000000
   12       -4.192287   1.000000
   13       -3.569234   1.000000
   14       -3.488901   1.000000
   15       -2.750178   1.000000
   16       -2.274960   1.000000
   17       -2.064495   1.000000
   18       -1.989988   1.000000
   19       -1.680996   1.000000
   20       -1.390801   1.000000
   21       -1.210852   1.000000
   22       -0.803706   1.000000
   23       -0.776053   1.000000
   24       -0.377706   1.000000
   25       -0.220982   1.000000
   26        0.130870   1.000000
   27        0.236795   1.000000
   28        0.412891   1.000000
   29        0.538500   1.000000
   30        1.082543   1.000000
   31        1.586537   1.000000
   32        1.825100   1.000000
   33        2.157492   1.000000
   34        2.227280   1.000000
   35        2.439586   1.000000
   36        2.616801   1.000000
   37        2.796673   1.000000
   38        3.126935   1.000000
   39        3.279619   1.000000
   40        3.297272   1.000000
   41        3.529336   1.000000
   42        3.665297   1.000000
   43        3.918785   1.000000
   44        4.139167   1.000000
   45        4.366915   1.000000
   46        4.724792   1.000000
   47        5.087199   1.000000
   48        5.530667   1.000000
   49        6.963420   0.000000
   50        7.044009   0.000000
   51        7.546203   0.000000
   52        8.087829   0.000000
   53        8.958828   0.000000
   54        9.630949   0.000000
   55        9.846717   0.000000
   56       10.136237   0.000000
   57       10.441511   0.000000
   58       10.725444   0.000000
   59       10.995447   0.000000
   60       11.115820   0.000000
   61       11.232002   0.000000
   62       11.463606   0.000000
   63       11.838701   0.000000
   64       12.477809   0.000000
   65       12.803289   0.000000
   66       12.951007   0.000000
   67       13.305082   0.000000
   68       13.354028   0.000000
   69       13.692995   0.000000
   70       13.946974   0.000000
   71       14.185148   0.000000
   72       14.487033   0.000000
 
 -0.3333333E+00 -0.1666667E+00  0.1000000E+00  0.2777778E-02
    1      -11.524238   1.000000
    2      -10.911084   1.000000
    3       -9.920706   1.000000
    4       -8.798375   1.000000
    5       -8.473324   1.000000
    6       -8.287867   1.000000
    7       -6.657193   1.000000
    8       -5.995283   1.000000
    9       -5.608761   1.000000
   10       -5.299098   1.000000
   11       -4.656170   1.000000
   12       -4.068681   1.000000
   13       -3.528491   1.000000
   14       -3.437885   1.000000
   15       -2.722504   1.000000
   16       -2.316905   1.000000
   17       -2.209648   1.000000
   18       -2.130832   1.000000
   19       -1.815620   1.000000
   20       -1.390671   1.000000
   21       -1.282043   1.000000
   22       -0.976926   1.000000
   23       -0.877584   1.000000
   24       -0.235798   1.000000
   25       -0.082109   1.000000
   26        0.127416   1.000000
   27        0.514836   1.000000
   28        0.669414   1.000000
   29        0.725362   1.000000
   30        1.101083   1.000000
   31        1.576738   1.000000
   32        1.656950   1.000000
   33        1.990835   1.000000
   34        2.182905   1.000000
   35        2.319597   1.000000
   36        2.577900   1.000000
   37        2.780266   1.000000
   38        3.012493   1.000000
   39        3.232450   1.000000
   40        3.519971   1.000000
   41        3.591316   1.000000
   42        3.640164   1.000000
   43        3.862815   1.000000
   44        4.186202   1.000000
   45        4.343658   1.000000
   46        4.755113   1.000000
   47        5.119032   1.000000
   48        5.591245   1.000000
   49        6.842878  -0.032041
   50        7.107498   0.000000
   51        7.578343   0.000000
   52        8.082496   0.000000
   53        8.911213   0.000000
   54        9.594761   0.000000
   55        9.737174   0.000000
   56       10.106859   0.000000
   57       10.300033   0.000000
   58       10.889309   0.000000
   59       11.070041   0.000000
   60       11.162514   0.000000
   61       11.308218   0.000000
   62       11.498625   0.000000
   63       11.723656   0.000000
   64       12.480205   0.000000
   65       12.823950   0.000000
   66       12.992499   0.000000
   67       13.286232   0.000000
   68       13.493270   0.000000
   69       13.668453   0.000000
   70       13.972360   0.000000
   71       14.302319   0.000000
   72       14.400324   0.000000
 
 -0.1666667E+00 -0.1666667E+00  0.1000000E+00  0.2777778E-02
    1      -11.556843   1.000000
    2      -10.820940   1.000000
    3       -9.987856   1.000000
    4       -8.856089   1.000000
    5       -8.485665   1.000000
    6       -8.199087   1.000000
    7       -6.663764   1.000000
    8       -5.992460   1.000000
    9       -5.680607   1.000000
   10       -5.337931   1.000000
   11       -4.624904   1.000000
   12       -3.882613   1.000000
   13       -3.427916   1.000000
   14       -3.234251   1.000000
   15       -2.706217   1.000000
   16       -2.536119   1.000000
   17       -2.336591   1.000000
   18       -2.119028   1.000000
   19       -1.958697   1.000000
   20       -1.540210   1.000000
   21       -1.418049   1.000000
   22       -1.053834   1.000000
   23       -0.772676   1.000000
   24       -0.525950   1.000000
   25       -0.016762   1.000000
   26        0.376882   1.000000
   27        0.541285   1.000000
   28        0.847864   1.000000
   29        0.950729   1.000000
   30        1.246138   1.000000
   31        1.521757   1.000000
   32        1.699505   1.000000
   33        1.878095   1.000000
   34        2.147431   1.000000
   35        2.446479   1.000000
   36        2.589092   1.000000
   37        2.719221   1.000000
   38        2.865499   1.000000
   39        3.176137   1.000000
   40        3.389642   1.000000
   41        3.606251   1.000000
   42        3.795784   1.000000
   43        3.935807   1.000000
   44        4.018082   1.000000
   45        4.428103   1.000000
   46        4.827118   1.000000
   47        5.058417   1.000000
   48        5.593313   1.000000
   49        6.738991   0.070493
   50        7.163601   0.000000
   51        7.675040   0.000000
   52        8.063948   0.000000
   53        8.902748   0.000000
   54        9.521372   0.000000
   55        9.707578   0.000000
   56       10.064914   0.000000
   57       10.176707   0.000000
   58       10.753904   0.000000
   59       11.089245   0.000000
   60       11.162805   0.000000
   61       11.359729   0.000000
   62       11.597348   0.000000
   63       11.691154   0.000000
   64       12.448908   0.000000
   65       12.853686   0.000000
   66       13.144225   0.000000
   67       13.336243   0.000000
   68       13.415757   0.000000
   69       13.798743   0.000000
   70       14.036460   0.000000
   71       14.201085   0.000000
   72       14.376725   0.000000
 
  0.0000000E+00 -0.8333333E-01  0.1000000E+00  0.2777778E-02
    1      -11.668435   1.000000
    2      -10.831377   1.000000
    3      -10.009969   1.000000
    4       -8.820469   1.000000
    5       -8.299998   1.000000
    6       -8.054354   1.000000
    7       -6.789335   1.000000
    8       -5.945394   1.000000
    9       -5.771604   1.000000
   10       -5.043163   1.000000
   11       -4.407071   1.000000
   12       -3.783194   1.000000
   13       -3.535453   1.000000
   14       -3.037244   1.000000
   15       -2.936938   1.000000
   16       -2.704912   1.000000
   17       -2.386995   1.000000
   18       -2.256192   1.000000
   19       -1.938782   1.000000
   20       -1.587686   1.000000
   21       -1.416485   1.000000
   22       -1.297003   1.000000
   23       -0.709811   1.000000
   24       -0.618529   1.000000
   25       -0.431332   1.000000
   26        0.095589   1.000000
   27        0.324828   1.000000
   28        0.533179   1.000000
   29        0.893266   1.000000
   30        1.482844   1.000000
   31        1.644031   1.000000
   32        1.782705   1.000000
   33        2.136260   1.000000
   34        2.253107   1.000000
   35        2.341542   1.000000
   36        2.603483   1.000000
   37        2.836204   1.000000
   38        2.872096   1.000000
   39        3.165488   1.000000
   40        3.389253   1.000000
   41        3.650976   1.000000
   42        3.869715   1.000000
   43        3.980895   1.000000
   44        4.247630   1.000000
   45        4.533115   1.000000
   46        4.847042   1.000000
   47        4.944240   1.000000
   48        5.762898   1.000000
   49        6.841819   0.000000
   50        7.244611   0.000000
   51        7.765429   0.000000
   52        7.976959   0.000000
   53        8.896489   0.000000
   54        9.574282   0.000000
   55        9.739692   0.000000
   56       10.062142   0.000000
   57       10.188632   0.000000
   58       10.638909   0.000000
   59       10.994519   0.000000
   60       11.188197   0.000000
   61       11.550847   0.000000
   62       11.764907   0.000000
   63       11.948036   0.000000
   64       12.345811   0.000000
   65       13.090149   0.000000
   66       13.306685   0.000000
   67       13.438336   0.000000
   68       13.564483   0.000000
   69       13.713015   0.000000
   70       13.780325   0.000000
   71       13.965921   0.000000
   72       14.102052   0.000000
 
  0.1666667E+00 -0.8333333E-01  0.1000000E+00  0.2777778E-02
    1      -11.653822   1.000000
    2      -10.884453   1.000000
    3       -9.953480   1.000000
    4       -8.818479   1.000000
    5       -8.336073   1.000000
    6       -8.030233   1.000000
    7       -6.795257   1.000000
    8       -5.946175   1.000000
    9       -5.775067   1.000000
   10       -4.966160   1.000000
   11       -4.545004   1.000000
   12       -3.876596   1.000000
   13       -3.567244   1.000000
   14       -3.039211   1.000000
   15       -2.780723   1.000000
   16       -2.571743   1.000000
   17       -2.462518   1.000000
   18       -2.192385   1.000000
   19       -1.909835   1.000000
   20       -1.591837   1.000000
   21       -1.392537   1.000000
   22       -1.108563   1.000000
   23       -0.920779   1.000000
   24       -0.519757   1.000000
   25       -0.450007   1.000000
   26        0.047897   1.000000
   27        0.159893   1.000000
   28        0.360360   1.000000
   29        0.733982   1.000000
   30        1.470254   1.000000
   31        1.666019   1.000000
   32        1.952497   1.000000
   33        2.111761   1.000000
   34        2.303991   1.000000
   35        2.532366   1.000000
   36        2.700603   1.000000
   37        2.834387   1.000000
   38        3.029102   1.000000
   39        3.228687   1.000000
   40        3.337830   1.000000
   41        3.624891   1.000000
   42        3.817076   1.000000
   43        3.937553   1.000000
   44        4.182877   1.000000
   45        4.536503   1.000000
   46        4.657226   1.000000
   47        4.942877   1.000000
   48        5.715995   1.000000
   49        6.865853   0.000000
   50        7.247555   0.000000
   51        7.635436   0.000000
   52        8.094873   0.000000
   53        8.961054   0.000000
   54        9.684682   0.000000
   55        9.849840   0.000000
   56       10.085396   0.000000
   57       10.291949   0.000000
   58       10.563931   0.000000
   59       10.895987   0.000000
   60       11.070260   0.000000
   61       11.480898   0.000000
   62       11.816612   0.000000
   63       12.019125   0.000000
   64       12.290141   0.000000
   65       12.997626   0.000000
   66       13.210447   0.000000
   67       13.452227   0.000000
   68       13.520681   0.000000
   69       13.688680   0.000000
   70       13.803999   0.000000
   71       14.042538   0.000000
   72       14.152528   0.000000
 
  0.3333333E+00 -0.8333333E-01  0.1000000E+00  0.2777778E-02
    1      -11.616970   1.000000
    2      -10.989875   1.000000
    3       -9.850427   1.000000
    4       -8.795407   1.000000
    5       -8.375311   1.000000
    6       -8.052793   1.000000
    7       -6.795945   1.000000
    8       -5.923239   1.000000
    9       -5.757745   1.000000
   10       -4.889048   1.000000
   11       -4.720064   1.000000
   12       -3.909888   1.000000
   13       -3.589256   1.000000
   14       -3.099437   1.000000
   15       -2.813978   1.000000
   16       -2.618084   1.000000
   17       -2.308698   1.000000
   18       -2.075267   1.000000
   19       -1.845540   1.000000
   20       -1.562985   1.000000
   21       -1.459183   1.000000
   22       -0.960725   1.000000
   23       -0.777465   1.000000
   24       -0.694107   1.000000
   25       -0.234263   1.000000
   26       -0.064056   1.000000
   27       -0.010313   1.000000
   28        0.349255   1.000000
   29        0.744345   1.000000
   30        1.079183   1.000000
   31        1.838135   1.000000
   32        1.969976   1.000000
   33        2.067179   1.000000
   34        2.486230   1.000000
   35        2.632616   1.000000
   36        2.698924   1.000000
   37        2.869537   1.000000
   38        3.017283   1.000000
   39        3.189268   1.000000
   40        3.464129   1.000000
   41        3.653492   1.000000
   42        3.761542   1.000000
   43        3.830466   1.000000
   44        4.118419   1.000000
   45        4.256966   1.000000
   46        4.719356   1.000000
   47        5.030990   1.000000
   48        5.622397   1.000000
   49        6.938184   0.000000
   50        7.218014   0.000000
   51        7.581316   0.000000
   52        8.165899   0.000000
   53        8.989465   0.000000
   54        9.818818   0.000000
   55        9.886118   0.000000
   56       10.228346   0.000000
   57       10.425587   0.000000
   58       10.635359   0.000000
   59       10.847382   0.000000
   60       11.033561   0.000000
   61       11.416538   0.000000
   62       11.717687   0.000000
   63       12.097461   0.000000
   64       12.352583   0.000000
   65       12.942612   0.000000
   66       13.100068   0.000000
   67       13.298870   0.000000
   68       13.400609   0.000000
   69       13.752272   0.000000
   70       13.887452   0.000000
   71       14.081557   0.000000
   72       14.239605   0.000000
 
  0.5000000E+00 -0.8333333E-01  0.1000000E+00  0.2777778E-02
    1      -11.593024   1.000000
    2      -11.045189   1.000000
    3       -9.803148   1.000000
    4       -8.769849   1.000000
    5       -8.385716   1.000000
    6       -8.095762   1.000000
    7       -6.788613   1.000000
    8       -5.912106   1.000000
    9       -5.728170   1.000000
   10       -4.960394   1.000000
   11       -4.685674   1.000000
   12       -3.879095   1.000000
   13       -3.568136   1.000000
   14       -3.207313   1.000000
   15       -2.893036   1.000000
   16       -2.595163   1.000000
   17       -2.361221   1.000000
   18       -2.087877   1.000000
   19       -1.765566   1.000000
   20       -1.462352   1.000000
   21       -1.391452   1.000000
   22       -1.258083   1.000000
   23       -0.600937   1.000000
   24       -0.546482   1.000000
   25       -0.293460   1.000000
   26       -0.046144   1.000000
   27        0.217852   1.000000
   28        0.396001   1.000000
   29        0.668929   1.000000
   30        1.028439   1.000000
   31        1.697173   1.000000
   32        1.968528   1.000000
   33        2.113992   1.000000
   34        2.352399   1.000000
   35        2.479476   1.000000
   36        2.678534   1.000000
   37        2.896349   1.000000
   38        3.140113   1.000000
   39        3.290622   1.000000
   40        3.352049   1.000000
   41        3.573034   1.000000
   42        3.679293   1.000000
   43        3.898162   1.000000
   44        4.078912   1.000000
   45        4.319791   1.000000
   46        4.726070   1.000000
   47        5.093762   1.000000
   48        5.609220   1.000000
   49        7.030880   0.000000
   50        7.137435   0.000000
   51        7.607803   0.000000
   52        8.166043   0.000000
   53        8.957756   0.000000
   54        9.812078   0.000000
   55        9.873934   0.000000
   56       10.201168   0.000000
   57       10.543142   0.000000
   58       10.747934   0.000000
   59       11.053958   0.000000
   60       11.096709   0.000000
   61       11.382805   0.000000
   62       11.641562   0.000000
   63       11.969833   0.000000
   64       12.486090   0.000000
   65       12.901693   0.000000
   66       13.004064   0.000000
   67       13.251026   0.000000
   68       13.461554   0.000000
   69       13.689192   0.000000
   70       13.977723   0.000000
   71       14.138349   0.000000
   72       14.289637   0.000000
 
 -0.3333333E+00 -0.8333333E-01  0.1000000E+00  0.2777778E-02
    1      -11.613217   1.000000
    2      -10.997566   1.000000
    3       -9.849672   1.000000
    4       -8.780042   1.000000
    5       -8.329733   1.000000
    6       -8.129414   1.000000
    7       -6.783378   1.000000
    8       -5.922804   1.000000
    9       -5.714349   1.000000
   10       -5.056695   1.000000
   11       -4.520106   1.000000
   12       -3.823274   1.000000
   13       -3.515703   1.000000
   14       -3.317865   1.000000
   15       -2.842890   1.000000
   16       -2.582057   1.000000
   17       -2.537010   1.000000
   18       -2.088784   1.000000
   19       -1.815350   1.000000
   20       -1.699891   1.000000
   21       -1.440608   1.000000
   22       -0.940377   1.000000
   23       -0.868923   1.000000
   24       -0.410449   1.000000
   25       -0.213090   1.000000
   26        0.049572   1.000000
   27        0.295750   1.000000
   28        0.482459   1.000000
   29        0.772390   1.000000
   30        1.144928   1.000000
   31        1.572195   1.000000
   32        1.919792   1.000000
   33        2.033171   1.000000
   34        2.258152   1.000000
   35        2.505961   1.000000
   36        2.680936   1.000000
   37        2.749725   1.000000
   38        2.874652   1.000000
   39        3.296231   1.000000
   40        3.474866   1.000000
   41        3.570986   1.000000
   42        3.642749   1.000000
   43        3.925827   1.000000
   44        4.206783   1.000000
   45        4.371704   1.000000
   46        4.804664   1.000000
   47        5.135459   1.000000
   48        5.672987   1.000000
   49        6.999850   0.000000
   50        7.136673   0.000000
   51        7.683328   0.000000
   52        8.108712   0.000000
   53        8.896286   0.000000
   54        9.698893   0.000000
   55        9.808005   0.000000
   56       10.151906   0.000000
   57       10.366272   0.000000
   58       10.953155   0.000000
   59       11.028631   0.000000
   60       11.302503   0.000000
   61       11.415797   0.000000
   62       11.591191   0.000000
   63       11.945237   0.000000
   64       12.443614   0.000000
   65       12.971223   0.000000
   66       13.092275   0.000000
   67       13.251229   0.000000
   68       13.503205   0.000000
   69       13.688108   0.000000
   70       13.969115   0.000000
   71       14.191318   0.000000
   72       14.281092   0.000000
 
 -0.1666667E+00 -0.8333333E-01  0.1000000E+00  0.2777778E-02
    1      -11.650747   1.000000
    2      -10.892315   1.000000
    3       -9.951359   1.000000
    4       -8.805582   1.000000
    5       -8.283191   1.000000
    6       -8.112588   1.000000
    7       -6.784812   1.000000
    8       -5.933800   1.000000
    9       -5.739880   1.000000
   10       -5.082125   1.000000
   11       -4.394986   1.000000
   12       -3.756793   1.000000
   13       -3.515750   1.000000
   14       -3.260802   1.000000
   15       -2.861861   1.000000
   16       -2.695581   1.000000
   17       -2.472163   1.000000
   18       -2.122643   1.000000
   19       -1.984091   1.000000
   20       -1.685253   1.000000
   21       -1.486283   1.000000
   22       -1.045177   1.000000
   23       -0.792382   1.000000
   24       -0.490453   1.000000
   25       -0.299528   1.000000
   26        0.053919   1.000000
   27        0.422209   1.000000
   28        0.645204   1.000000
   29        0.794571   1.000000
   30        1.243081   1.000000
   31        1.736853   1.000000
   32        1.891380   1.000000
   33        2.015812   1.000000
   34        2.129670   1.000000
   35        2.371278   1.000000
   36        2.601686   1.000000
   37        2.723353   1.000000
   38        2.899062   1.000000
   39        3.138010   1.000000
   40        3.529990   1.000000
   41        3.586974   1.000000
   42        3.795214   1.000000
   43        3.973047   1.000000
   44        4.152709   1.000000
   45        4.518543   1.000000
   46        4.909473   1.000000
   47        5.063872   1.000000
   48        5.739405   1.000000
   49        6.889648   0.000000
   50        7.207840   0.000000
   51        7.778906   0.000000
   52        7.998571   0.000000
   53        8.863655   0.000000
   54        9.580381   0.000000
   55        9.742276   0.000000
   56       10.121226   0.000000
   57       10.182842   0.000000
   58       10.806844   0.000000
   59       11.079156   0.000000
   60       11.247090   0.000000
   61       11.553859   0.000000
   62       11.634450   0.000000
   63       11.981812   0.000000
   64       12.383140   0.000000
   65       13.066998   0.000000
   66       13.279346   0.000000
   67       13.336278   0.000000
   68       13.529639   0.000000
   69       13.683332   0.000000
   70       13.859496   0.000000
   71       14.021721   0.000000
   72       14.233705   0.000000
 
  0.0000000E+00  0.0000000E+00  0.2000000E+00  0.2777778E-02
    1      -11.635850   1.000000
    2      -10.840094   1.000000
    3      -10.054560   1.000000
    4       -8.927465   1.000000
    5       -8.298202   1.000000
    6       -7.953842   1.000000
    7       -6.852991   1.000000
    8       -5.900368   1.000000
    9       -5.861906   1.000000
   10       -4.983166   1.000000
   11       -4.249444   1.000000
   12       -3.805773   1.000000
   13       -3.395281   1.000000
   14       -3.033283   1.000000
   15       -2.921484   1.000000
   16       -2.676241   1.000000
   17       -2.623974   1.000000
   18       -2.353593   1.000000
   19       -1.705621   1.000000
   20       -1.545430   1.000000
   21       -1.439866   1.000000
   22       -1.104567   1.000000
   23       -0.535551   1.000000
   24       -0.348801   1.000000
   25       -0.232944   1.000000
   26        0.036931   1.000000
   27        0.254444   1.000000
   28        0.409615   1.000000
   29        0.655905   1.000000
   30        1.209759   1.000000
   31        1.640876   1.000000
   32        1.786661   1.000000
   33        1.957050   1.000000
   34        2.150914   1.000000
   35        2.349521   1.000000
   36        2.522573   1.000000
   37        2.760999   1.000000
   38        2.806954   1.000000
   39        3.118619   1.000000
   40        3.336933   1.000000
   41        3.394324   1.000000
   42        3.845108   1.000000
   43        3.951978   1.000000
   44        4.089792   1.000000
   45        4.565903   1.000000
   46        4.877922   1.000000
   47        4.995968   1.000000
   48        5.845101   1.000000
   49        6.945556   0.000000
   50        7.153348   0.000000
   51        7.773924   0.000000
   52        7.970923   0.000000
   53        9.168609   0.000000
   54        9.457571   0.000000
   55        9.626979   0.000000
   56        9.928308   0.000000
   57       10.411992   0.000000
   58       10.585068   0.000000
   59       10.991466   0.000000
   60       11.282876   0.000000
   61       11.701102   0.000000
   62       11.766404   0.000000
   63       12.169525   0.000000
   64       12.460350   0.000000
   65       13.104537   0.000000
   66       13.379340   0.000000
   67       13.544726   0.000000
   68       13.659390   0.000000
   69       13.865347   0.000000
   70       13.979464   0.000000
   71       14.106588   0.000000
   72       14.207134   0.000000
 
  0.1666667E+00  0.6938894E-17  0.2000000E+00  0.2777778E-02
    1      -11.638581   1.000000
    2      -10.835160   1.000000
    3      -10.051812   1.000000
    4       -8.908424   1.000000
    5       -8.382046   1.000000
    6       -7.895007   1.000000
    7       -6.853114   1.000000
    8       -5.924313   1.000000
    9       -5.833970   1.000000
   10       -4.891797   1.000000
   11       -4.461089   1.000000
   12       -3.755694   1.000000
   13       -3.426585   1.000000
   14       -3.008502   1.000000
   15       -2.819016   1.000000
   16       -2.711557   1.000000
   17       -2.493423   1.000000
   18       -2.340151   1.000000
   19       -1.748403   1.000000
   20       -1.522312   1.000000
   21       -1.315546   1.000000
   22       -1.172027   1.000000
   23       -0.647890   1.000000
   24       -0.419409   1.000000
   25       -0.312837   1.000000
   26        0.036930   1.000000
   27        0.125118   1.000000
   28        0.328148   1.000000
   29        0.884415   1.000000
   30        1.277838   1.000000
   31        1.474374   1.000000
   32        1.618810   1.000000
   33        1.896076   1.000000
   34        2.156937   1.000000
   35        2.463917   1.000000
   36        2.745194   1.000000
   37        2.766901   1.000000
   38        3.027874   1.000000
   39        3.198340   1.000000
   40        3.284376   1.000000
   41        3.475935   1.000000
   42        3.764883   1.000000
   43        3.955656   1.000000
   44        4.166352   1.000000
   45        4.517417   1.000000
   46        4.800589   1.000000
   47        4.890604   1.000000
   48        5.789447   1.000000
   49        6.898621   0.000000
   50        7.163866   0.000000
   51        7.661868   0.000000
   52        8.105898   0.000000
   53        9.242626   0.000000
   54        9.499975   0.000000
   55        9.752741   0.000000
   56       10.030018   0.000000
   57       10.308135   0.000000
   58       10.482648   0.000000
   59       10.760576   0.000000
   60       11.215321   0.000000
   61       11.542258   0.000000
   62       11.800014   0.000000
   63       12.194608   0.000000
   64       12.449643   0.000000
   65       13.209987   0.000000
   66       13.402006   0.000000
   67       13.548086   0.000000
   68       13.596807   0.000000
   69       13.768266   0.000000
   70       14.059965   0.000000
   71       14.107230   0.000000
   72       14.272324   0.000000
 
  0.3333333E+00  0.0000000E+00  0.2000000E+00  0.2777778E-02
    1      -11.611566   1.000000
    2      -10.923486   1.000000
    3       -9.972262   1.000000
    4       -8.863383   1.000000
    5       -8.439859   1.000000
    6       -7.902127   1.000000
    7       -6.850238   1.000000
    8       -5.931186   1.000000
    9       -5.812748   1.000000
   10       -4.831804   1.000000
   11       -4.659978   1.000000
   12       -3.708072   1.000000
   13       -3.474339   1.000000
   14       -3.061073   1.000000
   15       -2.841023   1.000000
   16       -2.543070   1.000000
   17       -2.418350   1.000000
   18       -2.130973   1.000000
   19       -1.692348   1.000000
   20       -1.543293   1.000000
   21       -1.439592   1.000000
   22       -1.062919   1.000000
   23       -0.866612   1.000000
   24       -0.600344   1.000000
   25       -0.222397   1.000000
   26       -0.069034   1.000000
   27        0.042820   1.000000
   28        0.458228   1.000000
   29        0.845974   1.000000
   30        1.105829   1.000000
   31        1.487983   1.000000
   32        1.756143   1.000000
   33        2.035084   1.000000
   34        2.314643   1.000000
   35        2.524324   1.000000
   36        2.683896   1.000000
   37        2.896526   1.000000
   38        2.983372   1.000000
   39        3.215705   1.000000
   40        3.275632   1.000000
   41        3.511519   1.000000
   42        3.741349   1.000000
   43        3.868219   1.000000
   44        4.098803   1.000000
   45        4.518504   1.000000
   46        4.627426   1.000000
   47        4.914325   1.000000
   48        5.678516   1.000000
   49        6.888061   0.000000
   50        7.153658   0.000000
   51        7.610835   0.000000
   52        8.222071   0.000000
   53        9.314190   0.000000
   54        9.594765   0.000000
   55       10.007438   0.000000
   56       10.205660   0.000000
   57       10.276779   0.000000
   58       10.324141   0.000000
   59       10.609809   0.000000
   60       11.157838   0.000000
   61       11.381548   0.000000
   62       11.784569   0.000000
   63       12.302269   0.000000
   64       12.517187   0.000000
   65       13.099258   0.000000
   66       13.413630   0.000000
   67       13.501344   0.000000
   68       13.673651   0.000000
   69       13.730808   0.000000
   70       14.062129   0.000000
   71       14.116464   0.000000
   72       14.421690   0.000000
 
  0.5000000E+00  0.0000000E+00  0.2000000E+00  0.2777778E-02
    1      -11.575997   1.000000
    2      -11.011720   1.000000
    3       -9.907537   1.000000
    4       -8.833081   1.000000
    5       -8.429450   1.000000
    6       -7.955034   1.000000
    7       -6.846725   1.000000
    8       -5.911615   1.000000
    9       -5.826348   1.000000
   10       -4.954562   1.000000
   11       -4.577481   1.000000
   12       -3.723706   1.000000
   13       -3.475414   1.000000
   14       -3.082477   1.000000
   15       -2.894303   1.000000
   16       -2.466620   1.000000
   17       -2.361695   1.000000
   18       -2.026878   1.000000
   19       -1.751976   1.000000
   20       -1.581497   1.000000
   21       -1.345383   1.000000
   22       -1.122346   1.000000
   23       -0.836460   1.000000
   24       -0.720177   1.000000
   25       -0.294435   1.000000
   26       -0.131864   1.000000
   27        0.284151   1.000000
   28        0.463193   1.000000
   29        0.771944   1.000000
   30        1.003172   1.000000
   31        1.676969   1.000000
   32        1.983729   1.000000
   33        2.139766   1.000000
   34        2.293572   1.000000
   35        2.518623   1.000000
   36        2.641199   1.000000
   37        2.736806   1.000000
   38        2.878318   1.000000
   39        3.055067   1.000000
   40        3.244902   1.000000
   41        3.570260   1.000000
   42        3.705417   1.000000
   43        3.898450   1.000000
   44        4.164898   1.000000
   45        4.296070   1.000000
   46        4.611037   1.000000
   47        5.053995   1.000000
   48        5.609512   1.000000
   49        6.908964   0.000000
   50        7.145153   0.000000
   51        7.624569   0.000000
   52        8.253608   0.000000
   53        9.299205   0.000000
   54        9.646752   0.000000
   55        9.978420   0.000000
   56       10.168768   0.000000
   57       10.383889   0.000000
   58       10.433576   0.000000
   59       10.774774   0.000000
   60       11.204322   0.000000
   61       11.322697   0.000000
   62       11.785771   0.000000
   63       12.283545   0.000000
   64       12.643957   0.000000
   65       12.943199   0.000000
   66       13.364509   0.000000
   67       13.464951   0.000000
   68       13.708992   0.000000
   69       13.868699   0.000000
   70       14.031047   0.000000
   71       14.114834   0.000000
   72       14.424934   0.000000
 
 -0.3333333E+00  0.0000000E+00  0.2000000E+00  0.2777778E-02
    1      -11.572221   1.000000
    2      -11.017273   1.000000
    3       -9.910910   1.000000
    4       -8.864734   1.000000
    5       -8.318845   1.000000
    6       -8.027264   1.000000
    7       -6.846382   1.000000
    8       -5.900026   1.000000
    9       -5.846536   1.000000
   10       -5.032405   1.000000
   11       -4.415728   1.000000
   12       -3.757195   1.000000
   13       -3.413414   1.000000
   14       -3.162604   1.000000
   15       -2.860064   1.000000
   16       -2.597197   1.000000
   17       -2.437647   1.000000
   18       -2.017901   1.000000
   19       -1.799472   1.000000
   20       -1.496437   1.000000
   21       -1.352149   1.000000
   22       -1.292408   1.000000
   23       -0.667322   1.000000
   24       -0.507097   1.000000
   25       -0.383655   1.000000
   26       -0.096227   1.000000
   27        0.261138   1.000000
   28        0.610636   1.000000
   29        0.831953   1.000000
   30        1.119056   1.000000
   31        1.611468   1.000000
   32        1.899959   1.000000
   33        2.070689   1.000000
   34        2.203323   1.000000
   35        2.489991   1.000000
   36        2.600393   1.000000
   37        2.673106   1.000000
   38        2.857824   1.000000
   39        3.119715   1.000000
   40        3.205272   1.000000
   41        3.481354   1.000000
   42        3.686787   1.000000
   43        3.879064   1.000000
   44        4.160614   1.000000
   45        4.254595   1.000000
   46        4.704278   1.000000
   47        5.142509   1.000000
   48        5.687425   1.000000
   49        6.968627   0.000000
   50        7.112489   0.000000
   51        7.682352   0.000000
   52        8.190977   0.000000
   53        9.230805   0.000000
   54        9.630073   0.000000
   55        9.779251   0.000000
   56       10.023643   0.000000
   57       10.449052   0.000000
   58       10.655323   0.000000
   59       11.040261   0.000000
   60       11.177626   0.000000
   61       11.508619   0.000000
   62       11.771231   0.000000
   63       12.266620   0.000000
   64       12.607363   0.000000
   65       12.883014   0.000000
   66       13.340842   0.000000
   67       13.556792   0.000000
   68       13.700254   0.000000
   69       13.851006   0.000000
   70       14.053167   0.000000
   71       14.134477   0.000000
   72       14.389852   0.000000
 
 -0.1666667E+00  0.0000000E+00  0.2000000E+00  0.2777778E-02
    1      -11.605281   1.000000
    2      -10.933662   1.000000
    3       -9.978498   1.000000
    4       -8.911089   1.000000
    5       -8.234173   1.000000
    6       -8.047373   1.000000
    7       -6.849825   1.000000
    8       -5.904350   1.000000
    9       -5.851986   1.000000
   10       -5.036467   1.000000
   11       -4.261928   1.000000
   12       -3.780271   1.000000
   13       -3.363631   1.000000
   14       -3.190358   1.000000
   15       -2.882318   1.000000
   16       -2.687242   1.000000
   17       -2.561788   1.000000
   18       -2.156624   1.000000
   19       -1.771383   1.000000
   20       -1.560448   1.000000
   21       -1.445449   1.000000
   22       -1.070432   1.000000
   23       -0.726401   1.000000
   24       -0.313640   1.000000
   25       -0.154611   1.000000
   26       -0.040636   1.000000
   27        0.256931   1.000000
   28        0.400583   1.000000
   29        0.922037   1.000000
   30        1.118730   1.000000
   31        1.647805   1.000000
   32        1.856283   1.000000
   33        1.936591   1.000000
   34        2.130053   1.000000
   35        2.395241   1.000000
   36        2.511428   1.000000
   37        2.725428   1.000000
   38        2.837851   1.000000
   39        3.103043   1.000000
   40        3.344575   1.000000
   41        3.406593   1.000000
   42        3.723389   1.000000
   43        3.852209   1.000000
   44        4.015858   1.000000
   45        4.487590   1.000000
   46        4.850757   1.000000
   47        5.113132   1.000000
   48        5.803748   1.000000
   49        7.009176   0.000000
   50        7.095703   0.000000
   51        7.761474   0.000000
   52        8.044719   0.000000
   53        9.169869   0.000000
   54        9.526655   0.000000
   55        9.651886   0.000000
   56        9.926310   0.000000
   57       10.474253   0.000000
   58       10.674119   0.000000
   59       11.129410   0.000000
   60       11.269458   0.000000
   61       11.554914   0.000000
   62       11.822332   0.000000
   63       12.256491   0.000000
   64       12.536897   0.000000
   65       12.909381   0.000000
   66       13.390992   0.000000
   67       13.567064   0.000000
   68       13.684267   0.000000
   69       13.799115   0.000000
   70       14.073647   0.000000
   71       14.153688   0.000000
   72       14.256237   0.000000
 
  0.0000000E+00  0.8333333E-01  0.2000000E+00  0.2777778E-02
    1      -11.660142   1.000000
    2      -10.862480   1.000000
    3      -10.012242   1.000000
    4       -8.885050   1.000000
    5       -8.125037   1.000000
    6       -7.968139   1.000000
    7       -7.004704   1.000000
    8       -5.973233   1.000000
    9       -5.838679   1.000000
   10       -4.896081   1.000000
   11       -4.200799   1.000000
   12       -3.992797   1.000000
   13       -3.472934   1.000000
   14       -3.194452   1.000000
   15       -2.891702   1.000000
   16       -2.665812   1.000000
   17       -2.566678   1.000000
   18       -2.317044   1.000000
   19       -1.687791   1.000000
   20       -1.550645   1.000000
   21       -1.284409   1.000000
   22       -1.167228   1.000000
   23       -0.863717   1.000000
   24       -0.323757   1.000000
   25       -0.115307   1.000000
   26       -0.069053   1.000000
   27        0.029315   1.000000
   28        0.218653   1.000000
   29        0.577062   1.000000
   30        1.343362   1.000000
   31        1.654011   1.000000
   32        1.903494   1.000000
   33        2.155801   1.000000
   34        2.280701   1.000000
   35        2.418456   1.000000
   36        2.656361   1.000000
   37        2.819515   1.000000
   38        3.038792   1.000000
   39        3.198027   1.000000
   40        3.430654   1.000000
   41        3.488160   1.000000
   42        3.941049   1.000000
   43        4.025534   1.000000
   44        4.291568   1.000000
   45        4.493715   1.000000
   46        4.700051   1.000000
   47        4.947785   1.000000
   48        5.743059   1.000000
   49        6.966419   0.000000
   50        7.129917   0.000000
   51        7.639957   0.000000
   52        8.104905   0.000000
   53        9.244497   0.000000
   54        9.574043   0.000000
   55        9.726044   0.000000
   56       10.020497   0.000000
   57       10.428845   0.000000
   58       10.608114   0.000000
   59       10.914672   0.000000
   60       11.172863   0.000000
   61       11.469672   0.000000
   62       11.661403   0.000000
   63       12.212989   0.000000
   64       12.298685   0.000000
   65       12.858073   0.000000
   66       13.307728   0.000000
   67       13.416215   0.000000
   68       13.649886   0.000000
   69       13.761080   0.000000
   70       13.924313   0.000000
   71       14.058595   0.000000
   72       14.143675   0.000000
 
  0.1666667E+00  0.8333333E-01  0.2000000E+00  0.2777778E-02
    1      -11.670512   1.000000
    2      -10.830790   1.000000
    3      -10.030225   1.000000
    4       -8.886596   1.000000
    5       -8.232323   1.000000
    6       -7.869460   1.000000
    7       -7.002886   1.000000
    8       -5.976537   1.000000
    9       -5.818020   1.000000
   10       -4.788249   1.000000
   11       -4.388595   1.000000
   12       -3.920304   1.000000
   13       -3.517768   1.000000
   14       -3.156219   1.000000
   15       -2.876204   1.000000
   16       -2.757685   1.000000
   17       -2.697058   1.000000
   18       -2.118688   1.000000
   19       -1.645088   1.000000
   20       -1.542456   1.000000
   21       -1.231427   1.000000
   22       -1.090493   1.000000
   23       -0.654551   1.000000
   24       -0.389442   1.000000
   25       -0.325884   1.000000
   26       -0.152219   1.000000
   27        0.030647   1.000000
   28        0.183077   1.000000
   29        0.496835   1.000000
   30        1.313296   1.000000
   31        1.539378   1.000000
   32        1.672391   1.000000
   33        1.996753   1.000000
   34        2.354987   1.000000
   35        2.623102   1.000000
   36        2.810565   1.000000
   37        2.922188   1.000000
   38        3.128397   1.000000
   39        3.307619   1.000000
   40        3.468496   1.000000
   41        3.690736   1.000000
   42        3.837142   1.000000
   43        4.146085   1.000000
   44        4.291708   1.000000
   45        4.368293   1.000000
   46        4.655596   1.000000
   47        4.856251   1.000000
   48        5.690014   1.000000
   49        6.920868   0.000000
   50        7.158198   0.000000
   51        7.568880   0.000000
   52        8.209132   0.000000
   53        9.296608   0.000000
   54        9.581559   0.000000
   55        9.773320   0.000000
   56       10.103342   0.000000
   57       10.324134   0.000000
   58       10.531371   0.000000
   59       10.705361   0.000000
   60       11.132265   0.000000
   61       11.398686   0.000000
   62       11.807719   0.000000
   63       12.115071   0.000000
   64       12.251308   0.000000
   65       12.977606   0.000000
   66       13.192438   0.000000
   67       13.285797   0.000000
   68       13.464276   0.000000
   69       13.716604   0.000000
   70       13.920078   0.000000
   71       14.058448   0.000000
   72       14.176963   0.000000
 
  0.3333333E+00  0.8333333E-01  0.2000000E+00  0.2777778E-02
    1      -11.649736   1.000000
    2      -10.908059   1.000000
    3       -9.940090   1.000000
    4       -8.876320   1.000000
    5       -8.335089   1.000000
    6       -7.813251   1.000000
    7       -6.991630   1.000000
    8       -5.979492   1.000000
    9       -5.798279   1.000000
   10       -4.704333   1.000000
   11       -4.631229   1.000000
   12       -3.876441   1.000000
   13       -3.533525   1.000000
   14       -3.073467   1.000000
   15       -2.852903   1.000000
   16       -2.761677   1.000000
   17       -2.668417   1.000000
   18       -1.945862   1.000000
   19       -1.621157   1.000000
   20       -1.498647   1.000000
   21       -1.383112   1.000000
   22       -1.144508   1.000000
   23       -0.735844   1.000000
   24       -0.537182   1.000000
   25       -0.470248   1.000000
   26       -0.198519   1.000000
   27        0.119810   1.000000
   28        0.430798   1.000000
   29        0.750159   1.000000
   30        1.097244   1.000000
   31        1.518038   1.000000
   32        1.609946   1.000000
   33        1.953469   1.000000
   34        2.457374   1.000000
   35        2.670595   1.000000
   36        2.857250   1.000000
   37        3.004133   1.000000
   38        3.207482   1.000000
   39        3.285522   1.000000
   40        3.445012   1.000000
   41        3.688065   1.000000
   42        3.833993   1.000000
   43        4.025667   1.000000
   44        4.250023   1.000000
   45        4.390947   1.000000
   46        4.612868   1.000000
   47        4.821886   1.000000
   48        5.547957   1.000000
   49        6.910409   0.000000
   50        7.172967   0.000000
   51        7.601846   0.000000
   52        8.233483   0.000000
   53        9.368049   0.000000
   54        9.695392   0.000000
   55        9.986422   0.000000
   56       10.115083   0.000000
   57       10.347077   0.000000
   58       10.450936   0.000000
   59       10.624679   0.000000
   60       11.078848   0.000000
   61       11.307653   0.000000
   62       11.894047   0.000000
   63       12.076492   0.000000
   64       12.252148   0.000000
   65       12.983409   0.000000
   66       13.089321   0.000000
   67       13.281225   0.000000
   68       13.393720   0.000000
   69       13.662921   0.000000
   70       13.892144   0.000000
   71       14.036549   0.000000
   72       14.214463   0.000000
 
  0.5000000E+00  0.8333333E-01  0.2000000E+00  0.2777778E-02
    1      -11.613074   1.000000
    2      -11.007463   1.000000
    3       -9.846099   1.000000
    4       -8.857205   1.000000
    5       -8.382977   1.000000
    6       -7.811299   1.000000
    7       -6.981431   1.000000
    8       -5.979070   1.000000
    9       -5.799718   1.000000
   10       -4.889455   1.000000
   11       -4.537007   1.000000
   12       -3.920666   1.000000
   13       -3.501960   1.000000
   14       -3.001723   1.000000
   15       -2.865380   1.000000
   16       -2.624052   1.000000
   17       -2.475164   1.000000
   18       -2.023533   1.000000
   19       -1.751066   1.000000
   20       -1.600642   1.000000
   21       -1.516793   1.000000
   22       -1.097488   1.000000
   23       -0.886881   1.000000
   24       -0.725282   1.000000
   25       -0.383276   1.000000
   26       -0.082496   1.000000
   27        0.275287   1.000000
   28        0.629042   1.000000
   29        0.806606   1.000000
   30        0.954944   1.000000
   31        1.637722   1.000000
   32        1.939428   1.000000
   33        2.186079   1.000000
   34        2.420027   1.000000
   35        2.525317   1.000000
   36        2.720734   1.000000
   37        2.808506   1.000000
   38        2.971863   1.000000
   39        3.237288   1.000000
   40        3.288876   1.000000
   41        3.560434   1.000000
   42        3.990337   1.000000
   43        4.127323   1.000000
   44        4.207691   1.000000
   45        4.460338   1.000000
   46        4.528832   1.000000
   47        4.886627   1.000000
   48        5.437593   1.000000
   49        6.930890   0.000000
   50        7.165159   0.000000
   51        7.686930   0.000000
   52        8.177476   0.000000
   53        9.371263   0.000000
   54        9.806323   0.000000
   55       10.006439   0.000000
   56       10.205926   0.000000
   57       10.361106   0.000000
   58       10.534996   0.000000
   59       10.749779   0.000000
   60       11.118739   0.000000
   61       11.255327   0.000000
   62       11.849001   0.000000
   63       12.024619   0.000000
   64       12.412395   0.000000
   65       12.881949   0.000000
   66       13.068473   0.000000
   67       13.385553   0.000000
   68       13.434398   0.000000
   69       13.624296   0.000000
   70       13.877899   0.000000
   71       14.059820   0.000000
   72       14.260467   0.000000
 
 -0.3333333E+00  0.8333333E-01  0.2000000E+00  0.2777778E-02
    1      -11.598794   1.000000
    2      -11.036724   1.000000
    3       -9.836022   1.000000
    4       -8.855084   1.000000
    5       -8.324181   1.000000
    6       -7.860157   1.000000
    7       -6.983306   1.000000
    8       -5.975235   1.000000
    9       -5.824277   1.000000
   10       -4.979735   1.000000
   11       -4.410840   1.000000
   12       -3.956554   1.000000
   13       -3.476638   1.000000
   14       -2.988641   1.000000
   15       -2.888781   1.000000
   16       -2.542925   1.000000
   17       -2.269139   1.000000
   18       -2.063913   1.000000
   19       -1.952840   1.000000
   20       -1.753801   1.000000
   21       -1.578043   1.000000
   22       -1.223812   1.000000
   23       -0.941905   1.000000
   24       -0.651511   1.000000
   25       -0.234950   1.000000
   26       -0.000638   1.000000
   27        0.322534   1.000000
   28        0.669633   1.000000
   29        0.897839   1.000000
   30        1.106265   1.000000
   31        1.787466   1.000000
   32        2.020891   1.000000
   33        2.138384   1.000000
   34        2.253133   1.000000
   35        2.485769   1.000000
   36        2.575909   1.000000
   37        2.772863   1.000000
   38        2.904508   1.000000
   39        3.183015   1.000000
   40        3.296626   1.000000
   41        3.369621   1.000000
   42        3.997003   1.000000
   43        4.088621   1.000000
   44        4.205360   1.000000
   45        4.393707   1.000000
   46        4.666470   1.000000
   47        4.941882   1.000000
   48        5.514736   1.000000
   49        6.976304   0.000000
   50        7.120976   0.000000
   51        7.801675   0.000000
   52        8.059816   0.000000
   53        9.342435   0.000000
   54        9.771622   0.000000
   55        9.899313   0.000000
   56       10.127107   0.000000
   57       10.449304   0.000000
   58       10.659686   0.000000
   59       10.973415   0.000000
   60       11.162196   0.000000
   61       11.353516   0.000000
   62       11.670602   0.000000
   63       12.063482   0.000000
   64       12.477530   0.000000
   65       12.821361   0.000000
   66       13.197468   0.000000
   67       13.449316   0.000000
   68       13.596132   0.000000
   69       13.680974   0.000000
   70       13.866691   0.000000
   71       14.050790   0.000000
   72       14.343201   0.000000
 
 -0.1666667E+00  0.8333333E-01  0.2000000E+00  0.2777778E-02
    1      -11.625865   1.000000
    2      -10.966776   1.000000
    3       -9.913357   1.000000
    4       -8.872437   1.000000
    5       -8.182497   1.000000
    6       -7.947701   1.000000
    7       -6.995379   1.000000
    8       -5.972298   1.000000
    9       -5.843331   1.000000
   10       -4.968989   1.000000
   11       -4.276747   1.000000
   12       -3.965838   1.000000
   13       -3.462753   1.000000
   14       -3.097492   1.000000
   15       -2.866475   1.000000
   16       -2.654831   1.000000
   17       -2.372177   1.000000
   18       -2.207211   1.000000
   19       -1.817510   1.000000
   20       -1.609253   1.000000
   21       -1.487614   1.000000
   22       -1.280166   1.000000
   23       -1.020433   1.000000
   24       -0.439324   1.000000
   25       -0.239922   1.000000
   26        0.044292   1.000000
   27        0.248382   1.000000
   28        0.509454   1.000000
   29        0.900181   1.000000
   30        1.314806   1.000000
   31        1.674344   1.000000
   32        1.874926   1.000000
   33        2.001558   1.000000
   34        2.367891   1.000000
   35        2.446739   1.000000
   36        2.632739   1.000000
   37        2.727377   1.000000
   38        2.982062   1.000000
   39        3.229649   1.000000
   40        3.384279   1.000000
   41        3.422273   1.000000
   42        3.740104   1.000000
   43        4.035052   1.000000
   44        4.189904   1.000000
   45        4.537086   1.000000
   46        4.704062   1.000000
   47        4.993583   1.000000
   48        5.667710   1.000000
   49        7.016877   0.000000
   50        7.081412   0.000000
   51        7.817829   0.000000
   52        7.984580   0.000000
   53        9.282599   0.000000
   54        9.651566   0.000000
   55        9.815551   0.000000
   56       10.016940   0.000000
   57       10.465710   0.000000
   58       10.683746   0.000000
   59       11.104767   0.000000
   60       11.144473   0.000000
   61       11.479113   0.000000
   62       11.544588   0.000000
   63       12.165947   0.000000
   64       12.419633   0.000000
   65       12.792120   0.000000
   66       13.364444   0.000000
   67       13.453633   0.000000
   68       13.665430   0.000000
   69       13.784318   0.000000
   70       13.935820   0.000000
   71       14.060595   0.000000
   72       14.220168   0.000000
 
  0.0000000E+00  0.1666667E+00  0.2000000E+00  0.2777778E-02
    1      -11.634518   1.000000
    2      -10.859585   1.000000
    3       -9.974839   1.000000
    4       -8.858244   1.000000
    5       -8.118696   1.000000
    6       -7.967534   1.000000
    7       -7.066960   1.000000
    8       -6.037677   1.000000
    9       -5.889004   1.000000
   10       -4.946742   1.000000
   11       -4.349750   1.000000
   12       -4.070240   1.000000
   13       -3.642798   1.000000
   14       -3.355969   1.000000
   15       -2.856456   1.000000
   16       -2.542176   1.000000
   17       -2.308757   1.000000
   18       -2.066863   1.000000
   19       -1.835935   1.000000
   20       -1.583041   1.000000
   21       -1.331737   1.000000
   22       -1.192109   1.000000
   23       -0.944185   1.000000
   24       -0.503117   1.000000
   25       -0.176939   1.000000
   26       -0.061985   1.000000
   27        0.081295   1.000000
   28        0.419908   1.000000
   29        0.728400   1.000000
   30        1.576368   1.000000
   31        1.652839   1.000000
   32        2.091184   1.000000
   33        2.346414   1.000000
   34        2.396857   1.000000
   35        2.474615   1.000000
   36        2.635624   1.000000
   37        2.921462   1.000000
   38        3.058472   1.000000
   39        3.235102   1.000000
   40        3.421560   1.000000
   41        3.711210   1.000000
   42        3.816426   1.000000
   43        4.009873   1.000000
   44        4.382024   1.000000
   45        4.465868   1.000000
   46        4.670992   1.000000
   47        4.878745   1.000000
   48        5.556976   1.000000
   49        6.918912   0.000000
   50        7.081240   0.000000
   51        7.549851   0.000000
   52        8.212630   0.000000
   53        9.243234   0.000000
   54        9.649478   0.000000
   55        9.904294   0.000000
   56        9.985322   0.000000
   57       10.488904   0.000000
   58       10.622443   0.000000
   59       10.843199   0.000000
   60       10.985290   0.000000
   61       11.204522   0.000000
   62       11.586075   0.000000
   63       12.058155   0.000000
   64       12.216422   0.000000
   65       12.608712   0.000000
   66       13.200133   0.000000
   67       13.340399   0.000000
   68       13.510566   0.000000
   69       13.672663   0.000000
   70       13.842029   0.000000
   71       14.018777   0.000000
   72       14.245684   0.000000
 
  0.1666667E+00  0.1666667E+00  0.2000000E+00  0.2777778E-02
    1      -11.650904   1.000000
    2      -10.807953   1.000000
    3      -10.008783   1.000000
    4       -8.881291   1.000000
    5       -8.157129   1.000000
    6       -7.919696   1.000000
    7       -7.065507   1.000000
    8       -6.028004   1.000000
    9       -5.884123   1.000000
   10       -4.866766   1.000000
   11       -4.363177   1.000000
   12       -4.141589   1.000000
   13       -3.670744   1.000000
   14       -3.188101   1.000000
   15       -2.985367   1.000000
   16       -2.692767   1.000000
   17       -2.494871   1.000000
   18       -1.863140   1.000000
   19       -1.648050   1.000000
   20       -1.503019   1.000000
   21       -1.238243   1.000000
   22       -1.114261   1.000000
   23       -1.039162   1.000000
   24       -0.401583   1.000000
   25       -0.242372   1.000000
   26       -0.149717   1.000000
   27       -0.092523   1.000000
   28        0.452490   1.000000
   29        0.546674   1.000000
   30        1.478209   1.000000
   31        1.551247   1.000000
   32        1.900533   1.000000
   33        2.269871   1.000000
   34        2.487781   1.000000
   35        2.678789   1.000000
   36        2.792652   1.000000
   37        2.988710   1.000000
   38        3.134575   1.000000
   39        3.287202   1.000000
   40        3.543926   1.000000
   41        3.720143   1.000000
   42        3.995538   1.000000
   43        4.117530   1.000000
   44        4.221217   1.000000
   45        4.482979   1.000000
   46        4.599920   1.000000
   47        4.794976   1.000000
   48        5.486665   1.000000
   49        6.873831   0.000000
   50        7.127572   0.000000
   51        7.554670   0.000000
   52        8.236124   0.000000
   53        9.266202   0.000000
   54        9.593761   0.000000
   55        9.875876   0.000000
   56       10.040838   0.000000
   57       10.442477   0.000000
   58       10.585659   0.000000
   59       10.747958   0.000000
   60       10.905592   0.000000
   61       11.213182   0.000000
   62       11.707149   0.000000
   63       12.010552   0.000000
   64       12.167686   0.000000
   65       12.595471   0.000000
   66       13.086524   0.000000
   67       13.133450   0.000000
   68       13.345727   0.000000
   69       13.608580   0.000000
   70       13.822685   0.000000
   71       13.896848   0.000000
   72       14.289649   0.000000
 
  0.3333333E+00  0.1666667E+00  0.2000000E+00  0.2777778E-02
    1      -11.637431   1.000000
    2      -10.865718   1.000000
    3       -9.923328   1.000000
    4       -8.905110   1.000000
    5       -8.271142   1.000000
    6       -7.836420   1.000000
    7       -7.053739   1.000000
    8       -5.993263   1.000000
    9       -5.878558   1.000000
   10       -4.789059   1.000000
   11       -4.485824   1.000000
   12       -4.217031   1.000000
   13       -3.644338   1.000000
   14       -3.120696   1.000000
   15       -3.001891   1.000000
   16       -2.788794   1.000000
   17       -2.492096   1.000000
   18       -1.886673   1.000000
   19       -1.687127   1.000000
   20       -1.372261   1.000000
   21       -1.268275   1.000000
   22       -1.020715   1.000000
   23       -0.867560   1.000000
   24       -0.480135   1.000000
   25       -0.329691   1.000000
   26       -0.179645   1.000000
   27       -0.099250   1.000000
   28        0.531973   1.000000
   29        0.800547   1.000000
   30        1.303821   1.000000
   31        1.434022   1.000000
   32        1.649566   1.000000
   33        2.080763   1.000000
   34        2.558410   1.000000
   35        2.655763   1.000000
   36        2.897057   1.000000
   37        3.139293   1.000000
   38        3.261327   1.000000
   39        3.422077   1.000000
   40        3.613821   1.000000
   41        3.698927   1.000000
   42        3.859153   1.000000
   43        4.104400   1.000000
   44        4.306909   1.000000
   45        4.463038   1.000000
   46        4.593925   1.000000
   47        4.707134   1.000000
   48        5.328960   1.000000
   49        6.867755   0.000000
   50        7.175414   0.000000
   51        7.657445   0.000000
   52        8.152446   0.000000
   53        9.364692   0.000000
   54        9.639456   0.000000
   55        9.896241   0.000000
   56       10.152809   0.000000
   57       10.385656   0.000000
   58       10.611219   0.000000
   59       10.711094   0.000000
   60       10.878984   0.000000
   61       11.201488   0.000000
   62       11.809226   0.000000
   63       11.922982   0.000000
   64       12.133015   0.000000
   65       12.583704   0.000000
   66       12.960416   0.000000
   67       13.088781   0.000000
   68       13.189565   0.000000
   69       13.630016   0.000000
   70       13.748255   0.000000
   71       13.839034   0.000000
   72       14.276071   0.000000
 
  0.5000000E+00  0.1666667E+00  0.2000000E+00  0.2777778E-02
    1      -11.603652   1.000000
    2      -10.964521   1.000000
    3       -9.814026   1.000000
    4       -8.905811   1.000000
    5       -8.352266   1.000000
    6       -7.799835   1.000000
    7       -7.042436   1.000000
    8       -5.964150   1.000000
    9       -5.880100   1.000000
   10       -4.837934   1.000000
   11       -4.541816   1.000000
   12       -4.231352   1.000000
   13       -3.622420   1.000000
   14       -3.072071   1.000000
   15       -3.021330   1.000000
   16       -2.741165   1.000000
   17       -2.360974   1.000000
   18       -2.097085   1.000000
   19       -1.838684   1.000000
   20       -1.400798   1.000000
   21       -1.241173   1.000000
   22       -0.965012   1.000000
   23       -0.757067   1.000000
   24       -0.543726   1.000000
   25       -0.334399   1.000000
   26       -0.138557   1.000000
   27        0.132037   1.000000
   28        0.557011   1.000000
   29        0.934091   1.000000
   30        1.120172   1.000000
   31        1.602914   1.000000
   32        1.779700   1.000000
   33        2.011495   1.000000
   34        2.373323   1.000000
   35        2.655563   1.000000
   36        2.850047   1.000000
   37        3.016349   1.000000
   38        3.159327   1.000000
   39        3.304037   1.000000
   40        3.540603   1.000000
   41        3.617265   1.000000
   42        3.941441   1.000000
   43        4.282113   1.000000
   44        4.324994   1.000000
   45        4.510925   1.000000
   46        4.571568   1.000000
   47        4.711021   1.000000
   48        5.207614   1.000000
   49        6.904082   0.000000
   50        7.173728   0.000000
   51        7.787996   0.000000
   52        8.018731   0.000000
   53        9.384123   0.000000
   54        9.774542   0.000000
   55        9.931098   0.000000
   56       10.218829   0.000000
   57       10.380812   0.000000
   58       10.650129   0.000000
   59       10.804329   0.000000
   60       10.988703   0.000000
   61       11.162867   0.000000
   62       11.725533   0.000000
   63       11.836628   0.000000
   64       12.249191   0.000000
   65       12.622469   0.000000
   66       12.984093   0.000000
   67       13.099715   0.000000
   68       13.221483   0.000000
   69       13.493893   0.000000
   70       13.831424   0.000000
   71       13.938503   0.000000
   72       14.171390   0.000000
 
 -0.3333333E+00  0.1666667E+00  0.2000000E+00  0.2777778E-02
    1      -11.582165   1.000000
    2      -11.011326   1.000000
    3       -9.791893   1.000000
    4       -8.873303   1.000000
    5       -8.354073   1.000000
    6       -7.814866   1.000000
    7       -7.043005   1.000000
    8       -5.978190   1.000000
    9       -5.880908   1.000000
   10       -4.949114   1.000000
   11       -4.472739   1.000000
   12       -4.198894   1.000000
   13       -3.636685   1.000000
   14       -3.182161   1.000000
   15       -2.828078   1.000000
   16       -2.640088   1.000000
   17       -2.328601   1.000000
   18       -2.106210   1.000000
   19       -1.874138   1.000000
   20       -1.577231   1.000000
   21       -1.412610   1.000000
   22       -1.169641   1.000000
   23       -0.716161   1.000000
   24       -0.639244   1.000000
   25       -0.105733   1.000000
   26        0.148147   1.000000
   27        0.360103   1.000000
   28        0.607450   1.000000
   29        0.692347   1.000000
   30        1.136686   1.000000
   31        1.757173   1.000000
   32        1.999118   1.000000
   33        2.143529   1.000000
   34        2.269442   1.000000
   35        2.473798   1.000000
   36        2.706102   1.000000
   37        2.834081   1.000000
   38        3.154226   1.000000
   39        3.252159   1.000000
   40        3.421847   1.000000
   41        3.559554   1.000000
   42        3.972879   1.000000
   43        4.212220   1.000000
   44        4.359912   1.000000
   45        4.406667   1.000000
   46        4.567270   1.000000
   47        4.894381   1.000000
   48        5.284292   1.000000
   49        6.960864   0.000000
   50        7.110561   0.000000
   51        7.851848   0.000000
   52        7.948414   0.000000
   53        9.382084   0.000000
   54        9.800194   0.000000
   55        9.893874   0.000000
   56       10.173426   0.000000
   57       10.486225   0.000000
   58       10.732848   0.000000
   59       10.856915   0.000000
   60       11.098514   0.000000
   61       11.169269   0.000000
   62       11.513356   0.000000
   63       11.843120   0.000000
   64       12.398887   0.000000
   65       12.710554   0.000000
   66       13.072725   0.000000
   67       13.212822   0.000000
   68       13.295072   0.000000
   69       13.602585   0.000000
   70       13.818637   0.000000
   71       14.049575   0.000000
   72       14.214395   0.000000
 
 -0.1666667E+00  0.1666667E+00  0.2000000E+00  0.2777778E-02
    1      -11.600327   1.000000
    2      -10.961338   1.000000
    3       -9.868970   1.000000
    4       -8.850902   1.000000
    5       -8.252524   1.000000
    6       -7.880271   1.000000
    7       -7.055779   1.000000
    8       -6.015614   1.000000
    9       -5.885690   1.000000
   10       -4.983217   1.000000
   11       -4.398288   1.000000
   12       -4.113729   1.000000
   13       -3.638835   1.000000
   14       -3.346887   1.000000
   15       -2.687414   1.000000
   16       -2.546382   1.000000
   17       -2.331944   1.000000
   18       -2.008611   1.000000
   19       -1.936235   1.000000
   20       -1.622644   1.000000
   21       -1.556321   1.000000
   22       -1.205672   1.000000
   23       -0.873714   1.000000
   24       -0.615314   1.000000
   25        0.007157   1.000000
   26        0.081055   1.000000
   27        0.291167   1.000000
   28        0.572650   1.000000
   29        0.869575   1.000000
   30        1.200391   1.000000
   31        1.786241   1.000000
   32        1.999891   1.000000
   33        2.109384   1.000000
   34        2.396712   1.000000
   35        2.538527   1.000000
   36        2.740155   1.000000
   37        2.847715   1.000000
   38        2.986335   1.000000
   39        3.211677   1.000000
   40        3.416644   1.000000
   41        3.611709   1.000000
   42        3.833937   1.000000
   43        4.079586   1.000000
   44        4.299978   1.000000
   45        4.503692   1.000000
   46        4.569440   1.000000
   47        4.960334   1.000000
   48        5.476098   1.000000
   49        6.984797   0.000000
   50        7.048845   0.000000
   51        7.682734   0.000000
   52        8.094110   0.000000
   53        9.323852   0.000000
   54        9.719120   0.000000
   55        9.921014   0.000000
   56       10.071738   0.000000
   57       10.467362   0.000000
   58       10.716741   0.000000
   59       10.917325   0.000000
   60       11.052659   0.000000
   61       11.195600   0.000000
   62       11.495490   0.000000
   63       11.920838   0.000000
   64       12.373240   0.000000
   65       12.669108   0.000000
   66       13.224464   0.000000
   67       13.346305   0.000000
   68       13.460040   0.000000
   69       13.633901   0.000000
   70       13.957849   0.000000
   71       14.077921   0.000000
   72       14.286645   0.000000
 
  0.0000000E+00  0.2500000E+00  0.2000000E+00  0.2777778E-02
    1      -11.563188   1.000000
    2      -10.830255   1.000000
    3       -9.948722   1.000000
    4       -8.891597   1.000000
    5       -8.248678   1.000000
    6       -7.974396   1.000000
    7       -7.021252   1.000000
    8       -6.089436   1.000000
    9       -5.962456   1.000000
   10       -5.040292   1.000000
   11       -4.633264   1.000000
   12       -4.109559   1.000000
   13       -3.750294   1.000000
   14       -3.339852   1.000000
   15       -2.822706   1.000000
   16       -2.513517   1.000000
   17       -2.306575   1.000000
   18       -2.136062   1.000000
   19       -1.790904   1.000000
   20       -1.560016   1.000000
   21       -1.226173   1.000000
   22       -1.014030   1.000000
   23       -0.820835   1.000000
   24       -0.738125   1.000000
   25       -0.040696   1.000000
   26        0.165384   1.000000
   27        0.323867   1.000000
   28        0.713819   1.000000
   29        0.884654   1.000000
   30        1.486570   1.000000
   31        1.881038   1.000000
   32        2.003728   1.000000
   33        2.357932   1.000000
   34        2.480129   1.000000
   35        2.667015   1.000000
   36        2.728717   1.000000
   37        2.877617   1.000000
   38        3.033600   1.000000
   39        3.181565   1.000000
   40        3.395796   1.000000
   41        3.572468   1.000000
   42        3.734550   1.000000
   43        4.119520   1.000000
   44        4.273108   1.000000
   45        4.405724   1.000000
   46        4.598123   1.000000
   47        5.045704   1.000000
   48        5.331650   1.000000
   49        6.852927   0.000000
   50        7.041409   0.000000
   51        7.588673   0.000000
   52        8.222327   0.000000
   53        9.188703   0.000000
   54        9.666514   0.000000
   55        9.866943   0.000000
   56       10.041414   0.000000
   57       10.455074   0.000000
   58       10.554122   0.000000
   59       10.680498   0.000000
   60       10.837761   0.000000
   61       11.167391   0.000000
   62       11.534448   0.000000
   63       11.778504   0.000000
   64       12.184562   0.000000
   65       12.579725   0.000000
   66       13.023567   0.000000
   67       13.302523   0.000000
   68       13.461009   0.000000
   69       13.536306   0.000000
   70       13.842099   0.000000
   71       14.006487   0.000000
   72       14.209777   0.000000
 
  0.1666667E+00  0.2500000E+00  0.2000000E+00  0.2777778E-02
    1      -11.582791   1.000000
    2      -10.771845   1.000000
    3       -9.984746   1.000000
    4       -8.926716   1.000000
    5       -8.227628   1.000000
    6       -7.974055   1.000000
    7       -7.007863   1.000000
    8       -6.117121   1.000000
    9       -5.964466   1.000000
   10       -4.979469   1.000000
   11       -4.684670   1.000000
   12       -4.150603   1.000000
   13       -3.682029   1.000000
   14       -3.130813   1.000000
   15       -2.938099   1.000000
   16       -2.591226   1.000000
   17       -2.254794   1.000000
   18       -2.050292   1.000000
   19       -1.847187   1.000000
   20       -1.513622   1.000000
   21       -1.371184   1.000000
   22       -1.058534   1.000000
   23       -0.753358   1.000000
   24       -0.617103   1.000000
   25       -0.262377   1.000000
   26        0.004614   1.000000
   27        0.230663   1.000000
   28        0.759763   1.000000
   29        0.934688   1.000000
   30        1.467240   1.000000
   31        1.767001   1.000000
   32        2.187573   1.000000
   33        2.328737   1.000000
   34        2.513072   1.000000
   35        2.696162   1.000000
   36        2.792439   1.000000
   37        2.980632   1.000000
   38        3.086474   1.000000
   39        3.213203   1.000000
   40        3.432392   1.000000
   41        3.572410   1.000000
   42        3.922691   1.000000
   43        4.111783   1.000000
   44        4.273450   1.000000
   45        4.408482   1.000000
   46        4.551223   1.000000
   47        4.936079   1.000000
   48        5.215588   1.000000
   49        6.794521  -0.002104
   50        7.085883   0.000000
   51        7.660206   0.000000
   52        8.182060   0.000000
   53        9.183335   0.000000
   54        9.600276   0.000000
   55        9.825574   0.000000
   56       10.052928   0.000000
   57       10.415919   0.000000
   58       10.576716   0.000000
   59       10.734540   0.000000
   60       10.792882   0.000000
   61       11.137201   0.000000
   62       11.596887   0.000000
   63       11.814448   0.000000
   64       12.008857   0.000000
   65       12.552095   0.000000
   66       12.937370   0.000000
   67       13.125297   0.000000
   68       13.309554   0.000000
   69       13.571609   0.000000
   70       13.772391   0.000000
   71       13.868351   0.000000
   72       14.288767   0.000000
 
  0.3333333E+00  0.2500000E+00  0.2000000E+00  0.2777778E-02
    1      -11.576224   1.000000
    2      -10.808054   1.000000
    3       -9.912350   1.000000
    4       -8.967392   1.000000
    5       -8.312791   1.000000
    6       -7.917012   1.000000
    7       -6.986164   1.000000
    8       -6.106950   1.000000
    9       -5.934995   1.000000
   10       -4.908607   1.000000
   11       -4.669157   1.000000
   12       -4.271939   1.000000
   13       -3.675364   1.000000
   14       -3.143253   1.000000
   15       -3.000058   1.000000
   16       -2.810500   1.000000
   17       -2.234298   1.000000
   18       -2.045131   1.000000
   19       -1.715459   1.000000
   20       -1.550145   1.000000
   21       -1.222561   1.000000
   22       -0.945387   1.000000
   23       -0.617851   1.000000
   24       -0.431567   1.000000
   25       -0.235670   1.000000
   26       -0.051253   1.000000
   27        0.022394   1.000000
   28        0.637690   1.000000
   29        1.106111   1.000000
   30        1.301632   1.000000
   31        1.640574   1.000000
   32        1.849207   1.000000
   33        2.265146   1.000000
   34        2.470400   1.000000
   35        2.615111   1.000000
   36        2.855488   1.000000
   37        3.094465   1.000000
   38        3.268297   1.000000
   39        3.385896   1.000000
   40        3.642399   1.000000
   41        3.741115   1.000000
   42        3.914974   1.000000
   43        4.076717   1.000000
   44        4.231074   1.000000
   45        4.372629   1.000000
   46        4.558134   1.000000
   47        4.807842   1.000000
   48        5.093254   1.000000
   49        6.790301  -0.013948
   50        7.131519   0.000000
   51        7.767607   0.000000
   52        8.040615   0.000000
   53        9.324211   0.000000
   54        9.574055   0.000000
   55        9.731294   0.000000
   56       10.210467   0.000000
   57       10.346285   0.000000
   58       10.621674   0.000000
   59       10.763315   0.000000
   60       10.828048   0.000000
   61       11.101644   0.000000
   62       11.626636   0.000000
   63       11.794735   0.000000
   64       11.949164   0.000000
   65       12.504352   0.000000
   66       12.823270   0.000000
   67       13.075446   0.000000
   68       13.162024   0.000000
   69       13.486912   0.000000
   70       13.750449   0.000000
   71       13.840653   0.000000
   72       14.276747   0.000000
 
  0.5000000E+00  0.2500000E+00  0.2000000E+00  0.2777778E-02
    1      -11.548109   1.000000
    2      -10.894393   1.000000
    3       -9.808415   1.000000
    4       -8.978546   1.000000
    5       -8.397924   1.000000
    6       -7.881063   1.000000
    7       -6.977957   1.000000
    8       -6.073403   1.000000
    9       -5.897113   1.000000
   10       -4.894843   1.000000
   11       -4.614026   1.000000
   12       -4.364120   1.000000
   13       -3.684814   1.000000
   14       -3.337866   1.000000
   15       -3.079370   1.000000
   16       -2.884244   1.000000
   17       -2.273607   1.000000
   18       -2.029056   1.000000
   19       -1.814659   1.000000
   20       -1.266892   1.000000
   21       -0.993483   1.000000
   22       -0.818378   1.000000
   23       -0.518520   1.000000
   24       -0.302402   1.000000
   25       -0.208490   1.000000
   26       -0.111442   1.000000
   27        0.078141   1.000000
   28        0.589391   1.000000
   29        1.114962   1.000000
   30        1.209776   1.000000
   31        1.384617   1.000000
   32        1.854959   1.000000
   33        2.012509   1.000000
   34        2.401474   1.000000
   35        2.638444   1.000000
   36        2.882387   1.000000
   37        3.115378   1.000000
   38        3.236479   1.000000
   39        3.441148   1.000000
   40        3.562832   1.000000
   41        3.795416   1.000000
   42        3.921035   1.000000
   43        4.017216   1.000000
   44        4.328135   1.000000
   45        4.464845   1.000000
   46        4.584580   1.000000
   47        4.735631   1.000000
   48        5.087182   1.000000
   49        6.839202  -0.000021
   50        7.140533   0.000000
   51        7.841701   0.000000
   52        7.907571   0.000000
   53        9.390566   0.000000
   54        9.650499   0.000000
   55        9.732999   0.000000
   56       10.207182   0.000000
   57       10.432016   0.000000
   58       10.626273   0.000000
   59       10.755605   0.000000
   60       10.952294   0.000000
   61       11.100910   0.000000
   62       11.558576   0.000000
   63       11.722763   0.000000
   64       12.071393   0.000000
   65       12.502012   0.000000
   66       12.875818   0.000000
   67       13.059390   0.000000
   68       13.224162   0.000000
   69       13.333798   0.000000
   70       13.713752   0.000000
   71       13.964483   0.000000
   72       14.200679   0.000000
 
 -0.3333333E+00  0.2500000E+00  0.2000000E+00  0.2777778E-02
    1      -11.524058   1.000000
    2      -10.947854   1.000000
    3       -9.783904   1.000000
    4       -8.933398   1.000000
    5       -8.428178   1.000000
    6       -7.880301   1.000000
    7       -6.989812   1.000000
    8       -6.043487   1.000000
    9       -5.896795   1.000000
   10       -4.966201   1.000000
   11       -4.573208   1.000000
   12       -4.332930   1.000000
   13       -3.726657   1.000000
   14       -3.392584   1.000000
   15       -3.128543   1.000000
   16       -2.869452   1.000000
   17       -2.278637   1.000000
   18       -1.943089   1.000000
   19       -1.911170   1.000000
   20       -1.286025   1.000000
   21       -1.027242   1.000000
   22       -0.755950   1.000000
   23       -0.474099   1.000000
   24       -0.338473   1.000000
   25       -0.092940   1.000000
   26        0.177974   1.000000
   27        0.309032   1.000000
   28        0.422933   1.000000
   29        0.831788   1.000000
   30        1.117104   1.000000
   31        1.567704   1.000000
   32        1.919377   1.000000
   33        2.093899   1.000000
   34        2.356216   1.000000
   35        2.543267   1.000000
   36        2.840225   1.000000
   37        2.892283   1.000000
   38        3.168176   1.000000
   39        3.362223   1.000000
   40        3.625410   1.000000
   41        3.770605   1.000000
   42        3.828698   1.000000
   43        4.074326   1.000000
   44        4.150291   1.000000
   45        4.476348   1.000000
   46        4.586803   1.000000
   47        5.035869   1.000000
   48        5.112555   1.000000
   49        6.911376   0.000000
   50        7.085255   0.000000
   51        7.724229   0.000000
   52        8.006313   0.000000
   53        9.390496   0.000000
   54        9.694267   0.000000
   55        9.756169   0.000000
   56       10.170810   0.000000
   57       10.504964   0.000000
   58       10.585421   0.000000
   59       10.778287   0.000000
   60       10.995468   0.000000
   61       11.119974   0.000000
   62       11.487668   0.000000
   63       11.690333   0.000000
   64       12.275396   0.000000
   65       12.586293   0.000000
   66       12.949826   0.000000
   67       13.153356   0.000000
   68       13.200349   0.000000
   69       13.517858   0.000000
   70       13.708852   0.000000
   71       13.944093   0.000000
   72       14.274910   0.000000
 
 -0.1666667E+00  0.2500000E+00  0.2000000E+00  0.2777778E-02
    1      -11.532982   1.000000
    2      -10.917958   1.000000
    3       -9.852956   1.000000
    4       -8.887549   1.000000
    5       -8.363853   1.000000
    6       -7.916802   1.000000
    7       -7.011397   1.000000
    8       -6.048313   1.000000
    9       -5.933770   1.000000
   10       -5.037642   1.000000
   11       -4.576155   1.000000
   12       -4.207821   1.000000
   13       -3.767136   1.000000
   14       -3.439344   1.000000
   15       -2.996127   1.000000
   16       -2.592635   1.000000
   17       -2.387288   1.000000
   18       -1.999233   1.000000
   19       -1.846811   1.000000
   20       -1.436288   1.000000
   21       -1.185635   1.000000
   22       -0.835883   1.000000
   23       -0.682481   1.000000
   24       -0.502423   1.000000
   25        0.027750   1.000000
   26        0.229534   1.000000
   27        0.422790   1.000000
   28        0.667263   1.000000
   29        0.850643   1.000000
   30        1.042673   1.000000
   31        1.708323   1.000000
   32        2.050610   1.000000
   33        2.274816   1.000000
   34        2.428010   1.000000
   35        2.543001   1.000000
   36        2.690475   1.000000
   37        2.818580   1.000000
   38        3.068728   1.000000
   39        3.296597   1.000000
   40        3.484415   1.000000
   41        3.639147   1.000000
   42        3.898475   1.000000
   43        4.014697   1.000000
   44        4.258657   1.000000
   45        4.316530   1.000000
   46        4.617936   1.000000
   47        5.095880   1.000000
   48        5.292452   1.000000
   49        6.936024   0.000000
   50        7.017235   0.000000
   51        7.616917   0.000000
   52        8.140639   0.000000
   53        9.310619   0.000000
   54        9.697884   0.000000
   55        9.806360   0.000000
   56       10.143157   0.000000
   57       10.466977   0.000000
   58       10.546532   0.000000
   59       10.741611   0.000000
   60       10.920503   0.000000
   61       11.150485   0.000000
   62       11.501352   0.000000
   63       11.709376   0.000000
   64       12.345363   0.000000
   65       12.607241   0.000000
   66       13.026504   0.000000
   67       13.237937   0.000000
   68       13.326676   0.000000
   69       13.594885   0.000000
   70       13.879535   0.000000
   71       14.035304   0.000000
   72       14.247689   0.000000
 
  0.0000000E+00  0.3333333E+00  0.2000000E+00  0.2777778E-02
    1      -11.455994   1.000000
    2      -10.782271   1.000000
    3       -9.942403   1.000000
    4       -8.996825   1.000000
    5       -8.397012   1.000000
    6       -8.025902   1.000000
    7       -6.934238   1.000000
    8       -6.206759   1.000000
    9       -5.944942   1.000000
   10       -5.121923   1.000000
   11       -4.847076   1.000000
   12       -4.170942   1.000000
   13       -3.727030   1.000000
   14       -3.211073   1.000000
   15       -3.142258   1.000000
   16       -2.670128   1.000000
   17       -2.247493   1.000000
   18       -2.124486   1.000000
   19       -1.662513   1.000000
   20       -1.503385   1.000000
   21       -1.161556   1.000000
   22       -0.877474   1.000000
   23       -0.628819   1.000000
   24       -0.326611   1.000000
   25        0.128479   1.000000
   26        0.272187   1.000000
   27        0.742375   1.000000
   28        0.977507   1.000000
   29        1.016837   1.000000
   30        1.320652   1.000000
   31        1.732916   1.000000
   32        2.107845   1.000000
   33        2.249398   1.000000
   34        2.507949   1.000000
   35        2.528685   1.000000
   36        2.695082   1.000000
   37        2.838642   1.000000
   38        2.954468   1.000000
   39        3.104653   1.000000
   40        3.415924   1.000000
   41        3.520014   1.000000
   42        3.863248   1.000000
   43        3.893249   1.000000
   44        4.188390   1.000000
   45        4.401675   1.000000
   46        4.660148   1.000000
   47        5.009320   1.000000
   48        5.252516   1.000000
   49        6.807876  -0.052683
   50        6.995276   0.000000
   51        7.754124   0.000000
   52        8.133523   0.000000
   53        9.099740   0.000000
   54        9.626538   0.000000
   55        9.768115   0.000000
   56        9.972958   0.000000
   57       10.214542   0.000000
   58       10.496282   0.000000
   59       10.524332   0.000000
   60       10.858061   0.000000
   61       11.160341   0.000000
   62       11.506569   0.000000
   63       11.580385   0.000000
   64       12.108364   0.000000
   65       12.727102   0.000000
   66       12.906071   0.000000
   67       13.259983   0.000000
   68       13.413121   0.000000
   69       13.560150   0.000000
   70       13.753570   0.000000
   71       14.002803   0.000000
   72       14.180660   0.000000
 
  0.1666667E+00  0.3333333E+00  0.2000000E+00  0.2777778E-02
    1      -11.475085   1.000000
    2      -10.732176   1.000000
    3       -9.966219   1.000000
    4       -9.027080   1.000000
    5       -8.379178   1.000000
    6       -8.024071   1.000000
    7       -6.909778   1.000000
    8       -6.253574   1.000000
    9       -5.978173   1.000000
   10       -5.080565   1.000000
   11       -4.924815   1.000000
   12       -4.191276   1.000000
   13       -3.600804   1.000000
   14       -3.011202   1.000000
   15       -2.956359   1.000000
   16       -2.655359   1.000000
   17       -2.277885   1.000000
   18       -2.099183   1.000000
   19       -1.820073   1.000000
   20       -1.595555   1.000000
   21       -1.384575   1.000000
   22       -1.040427   1.000000
   23       -0.655862   1.000000
   24       -0.281745   1.000000
   25       -0.106637   1.000000
   26        0.258100   1.000000
   27        0.791988   1.000000
   28        0.944805   1.000000
   29        1.152261   1.000000
   30        1.385504   1.000000
   31        1.870337   1.000000
   32        2.135492   1.000000
   33        2.294144   1.000000
   34        2.504456   1.000000
   35        2.624025   1.000000
   36        2.725388   1.000000
   37        2.885737   1.000000
   38        3.062127   1.000000
   39        3.258887   1.000000
   40        3.339763   1.000000
   41        3.512235   1.000000
   42        3.885076   1.000000
   43        3.988891   1.000000
   44        4.124054   1.000000
   45        4.345552   1.000000
   46        4.613205   1.000000
   47        4.924380   1.000000
   48        5.097262   1.000000
   49        6.735361  -0.052329
   50        7.011780   0.000000
   51        7.866417   0.000000
   52        8.066119   0.000000
   53        9.076148   0.000000
   54        9.599131   0.000000
   55        9.814281   0.000000
   56        9.903493   0.000000
   57       10.239040   0.000000
   58       10.474769   0.000000
   59       10.580839   0.000000
   60       10.814647   0.000000
   61       11.149572   0.000000
   62       11.512558   0.000000
   63       11.583587   0.000000
   64       11.973744   0.000000
   65       12.715508   0.000000
   66       12.839547   0.000000
   67       13.171603   0.000000
   68       13.333774   0.000000
   69       13.570122   0.000000
   70       13.770633   0.000000
   71       13.973736   0.000000
   72       14.219312   0.000000
 
  0.3333333E+00  0.3333333E+00  0.2000000E+00  0.2777778E-02
    1      -11.473627   1.000000
    2      -10.752371   1.000000
    3       -9.907415   1.000000
    4       -9.059538   1.000000
    5       -8.443279   1.000000
    6       -8.002315   1.000000
    7       -6.856487   1.000000
    8       -6.281337   1.000000
    9       -5.950030   1.000000
   10       -5.059655   1.000000
   11       -4.870419   1.000000
   12       -4.293565   1.000000
   13       -3.593506   1.000000
   14       -3.052016   1.000000
   15       -2.978541   1.000000
   16       -2.721754   1.000000
   17       -2.193352   1.000000
   18       -2.110095   1.000000
   19       -1.881281   1.000000
   20       -1.599816   1.000000
   21       -1.359640   1.000000
   22       -0.760280   1.000000
   23       -0.598106   1.000000
   24       -0.318691   1.000000
   25       -0.077591   1.000000
   26        0.242793   1.000000
   27        0.631858   1.000000
   28        0.827871   1.000000
   29        1.190481   1.000000
   30        1.259278   1.000000
   31        1.840883   1.000000
   32        1.955789   1.000000
   33        2.281460   1.000000
   34        2.490703   1.000000
   35        2.591421   1.000000
   36        2.774409   1.000000
   37        3.027771   1.000000
   38        3.096271   1.000000
   39        3.420306   1.000000
   40        3.458656   1.000000
   41        3.623029   1.000000
   42        3.903436   1.000000
   43        4.051161   1.000000
   44        4.221953   1.000000
   45        4.343702   1.000000
   46        4.521458   1.000000
   47        4.750014   1.000000
   48        5.003711   1.000000
   49        6.712645   0.139847
   50        7.028153   0.000000
   51        7.858022   0.000000
   52        7.963398   0.000000
   53        9.244031   0.000000
   54        9.558473   0.000000
   55        9.692561   0.000000
   56        9.987931   0.000000
   57       10.312597   0.000000
   58       10.546673   0.000000
   59       10.650905   0.000000
   60       10.818546   0.000000
   61       11.043550   0.000000
   62       11.445082   0.000000
   63       11.682514   0.000000
   64       11.908549   0.000000
   65       12.586124   0.000000
   66       12.713779   0.000000
   67       13.098467   0.000000
   68       13.213100   0.000000
   69       13.609746   0.000000
   70       13.841180   0.000000
   71       13.993161   0.000000
   72       14.168080   0.000000
 
  0.5000000E+00  0.3333333E+00  0.2000000E+00  0.2777778E-02
    1      -11.452531   1.000000
    2      -10.817394   1.000000
    3       -9.826562   1.000000
    4       -9.064284   1.000000
    5       -8.519608   1.000000
    6       -7.987331   1.000000
    7       -6.833794   1.000000
    8       -6.264604   1.000000
    9       -5.878567   1.000000
   10       -5.055317   1.000000
   11       -4.748018   1.000000
   12       -4.393905   1.000000
   13       -3.661494   1.000000
   14       -3.350949   1.000000
   15       -3.143711   1.000000
   16       -2.862803   1.000000
   17       -2.220917   1.000000
   18       -1.891134   1.000000
   19       -1.793119   1.000000
   20       -1.477756   1.000000
   21       -1.004449   1.000000
   22       -0.742641   1.000000
   23       -0.373243   1.000000
   24       -0.126457   1.000000
   25       -0.057442   1.000000
   26        0.306123   1.000000
   27        0.479621   1.000000
   28        0.742706   1.000000
   29        0.943956   1.000000
   30        1.210172   1.000000
   31        1.467490   1.000000
   32        2.054550   1.000000
   33        2.157840   1.000000
   34        2.308717   1.000000
   35        2.594456   1.000000
   36        2.766785   1.000000
   37        3.006658   1.000000
   38        3.166639   1.000000
   39        3.386500   1.000000
   40        3.632502   1.000000
   41        3.733407   1.000000
   42        3.936708   1.000000
   43        4.049593   1.000000
   44        4.144285   1.000000
   45        4.400392   1.000000
   46        4.573217   1.000000
   47        4.727922   1.000000
   48        5.066625   1.000000
   49        6.752000  -0.015551
   50        7.042919   0.000000
   51        7.738373   0.000000
   52        7.950137   0.000000
   53        9.379324   0.000000
   54        9.536320   0.000000
   55        9.627809   0.000000
   56       10.073633   0.000000
   57       10.412996   0.000000
   58       10.557089   0.000000
   59       10.674286   0.000000
   60       10.857260   0.000000
   61       11.011708   0.000000
   62       11.442938   0.000000
   63       11.668884   0.000000
   64       11.926704   0.000000
   65       12.505461   0.000000
   66       12.720777   0.000000
   67       13.116476   0.000000
   68       13.250765   0.000000
   69       13.485037   0.000000
   70       13.847100   0.000000
   71       13.979309   0.000000
   72       14.221020   0.000000
 
 -0.3333333E+00  0.3333333E+00  0.2000000E+00  0.2777778E-02
    1      -11.430577   1.000000
    2      -10.864340   1.000000
    3       -9.811327   1.000000
    4       -9.023316   1.000000
    5       -8.548272   1.000000
    6       -7.985972   1.000000
    7       -6.860415   1.000000
    8       -6.219084   1.000000
    9       -5.838107   1.000000
   10       -5.072558   1.000000
   11       -4.673512   1.000000
   12       -4.415537   1.000000
   13       -3.743185   1.000000
   14       -3.513373   1.000000
   15       -3.148593   1.000000
   16       -3.053215   1.000000
   17       -2.239444   1.000000
   18       -1.953672   1.000000
   19       -1.718977   1.000000
   20       -1.106818   1.000000
   21       -0.849761   1.000000
   22       -0.602458   1.000000
   23       -0.290601   1.000000
   24       -0.105303   1.000000
   25        0.050743   1.000000
   26        0.227379   1.000000
   27        0.414206   1.000000
   28        0.716494   1.000000
   29        0.955182   1.000000
   30        1.139471   1.000000
   31        1.331797   1.000000
   32        1.871437   1.000000
   33        2.154375   1.000000
   34        2.322165   1.000000
   35        2.607870   1.000000
   36        2.735619   1.000000
   37        2.973616   1.000000
   38        3.081327   1.000000
   39        3.336963   1.000000
   40        3.532074   1.000000
   41        3.624186   1.000000
   42        3.810665   1.000000
   43        4.071249   1.000000
   44        4.144552   1.000000
   45        4.486010   1.000000
   46        4.738697   1.000000
   47        4.841280   1.000000
   48        5.188391   1.000000
   49        6.827455  -0.018432
   50        7.023451   0.000000
   51        7.656803   0.000000
   52        8.003571   0.000000
   53        9.364920   0.000000
   54        9.555044   0.000000
   55        9.644138   0.000000
   56       10.048663   0.000000
   57       10.380763   0.000000
   58       10.486700   0.000000
   59       10.726644   0.000000
   60       10.938303   0.000000
   61       11.059142   0.000000
   62       11.518397   0.000000
   63       11.585207   0.000000
   64       12.042868   0.000000
   65       12.502765   0.000000
   66       12.827506   0.000000
   67       13.177684   0.000000
   68       13.418659   0.000000
   69       13.521275   0.000000
   70       13.644109   0.000000
   71       13.855156   0.000000
   72       14.367911   0.000000
 
 -0.1666667E+00  0.3333333E+00  0.2000000E+00  0.2777778E-02
    1      -11.432693   1.000000
    2      -10.848527   1.000000
    3       -9.868701   1.000000
    4       -8.989224   1.000000
    5       -8.489894   1.000000
    6       -8.002201   1.000000
    7       -6.907834   1.000000
    8       -6.189001   1.000000
    9       -5.876681   1.000000
   10       -5.112661   1.000000
   11       -4.730765   1.000000
   12       -4.294536   1.000000
   13       -3.785410   1.000000
   14       -3.439786   1.000000
   15       -3.236556   1.000000
   16       -2.771629   1.000000
   17       -2.454911   1.000000
   18       -1.904140   1.000000
   19       -1.735540   1.000000
   20       -1.114895   1.000000
   21       -0.918344   1.000000
   22       -0.651695   1.000000
   23       -0.496871   1.000000
   24       -0.204635   1.000000
   25        0.183315   1.000000
   26        0.313348   1.000000
   27        0.532535   1.000000
   28        0.829493   1.000000
   29        0.950138   1.000000
   30        1.024210   1.000000
   31        1.609555   1.000000
   32        1.981553   1.000000
   33        2.160924   1.000000
   34        2.337513   1.000000
   35        2.617650   1.000000
   36        2.690780   1.000000
   37        2.835842   1.000000
   38        3.057753   1.000000
   39        3.229628   1.000000
   40        3.383355   1.000000
   41        3.580505   1.000000
   42        3.657763   1.000000
   43        4.045403   1.000000
   44        4.262293   1.000000
   45        4.479632   1.000000
   46        4.704588   1.000000
   47        4.966051   1.000000
   48        5.290302   1.000000
   49        6.871804  -0.047114
   50        6.981194   0.000000
   51        7.656794   0.000000
   52        8.092202   0.000000
   53        9.249062   0.000000
   54        9.603409   0.000000
   55        9.711496   0.000000
   56        9.986156   0.000000
   57       10.256561   0.000000
   58       10.487755   0.000000
   59       10.667445   0.000000
   60       10.922763   0.000000
   61       11.109772   0.000000
   62       11.498842   0.000000
   63       11.600078   0.000000
   64       12.168926   0.000000
   65       12.628595   0.000000
   66       12.993725   0.000000
   67       13.072589   0.000000
   68       13.339932   0.000000
   69       13.598528   0.000000
   70       13.791067   0.000000
   71       13.954076   0.000000
   72       14.277066   0.000000
 
  0.0000000E+00  0.4166667E+00  0.2000000E+00  0.2777778E-02
    1      -11.329857   1.000000
    2      -10.734927   1.000000
    3       -9.962098   1.000000
    4       -9.132002   1.000000
    5       -8.520891   1.000000
    6       -8.108390   1.000000
    7       -6.853312   1.000000
    8       -6.293408   1.000000
    9       -5.960213   1.000000
   10       -5.171015   1.000000
   11       -4.904687   1.000000
   12       -4.205253   1.000000
   13       -3.686066   1.000000
   14       -3.492428   1.000000
   15       -2.884722   1.000000
   16       -2.766404   1.000000
   17       -2.295137   1.000000
   18       -2.222982   1.000000
   19       -1.489133   1.000000
   20       -1.291001   1.000000
   21       -1.025777   1.000000
   22       -0.719169   1.000000
   23       -0.464679   1.000000
   24       -0.017488   1.000000
   25        0.227600   1.000000
   26        0.404991   1.000000
   27        0.851663   1.000000
   28        1.030277   1.000000
   29        1.154256   1.000000
   30        1.445754   1.000000
   31        1.703617   1.000000
   32        2.057898   1.000000
   33        2.128488   1.000000
   34        2.334065   1.000000
   35        2.412654   1.000000
   36        2.536617   1.000000
   37        2.731497   1.000000
   38        2.884082   1.000000
   39        3.111583   1.000000
   40        3.228471   1.000000
   41        3.461436   1.000000
   42        3.790375   1.000000
   43        4.051514   1.000000
   44        4.172253   1.000000
   45        4.391512   1.000000
   46        4.710003   1.000000
   47        4.950854   1.000000
   48        5.242730   1.000000
   49        6.755774   0.123203
   50        6.937614   0.000000
   51        7.924115   0.000000
   52        8.075640   0.000000
   53        8.960765   0.000000
   54        9.511802   0.000000
   55        9.673694   0.000000
   56        9.786096   0.000000
   57        9.985571   0.000000
   58       10.446702   0.000000
   59       10.525585   0.000000
   60       10.804928   0.000000
   61       11.122512   0.000000
   62       11.491850   0.000000
   63       11.530562   0.000000
   64       12.023627   0.000000
   65       12.815215   0.000000
   66       12.930593   0.000000
   67       13.224145   0.000000
   68       13.360591   0.000000
   69       13.690378   0.000000
   70       13.755388   0.000000
   71       13.971521   0.000000
   72       14.205114   0.000000
 
  0.1666667E+00  0.4166667E+00  0.2000000E+00  0.2777778E-02
    1      -11.344563   1.000000
    2      -10.704036   1.000000
    3       -9.969366   1.000000
    4       -9.146594   1.000000
    5       -8.519402   1.000000
    6       -8.094523   1.000000
    7       -6.847802   1.000000
    8       -6.346662   1.000000
    9       -5.991711   1.000000
   10       -5.137746   1.000000
   11       -4.994450   1.000000
   12       -4.183301   1.000000
   13       -3.524535   1.000000
   14       -3.314695   1.000000
   15       -2.916470   1.000000
   16       -2.662175   1.000000
   17       -2.378641   1.000000
   18       -1.842389   1.000000
   19       -1.676412   1.000000
   20       -1.417458   1.000000
   21       -1.340324   1.000000
   22       -1.059175   1.000000
   23       -0.454366   1.000000
   24       -0.120602   1.000000
   25        0.153903   1.000000
   26        0.427621   1.000000
   27        0.937195   1.000000
   28        1.076206   1.000000
   29        1.261570   1.000000
   30        1.482632   1.000000
   31        1.805232   1.000000
   32        1.958178   1.000000
   33        2.223752   1.000000
   34        2.385567   1.000000
   35        2.564361   1.000000
   36        2.679259   1.000000
   37        2.780954   1.000000
   38        2.861070   1.000000
   39        3.197053   1.000000
   40        3.252603   1.000000
   41        3.613145   1.000000
   42        3.769591   1.000000
   43        3.993112   1.000000
   44        4.166024   1.000000
   45        4.292737   1.000000
   46        4.655588   1.000000
   47        4.782466   1.000000
   48        5.169499   1.000000
   49        6.707700   0.364655
   50        6.921164   0.000000
   51        7.852156   0.000000
   52        8.140265   0.000000
   53        8.970382   0.000000
   54        9.543120   0.000000
   55        9.711876   0.000000
   56        9.815057   0.000000
   57        9.989431   0.000000
   58       10.358222   0.000000
   59       10.524585   0.000000
   60       10.689774   0.000000
   61       11.094284   0.000000
   62       11.467695   0.000000
   63       11.628103   0.000000
   64       11.973043   0.000000
   65       12.739454   0.000000
   66       12.936936   0.000000
   67       13.238518   0.000000
   68       13.451854   0.000000
   69       13.557963   0.000000
   70       13.826249   0.000000
   71       13.955407   0.000000
   72       14.229638   0.000000
 
  0.3333333E+00  0.4166667E+00  0.2000000E+00  0.2777778E-02
    1      -11.345107   1.000000
    2      -10.717932   1.000000
    3       -9.924393   1.000000
    4       -9.151457   1.000000
    5       -8.578663   1.000000
    6       -8.097284   1.000000
    7       -6.767398   1.000000
    8       -6.395196   1.000000
    9       -5.966003   1.000000
   10       -5.151639   1.000000
   11       -4.977781   1.000000
   12       -4.305334   1.000000
   13       -3.550824   1.000000
   14       -3.125096   1.000000
   15       -2.899485   1.000000
   16       -2.550742   1.000000
   17       -2.344470   1.000000
   18       -1.979338   1.000000
   19       -1.811066   1.000000
   20       -1.430145   1.000000
   21       -1.308880   1.000000
   22       -0.978400   1.000000
   23       -0.557518   1.000000
   24       -0.110739   1.000000
   25        0.151802   1.000000
   26        0.447546   1.000000
   27        0.860589   1.000000
   28        1.038422   1.000000
   29        1.173082   1.000000
   30        1.492304   1.000000
   31        1.613817   1.000000
   32        2.050437   1.000000
   33        2.302460   1.000000
   34        2.467760   1.000000
   35        2.550846   1.000000
   36        2.724394   1.000000
   37        2.826105   1.000000
   38        2.991437   1.000000
   39        3.269951   1.000000
   40        3.388993   1.000000
   41        3.606786   1.000000
   42        3.791638   1.000000
   43        3.954399   1.000000
   44        4.271335   1.000000
   45        4.321978   1.000000
   46        4.523123   1.000000
   47        4.713520   1.000000
   48        5.042218   1.000000
   49        6.679338   0.872455
   50        6.897833   0.000000
   51        7.718415   0.000000
   52        8.066322   0.000000
   53        9.144881   0.000000
   54        9.592303   0.000000
   55        9.683239   0.000000
   56        9.848071   0.000000
   57       10.100053   0.000000
   58       10.376519   0.000000
   59       10.541824   0.000000
   60       10.626566   0.000000
   61       10.969723   0.000000
   62       11.445767   0.000000
   63       11.752486   0.000000
   64       11.938875   0.000000
   65       12.556370   0.000000
   66       12.787840   0.000000
   67       13.129577   0.000000
   68       13.368010   0.000000
   69       13.753306   0.000000
   70       13.932297   0.000000
   71       14.084072   0.000000
   72       14.174975   0.000000
 
  0.5000000E+00  0.4166667E+00  0.2000000E+00  0.2777778E-02
    1      -11.330855   1.000000
    2      -10.759872   1.000000
    3       -9.873879   1.000000
    4       -9.138763   1.000000
    5       -8.643381   1.000000
    6       -8.110424   1.000000
    7       -6.698414   1.000000
    8       -6.393015   1.000000
    9       -5.895835   1.000000
   10       -5.192087   1.000000
   11       -4.869945   1.000000
   12       -4.475363   1.000000
   13       -3.627692   1.000000
   14       -3.170609   1.000000
   15       -3.080601   1.000000
   16       -2.554542   1.000000
   17       -2.218805   1.000000
   18       -2.034863   1.000000
   19       -1.783975   1.000000
   20       -1.531618   1.000000
   21       -1.059441   1.000000
   22       -0.660212   1.000000
   23       -0.372954   1.000000
   24       -0.070540   1.000000
   25        0.158436   1.000000
   26        0.443953   1.000000
   27        0.698999   1.000000
   28        0.914703   1.000000
   29        1.009928   1.000000
   30        1.441882   1.000000
   31        1.632652   1.000000
   32        1.981455   1.000000
   33        2.155344   1.000000
   34        2.426752   1.000000
   35        2.518180   1.000000
   36        2.682663   1.000000
   37        2.885547   1.000000
   38        3.027013   1.000000
   39        3.300244   1.000000
   40        3.467955   1.000000
   41        3.531202   1.000000
   42        3.873074   1.000000
   43        4.018293   1.000000
   44        4.209865   1.000000
   45        4.367081   1.000000
   46        4.503173   1.000000
   47        4.853347   1.000000
   48        5.027792   1.000000
   49        6.686842   0.720732
   50        6.900816   0.000000
   51        7.635640   0.000000
   52        7.998487   0.000000
   53        9.217261   0.000000
   54        9.516550   0.000000
   55        9.705535   0.000000
   56        9.937657   0.000000
   57       10.245181   0.000000
   58       10.447424   0.000000
   59       10.587543   0.000000
   60       10.635381   0.000000
   61       10.859613   0.000000
   62       11.416398   0.000000
   63       11.692319   0.000000
   64       11.989121   0.000000
   65       12.560157   0.000000
   66       12.598470   0.000000
   67       13.176116   0.000000
   68       13.333367   0.000000
   69       13.799195   0.000000
   70       13.900647   0.000000
   71       14.046639   0.000000
   72       14.279758   0.000000
 
 -0.3333333E+00  0.4166667E+00  0.2000000E+00  0.2777778E-02
    1      -11.314716   1.000000
    2      -10.789745   1.000000
    3       -9.870954   1.000000
    4       -9.116196   1.000000
    5       -8.656342   1.000000
    6       -8.116428   1.000000
    7       -6.716738   1.000000
    8       -6.339103   1.000000
    9       -5.843719   1.000000
   10       -5.211458   1.000000
   11       -4.763573   1.000000
   12       -4.552544   1.000000
   13       -3.700362   1.000000
   14       -3.423950   1.000000
   15       -3.096066   1.000000
   16       -2.761120   1.000000
   17       -2.240249   1.000000
   18       -1.925808   1.000000
   19       -1.644861   1.000000
   20       -1.411106   1.000000
   21       -0.844900   1.000000
   22       -0.480700   1.000000
   23       -0.303678   1.000000
   24        0.025939   1.000000
   25        0.273885   1.000000
   26        0.459602   1.000000
   27        0.575501   1.000000
   28        0.889165   1.000000
   29        1.052212   1.000000
   30        1.256919   1.000000
   31        1.521152   1.000000
   32        1.892318   1.000000
   33        2.131639   1.000000
   34        2.268103   1.000000
   35        2.530707   1.000000
   36        2.646038   1.000000
   37        2.840474   1.000000
   38        2.979393   1.000000
   39        3.198623   1.000000
   40        3.305447   1.000000
   41        3.536979   1.000000
   42        3.889973   1.000000
   43        4.045588   1.000000
   44        4.218455   1.000000
   45        4.349332   1.000000
   46        4.696875   1.000000
   47        4.952370   1.000000
   48        5.154775   1.000000
   49        6.733874   0.170925
   50        6.916938   0.000000
   51        7.658170   0.000000
   52        7.999481   0.000000
   53        9.176579   0.000000
   54        9.501357   0.000000
   55        9.657037   0.000000
   56        9.869427   0.000000
   57       10.257037   0.000000
   58       10.458761   0.000000
   59       10.602070   0.000000
   60       10.793454   0.000000
   61       10.981823   0.000000
   62       11.445215   0.000000
   63       11.563015   0.000000
   64       11.960549   0.000000
   65       12.533003   0.000000
   66       12.759279   0.000000
   67       13.223350   0.000000
   68       13.450724   0.000000
   69       13.700171   0.000000
   70       13.762473   0.000000
   71       14.008524   0.000000
   72       14.321257   0.000000
 
 -0.1666667E+00  0.4166667E+00  0.2000000E+00  0.2777778E-02
    1      -11.314292   1.000000
    2      -10.778427   1.000000
    3       -9.914255   1.000000
    4       -9.115511   1.000000
    5       -8.593073   1.000000
    6       -8.115988   1.000000
    7       -6.789798   1.000000
    8       -6.289925   1.000000
    9       -5.884794   1.000000
   10       -5.195680   1.000000
   11       -4.807802   1.000000
   12       -4.388247   1.000000
   13       -3.768475   1.000000
   14       -3.542062   1.000000
   15       -2.938341   1.000000
   16       -2.780806   1.000000
   17       -2.526295   1.000000
   18       -1.913673   1.000000
   19       -1.600167   1.000000
   20       -1.034488   1.000000
   21       -0.966606   1.000000
   22       -0.613623   1.000000
   23       -0.286694   1.000000
   24        0.037226   1.000000
   25        0.293003   1.000000
   26        0.552559   1.000000
   27        0.694794   1.000000
   28        0.846978   1.000000
   29        1.070985   1.000000
   30        1.288299   1.000000
   31        1.558153   1.000000
   32        1.889285   1.000000
   33        2.081292   1.000000
   34        2.253158   1.000000
   35        2.510811   1.000000
   36        2.632550   1.000000
   37        2.801710   1.000000
   38        2.935234   1.000000
   39        3.054443   1.000000
   40        3.289594   1.000000
   41        3.340598   1.000000
   42        3.734454   1.000000
   43        4.192026   1.000000
   44        4.247339   1.000000
   45        4.382428   1.000000
   46        4.766685   1.000000
   47        4.974492   1.000000
   48        5.246602   1.000000
   49        6.777518   0.027953
   50        6.926770   0.000000
   51        7.789410   0.000000
   52        8.032376   0.000000
   53        9.080380   0.000000
   54        9.518437   0.000000
   55        9.628576   0.000000
   56        9.796074   0.000000
   57       10.066000   0.000000
   58       10.477345   0.000000
   59       10.613021   0.000000
   60       10.870594   0.000000
   61       11.081789   0.000000
   62       11.481877   0.000000
   63       11.535887   0.000000
   64       11.979202   0.000000
   65       12.633643   0.000000
   66       12.988804   0.000000
   67       13.130845   0.000000
   68       13.362229   0.000000
   69       13.630263   0.000000
   70       13.865619   0.000000
   71       13.965364   0.000000
   72       14.266659   0.000000
 
  0.0000000E+00  0.5000000E+00  0.2000000E+00  0.2777778E-02
    1      -11.212904   1.000000
    2      -10.712364   1.000000
    3      -10.014334   1.000000
    4       -9.215103   1.000000
    5       -8.600112   1.000000
    6       -8.222587   1.000000
    7       -6.795481   1.000000
    8       -6.294982   1.000000
    9       -6.025253   1.000000
   10       -5.200328   1.000000
   11       -4.874339   1.000000
   12       -4.216545   1.000000
   13       -3.822815   1.000000
   14       -3.301634   1.000000
   15       -2.876072   1.000000
   16       -2.549813   1.000000
   17       -2.457992   1.000000
   18       -2.095636   1.000000
   19       -1.359653   1.000000
   20       -1.119549   1.000000
   21       -1.015395   1.000000
   22       -0.619769   1.000000
   23       -0.413945   1.000000
   24        0.028398   1.000000
   25        0.286221   1.000000
   26        0.525760   1.000000
   27        0.641358   1.000000
   28        0.885164   1.000000
   29        1.341091   1.000000
   30        1.564302   1.000000
   31        1.814678   1.000000
   32        1.937865   1.000000
   33        2.015382   1.000000
   34        2.239908   1.000000
   35        2.334911   1.000000
   36        2.507085   1.000000
   37        2.628040   1.000000
   38        2.773163   1.000000
   39        3.057572   1.000000
   40        3.210169   1.000000
   41        3.393861   1.000000
   42        3.865865   1.000000
   43        3.932566   1.000000
   44        4.183847   1.000000
   45        4.494455   1.000000
   46        4.645125   1.000000
   47        4.883768   1.000000
   48        5.251999   1.000000
   49        6.674701   0.795974
   50        6.894558   0.000000
   51        7.822891   0.000000
   52        8.310602   0.000000
   53        8.830018   0.000000
   54        9.385990   0.000000
   55        9.608909   0.000000
   56        9.659014   0.000000
   57        9.877127   0.000000
   58       10.422814   0.000000
   59       10.508354   0.000000
   60       10.646856   0.000000
   61       10.999162   0.000000
   62       11.531100   0.000000
   63       11.611482   0.000000
   64       11.943815   0.000000
   65       12.861855   0.000000
   66       13.078901   0.000000
   67       13.328268   0.000000
   68       13.355177   0.000000
   69       13.770541   0.000000
   70       13.864300   0.000000
   71       13.943610   0.000000
   72       14.251180   0.000000
 
  0.1666667E+00  0.5000000E+00  0.2000000E+00  0.2777778E-02
    1      -11.220167   1.000000
    2      -10.701610   1.000000
    3      -10.014457   1.000000
    4       -9.213916   1.000000
    5       -8.615180   1.000000
    6       -8.188814   1.000000
    7       -6.828016   1.000000
    8       -6.340818   1.000000
    9       -6.039103   1.000000
   10       -5.133812   1.000000
   11       -4.952886   1.000000
   12       -4.156938   1.000000
   13       -3.724886   1.000000
   14       -3.288352   1.000000
   15       -2.976040   1.000000
   16       -2.556371   1.000000
   17       -2.341539   1.000000
   18       -1.753688   1.000000
   19       -1.478205   1.000000
   20       -1.171972   1.000000
   21       -1.059265   1.000000
   22       -0.910499   1.000000
   23       -0.481732   1.000000
   24       -0.020102   1.000000
   25        0.135686   1.000000
   26        0.438515   1.000000
   27        0.719258   1.000000
   28        0.812540   1.000000
   29        1.400152   1.000000
   30        1.540876   1.000000
   31        1.873363   1.000000
   32        1.924674   1.000000
   33        2.128752   1.000000
   34        2.262147   1.000000
   35        2.437481   1.000000
   36        2.574159   1.000000
   37        2.694027   1.000000
   38        2.888066   1.000000
   39        3.147460   1.000000
   40        3.279483   1.000000
   41        3.441143   1.000000
   42        3.707909   1.000000
   43        4.006531   1.000000
   44        4.256107   1.000000
   45        4.469428   1.000000
   46        4.585079   1.000000
   47        4.744751   1.000000
   48        5.178245   1.000000
   49        6.662777   0.933290
   50        6.866683   0.000000
   51        7.689601   0.000000
   52        8.360546   0.000000
   53        8.897091   0.000000
   54        9.439043   0.000000
   55        9.631013   0.000000
   56        9.691528   0.000000
   57        9.884092   0.000000
   58       10.334557   0.000000
   59       10.459399   0.000000
   60       10.530178   0.000000
   61       10.966874   0.000000
   62       11.498754   0.000000
   63       11.766687   0.000000
   64       11.952446   0.000000
   65       12.784916   0.000000
   66       12.969906   0.000000
   67       13.383852   0.000000
   68       13.487754   0.000000
   69       13.703572   0.000000
   70       13.853099   0.000000
   71       13.959149   0.000000
   72       14.158219   0.000000
 
  0.3333333E+00  0.5000000E+00  0.2000000E+00  0.2777778E-02
    1      -11.218861   1.000000
    2      -10.716547   1.000000
    3       -9.986275   1.000000
    4       -9.192476   1.000000
    5       -8.665442   1.000000
    6       -8.203787   1.000000
    7       -6.753659   1.000000
    8       -6.401718   1.000000
    9       -5.980093   1.000000
   10       -5.130298   1.000000
   11       -5.026822   1.000000
   12       -4.345675   1.000000
   13       -3.536440   1.000000
   14       -3.294397   1.000000
   15       -2.907481   1.000000
   16       -2.394714   1.000000
   17       -2.120520   1.000000
   18       -1.797669   1.000000
   19       -1.552594   1.000000
   20       -1.358083   1.000000
   21       -1.221755   1.000000
   22       -0.941451   1.000000
   23       -0.467600   1.000000
   24       -0.170285   1.000000
   25        0.163199   1.000000
   26        0.386132   1.000000
   27        0.720889   1.000000
   28        0.966404   1.000000
   29        1.129357   1.000000
   30        1.450392   1.000000
   31        1.848146   1.000000
   32        2.090626   1.000000
   33        2.222025   1.000000
   34        2.364462   1.000000
   35        2.523967   1.000000
   36        2.648111   1.000000
   37        2.714620   1.000000
   38        2.923507   1.000000
   39        3.262873   1.000000
   40        3.330984   1.000000
   41        3.531930   1.000000
   42        3.702378   1.000000
   43        3.959978   1.000000
   44        4.267615   1.000000
   45        4.431410   1.000000
   46        4.483797   1.000000
   47        4.745618   1.000000
   48        5.047594   1.000000
   49        6.659421   1.016786
   50        6.814058   0.000000
   51        7.585499   0.000000
   52        8.202868   0.000000
   53        9.048756   0.000000
   54        9.571189   0.000000
   55        9.644533   0.000000
   56        9.801309   0.000000
   57        9.900695   0.000000
   58       10.264503   0.000000
   59       10.352105   0.000000
   60       10.568225   0.000000
   61       10.867996   0.000000
   62       11.477585   0.000000
   63       11.907117   0.000000
   64       11.985213   0.000000
   65       12.506261   0.000000
   66       12.983207   0.000000
   67       13.208958   0.000000
   68       13.520711   0.000000
   69       13.779185   0.000000
   70       13.861221   0.000000
   71       13.959287   0.000000
   72       14.207307   0.000000
 
  0.5000000E+00  0.5000000E+00  0.2000000E+00  0.2777778E-02
    1      -11.209995   1.000000
    2      -10.741302   1.000000
    3       -9.958754   1.000000
    4       -9.169829   1.000000
    5       -8.704773   1.000000
    6       -8.247656   1.000000
    7       -6.640604   1.000000
    8       -6.419794   1.000000
    9       -5.892415   1.000000
   10       -5.261030   1.000000
   11       -4.958766   1.000000
   12       -4.582501   1.000000
   13       -3.501855   1.000000
   14       -3.100099   1.000000
   15       -2.832516   1.000000
   16       -2.422382   1.000000
   17       -2.241213   1.000000
   18       -1.857596   1.000000
   19       -1.676253   1.000000
   20       -1.479153   1.000000
   21       -1.066414   1.000000
   22       -0.605909   1.000000
   23       -0.492759   1.000000
   24       -0.179543   1.000000
   25        0.099742   1.000000
   26        0.365715   1.000000
   27        0.730210   1.000000
   28        0.947201   1.000000
   29        1.158868   1.000000
   30        1.431410   1.000000
   31        1.689597   1.000000
   32        2.090964   1.000000
   33        2.216159   1.000000
   34        2.380746   1.000000
   35        2.519990   1.000000
   36        2.717591   1.000000
   37        2.799176   1.000000
   38        3.036679   1.000000
   39        3.177297   1.000000
   40        3.377312   1.000000
   41        3.497148   1.000000
   42        3.659421   1.000000
   43        3.884840   1.000000
   44        4.106768   1.000000
   45        4.434931   1.000000
   46        4.590019   1.000000
   47        4.834140   1.000000
   48        5.035344   1.000000
   49        6.660327   1.000000
   50        6.789975   0.000000
   51        7.592359   0.000000
   52        8.075484   0.000000
   53        9.065751   0.000000
   54        9.564677   0.000000
   55        9.642017   0.000000
   56        9.936845   0.000000
   57        9.995252   0.000000
   58       10.303557   0.000000
   59       10.364679   0.000000
   60       10.625409   0.000000
   61       10.745060   0.000000
   62       11.415934   0.000000
   63       11.786241   0.000000
   64       12.168761   0.000000
   65       12.509950   0.000000
   66       12.765685   0.000000
   67       13.212107   0.000000
   68       13.460989   0.000000
   69       13.790291   0.000000
   70       13.863794   0.000000
   71       14.068105   0.000000
   72       14.306204   0.000000
 
 -0.3333333E+00  0.5000000E+00  0.2000000E+00  0.2777778E-02
    1      -11.202136   1.000000
    2      -10.752200   1.000000
    3       -9.959283   1.000000
    4       -9.170676   1.000000
    5       -8.694166   1.000000
    6       -8.273182   1.000000
    7       -6.621613   1.000000
    8       -6.370219   1.000000
    9       -5.843554   1.000000
   10       -5.358025   1.000000
   11       -4.855824   1.000000
   12       -4.657749   1.000000
   13       -3.558469   1.000000
   14       -3.156731   1.000000
   15       -2.896162   1.000000
   16       -2.364675   1.000000
   17       -2.203222   1.000000
   18       -2.079654   1.000000
   19       -1.676629   1.000000
   20       -1.565264   1.000000
   21       -0.805959   1.000000
   22       -0.498139   1.000000
   23       -0.325902   1.000000
   24       -0.089220   1.000000
   25        0.078324   1.000000
   26        0.446153   1.000000
   27        0.802866   1.000000
   28        0.970773   1.000000
   29        1.182215   1.000000
   30        1.419983   1.000000
   31        1.670244   1.000000
   32        1.809644   1.000000
   33        2.166285   1.000000
   34        2.378120   1.000000
   35        2.514579   1.000000
   36        2.689776   1.000000
   37        2.801499   1.000000
   38        2.868251   1.000000
   39        2.988423   1.000000
   40        3.368841   1.000000
   41        3.404529   1.000000
   42        3.806404   1.000000
   43        3.941765   1.000000
   44        4.069539   1.000000
   45        4.340023   1.000000
   46        4.623785   1.000000
   47        4.962994   1.000000
   48        5.163726   1.000000
   49        6.665492   0.989806
   50        6.816144   0.000000
   51        7.739131   0.000000
   52        8.025498   0.000000
   53        8.996202   0.000000
   54        9.457439   0.000000
   55        9.584970   0.000000
   56        9.894637   0.000000
   57       10.145905   0.000000
   58       10.338274   0.000000
   59       10.491595   0.000000
   60       10.554465   0.000000
   61       10.920413   0.000000
   62       11.336255   0.000000
   63       11.631859   0.000000
   64       12.139837   0.000000
   65       12.668658   0.000000
   66       12.809270   0.000000
   67       13.274454   0.000000
   68       13.536347   0.000000
   69       13.685147   0.000000
   70       13.847651   0.000000
   71       14.141444   0.000000
   72       14.282844   0.000000
 
 -0.1666667E+00  0.5000000E+00  0.2000000E+00  0.2777778E-02
    1      -11.203762   1.000000
    2      -10.738141   1.000000
    3       -9.986717   1.000000
    4       -9.194577   1.000000
    5       -8.640067   1.000000
    6       -8.262404   1.000000
    7       -6.698808   1.000000
    8       -6.311216   1.000000
    9       -5.926019   1.000000
   10       -5.299485   1.000000
   11       -4.849479   1.000000
   12       -4.455966   1.000000
   13       -3.736657   1.000000
   14       -3.297619   1.000000
   15       -2.780139   1.000000
   16       -2.534753   1.000000
   17       -2.383862   1.000000
   18       -2.020889   1.000000
   19       -1.604699   1.000000
   20       -1.311221   1.000000
   21       -0.939306   1.000000
   22       -0.586602   1.000000
   23       -0.196907   1.000000
   24        0.037766   1.000000
   25        0.363288   1.000000
   26        0.469377   1.000000
   27        0.804587   1.000000
   28        0.990691   1.000000
   29        1.182038   1.000000
   30        1.278956   1.000000
   31        1.711910   1.000000
   32        1.964014   1.000000
   33        2.054609   1.000000
   34        2.300843   1.000000
   35        2.409560   1.000000
   36        2.535457   1.000000
   37        2.676819   1.000000
   38        2.779883   1.000000
   39        2.938845   1.000000
   40        3.209711   1.000000
   41        3.389260   1.000000
   42        3.885021   1.000000
   43        4.015077   1.000000
   44        4.215588   1.000000
   45        4.308830   1.000000
   46        4.635779   1.000000
   47        4.987127   1.000000
   48        5.245632   1.000000
   49        6.677612   0.866316
   50        6.866938   0.000000
   51        7.895987   0.000000
   52        8.074361   0.000000
   53        8.905411   0.000000
   54        9.388214   0.000000
   55        9.580138   0.000000
   56        9.774002   0.000000
   57        9.959071   0.000000
   58       10.443323   0.000000
   59       10.499770   0.000000
   60       10.708583   0.000000
   61       10.999026   0.000000
   62       11.424048   0.000000
   63       11.573083   0.000000
   64       11.980241   0.000000
   65       12.777519   0.000000
   66       13.096198   0.000000
   67       13.227194   0.000000
   68       13.436022   0.000000
   69       13.742359   0.000000
   70       13.852707   0.000000
   71       14.080565   0.000000
   72       14.245913   0.000000
 
  0.0000000E+00 -0.4166667E+00  0.2000000E+00  0.2777778E-02
    1      -11.152319   1.000000
    2      -10.714670   1.000000
    3      -10.093093   1.000000
    4       -9.185843   1.000000
    5       -8.636446   1.000000
    6       -8.346587   1.000000
    7       -6.755340   1.000000
    8       -6.219406   1.000000
    9       -6.066662   1.000000
   10       -5.240488   1.000000
   11       -4.856591   1.000000
   12       -4.193864   1.000000
   13       -3.773840   1.000000
   14       -3.021471   1.000000
   15       -2.856529   1.000000
   16       -2.609248   1.000000
   17       -2.280683   1.000000
   18       -1.826370   1.000000
   19       -1.472282   1.000000
   20       -1.100929   1.000000
   21       -1.025981   1.000000
   22       -0.711544   1.000000
   23       -0.452060   1.000000
   24       -0.002711   1.000000
   25        0.234671   1.000000
   26        0.415531   1.000000
   27        0.640814   1.000000
   28        0.982038   1.000000
   29        1.199059   1.000000
   30        1.327576   1.000000
   31        1.563154   1.000000
   32        1.856322   1.000000
   33        2.032948   1.000000
   34        2.330626   1.000000
   35        2.392418   1.000000
   36        2.517085   1.000000
   37        2.655051   1.000000
   38        2.831313   1.000000
   39        3.098821   1.000000
   40        3.283984   1.000000
   41        3.480840   1.000000
   42        3.676152   1.000000
   43        3.885719   1.000000
   44        4.202654   1.000000
   45        4.456165   1.000000
   46        4.528970   1.000000
   47        4.816425   1.000000
   48        5.188416   1.000000
   49        6.617560   1.000000
   50        6.879803   0.000000
   51        7.719619   0.000000
   52        8.397418   0.000000
   53        8.861947   0.000000
   54        9.394881   0.000000
   55        9.571442   0.000000
   56        9.698926   0.000000
   57        9.908483   0.000000
   58       10.360927   0.000000
   59       10.380600   0.000000
   60       10.507534   0.000000
   61       10.905855   0.000000
   62       11.591785   0.000000
   63       11.805186   0.000000
   64       11.940867   0.000000
   65       12.995956   0.000000
   66       13.269609   0.000000
   67       13.380052   0.000000
   68       13.490527   0.000000
   69       13.713429   0.000000
   70       13.891720   0.000000
   71       14.059998   0.000000
   72       14.345011   0.000000
 
  0.1666667E+00 -0.4166667E+00  0.2000000E+00  0.2777778E-02
    1      -11.150107   1.000000
    2      -10.719425   1.000000
    3      -10.096019   1.000000
    4       -9.173392   1.000000
    5       -8.667292   1.000000
    6       -8.292314   1.000000
    7       -6.815004   1.000000
    8       -6.235052   1.000000
    9       -6.084942   1.000000
   10       -5.124490   1.000000
   11       -4.889997   1.000000
   12       -4.165033   1.000000
   13       -3.846649   1.000000
   14       -3.132370   1.000000
   15       -2.952308   1.000000
   16       -2.545119   1.000000
   17       -2.068900   1.000000
   18       -1.707270   1.000000
   19       -1.375314   1.000000
   20       -1.138622   1.000000
   21       -0.791746   1.000000
   22       -0.754140   1.000000
   23       -0.484502   1.000000
   24       -0.188530   1.000000
   25        0.077960   1.000000
   26        0.412078   1.000000
   27        0.541470   1.000000
   28        0.703043   1.000000
   29        1.023900   1.000000
   30        1.416317   1.000000
   31        1.569898   1.000000
   32        1.815581   1.000000
   33        2.104355   1.000000
   34        2.319776   1.000000
   35        2.408092   1.000000
   36        2.587473   1.000000
   37        2.764945   1.000000
   38        2.978765   1.000000
   39        3.239383   1.000000
   40        3.337361   1.000000
   41        3.515866   1.000000
   42        3.727299   1.000000
   43        3.871834   1.000000
   44        4.195623   1.000000
   45        4.399499   1.000000
   46        4.606142   1.000000
   47        4.780277   1.000000
   48        5.074692   1.000000
   49        6.623371   1.000000
   50        6.860782   0.000000
   51        7.620153   0.000000
   52        8.494881   0.000000
   53        8.887886   0.000000
   54        9.421603   0.000000
   55        9.563628   0.000000
   56        9.754045   0.000000
   57        9.870763   0.000000
   58       10.229993   0.000000
   59       10.390869   0.000000
   60       10.459886   0.000000
   61       10.911331   0.000000
   62       11.584615   0.000000
   63       11.832447   0.000000
   64       11.983050   0.000000
   65       12.840811   0.000000
   66       13.018493   0.000000
   67       13.473911   0.000000
   68       13.565256   0.000000
   69       13.727202   0.000000
   70       13.890604   0.000000
   71       14.061049   0.000000
   72       14.287339   0.000000
 
  0.3333333E+00 -0.4166667E+00  0.2000000E+00  0.2777778E-02
    1      -11.143190   1.000000
    2      -10.738389   1.000000
    3      -10.082691   1.000000
    4       -9.146658   1.000000
    5       -8.693794   1.000000
    6       -8.310527   1.000000
    7       -6.765593   1.000000
    8       -6.304412   1.000000
    9       -5.981330   1.000000
   10       -5.083627   1.000000
   11       -5.015141   1.000000
   12       -4.418881   1.000000
   13       -3.679827   1.000000
   14       -3.226081   1.000000
   15       -2.825932   1.000000
   16       -2.278413   1.000000
   17       -1.846468   1.000000
   18       -1.587616   1.000000
   19       -1.462038   1.000000
   20       -1.255432   1.000000
   21       -1.081132   1.000000
   22       -0.714670   1.000000
   23       -0.604728   1.000000
   24       -0.117729   1.000000
   25       -0.031300   1.000000
   26        0.305077   1.000000
   27        0.587742   1.000000
   28        0.684946   1.000000
   29        0.823118   1.000000
   30        1.277979   1.000000
   31        1.619325   1.000000
   32        1.959592   1.000000
   33        2.223480   1.000000
   34        2.305359   1.000000
   35        2.442668   1.000000
   36        2.717636   1.000000
   37        2.868631   1.000000
   38        3.013038   1.000000
   39        3.168664   1.000000
   40        3.400569   1.000000
   41        3.569111   1.000000
   42        3.797242   1.000000
   43        3.909588   1.000000
   44        4.238797   1.000000
   45        4.361021   1.000000
   46        4.586099   1.000000
   47        4.729905   1.000000
   48        4.942494   1.000000
   49        6.631203   1.000000
   50        6.820230   0.000000
   51        7.570066   0.000000
   52        8.322688   0.000000
   53        9.023708   0.000000
   54        9.488630   0.000000
   55        9.543087   0.000000
   56        9.752091   0.000000
   57        9.913053   0.000000
   58       10.214021   0.000000
   59       10.378843   0.000000
   60       10.526652   0.000000
   61       10.853115   0.000000
   62       11.509966   0.000000
   63       11.857895   0.000000
   64       12.146830   0.000000
   65       12.550852   0.000000
   66       12.965911   0.000000
   67       13.456556   0.000000
   68       13.576691   0.000000
   69       13.701946   0.000000
   70       13.770025   0.000000
   71       14.031549   0.000000
   72       14.408649   0.000000
 
  0.5000000E+00 -0.4166667E+00  0.2000000E+00  0.2777778E-02
    1      -11.138274   1.000000
    2      -10.752450   1.000000
    3      -10.066544   1.000000
    4       -9.133023   1.000000
    5       -8.689341   1.000000
    6       -8.380407   1.000000
    7       -6.644958   1.000000
    8       -6.344476   1.000000
    9       -5.854233   1.000000
   10       -5.286342   1.000000
   11       -4.983588   1.000000
   12       -4.655358   1.000000
   13       -3.403820   1.000000
   14       -3.182678   1.000000
   15       -2.722768   1.000000
   16       -2.125192   1.000000
   17       -2.002799   1.000000
   18       -1.681063   1.000000
   19       -1.569455   1.000000
   20       -1.326392   1.000000
   21       -1.053053   1.000000
   22       -0.713547   1.000000
   23       -0.494795   1.000000
   24       -0.390896   1.000000
   25        0.004331   1.000000
   26        0.179868   1.000000
   27        0.590252   1.000000
   28        0.900581   1.000000
   29        1.011329   1.000000
   30        1.254638   1.000000
   31        1.485318   1.000000
   32        2.074748   1.000000
   33        2.268399   1.000000
   34        2.388100   1.000000
   35        2.558202   1.000000
   36        2.721115   1.000000
   37        2.817249   1.000000
   38        2.981963   1.000000
   39        3.150754   1.000000
   40        3.377546   1.000000
   41        3.501556   1.000000
   42        3.751217   1.000000
   43        3.882519   1.000000
   44        4.127955   1.000000
   45        4.396027   1.000000
   46        4.554684   1.000000
   47        4.795851   1.000000
   48        4.956609   1.000000
   49        6.633140   1.000000
   50        6.788232   0.000000
   51        7.628059   0.000000
   52        8.135450   0.000000
   53        9.025768   0.000000
   54        9.397709   0.000000
   55        9.634492   0.000000
   56        9.835520   0.000000
   57       10.025544   0.000000
   58       10.214184   0.000000
   59       10.323210   0.000000
   60       10.689432   0.000000
   61       10.791026   0.000000
   62       11.387173   0.000000
   63       11.865101   0.000000
   64       12.245629   0.000000
   65       12.571413   0.000000
   66       12.960285   0.000000
   67       13.252315   0.000000
   68       13.461573   0.000000
   69       13.713381   0.000000
   70       13.842776   0.000000
   71       14.265649   0.000000
   72       14.386497   0.000000
 
 -0.3333333E+00 -0.4166667E+00  0.2000000E+00  0.2777778E-02
    1      -11.140718   1.000000
    2      -10.747702   1.000000
    3      -10.063061   1.000000
    4       -9.148500   1.000000
    5       -8.646478   1.000000
    6       -8.440201   1.000000
    7       -6.592740   1.000000
    8       -6.312796   1.000000
    9       -5.784625   1.000000
   10       -5.486607   1.000000
   11       -4.910012   1.000000
   12       -4.683759   1.000000
   13       -3.344672   1.000000
   14       -2.954901   1.000000
   15       -2.654756   1.000000
   16       -2.459787   1.000000
   17       -2.072018   1.000000
   18       -1.809597   1.000000
   19       -1.727246   1.000000
   20       -1.477545   1.000000
   21       -0.788345   1.000000
   22       -0.624973   1.000000
   23       -0.494256   1.000000
   24       -0.327292   1.000000
   25       -0.012941   1.000000
   26        0.228139   1.000000
   27        0.787973   1.000000
   28        0.964499   1.000000
   29        1.160925   1.000000
   30        1.305270   1.000000
   31        1.545082   1.000000
   32        2.025275   1.000000
   33        2.177397   1.000000
   34        2.366006   1.000000
   35        2.466721   1.000000
   36        2.601201   1.000000
   37        2.864286   1.000000
   38        2.999623   1.000000
   39        3.153730   1.000000
   40        3.303135   1.000000
   41        3.477979   1.000000
   42        3.597692   1.000000
   43        3.821364   1.000000
   44        4.041531   1.000000
   45        4.302581   1.000000
   46        4.532349   1.000000
   47        4.955538   1.000000
   48        5.099685   1.000000
   49        6.615403   1.000000
   50        6.794989   0.000000
   51        7.804640   0.000000
   52        8.009826   0.000000
   53        8.955106   0.000000
   54        9.340924   0.000000
   55        9.633427   0.000000
   56        9.903597   0.000000
   57       10.120996   0.000000
   58       10.297934   0.000000
   59       10.305471   0.000000
   60       10.563337   0.000000
   61       10.924732   0.000000
   62       11.276991   0.000000
   63       11.751357   0.000000
   64       12.420949   0.000000
   65       12.770482   0.000000
   66       12.914571   0.000000
   67       13.209588   0.000000
   68       13.569996   0.000000
   69       13.756723   0.000000
   70       13.898129   0.000000
   71       14.180018   0.000000
   72       14.278619   0.000000
 
 -0.1666667E+00 -0.4166667E+00  0.2000000E+00  0.2777778E-02
    1      -11.147828   1.000000
    2      -10.728916   1.000000
    3      -10.076279   1.000000
    4       -9.174292   1.000000
    5       -8.619844   1.000000
    6       -8.424885   1.000000
    7       -6.652876   1.000000
    8       -6.256779   1.000000
    9       -5.922952   1.000000
   10       -5.404792   1.000000
   11       -4.890462   1.000000
   12       -4.448168   1.000000
   13       -3.549300   1.000000
   14       -2.938971   1.000000
   15       -2.648266   1.000000
   16       -2.450108   1.000000
   17       -2.371071   1.000000
   18       -1.865065   1.000000
   19       -1.687850   1.000000
   20       -1.400368   1.000000
   21       -0.947714   1.000000
   22       -0.671793   1.000000
   23       -0.422064   1.000000
   24       -0.052713   1.000000
   25        0.243770   1.000000
   26        0.363573   1.000000
   27        0.733693   1.000000
   28        1.025386   1.000000
   29        1.177487   1.000000
   30        1.434296   1.000000
   31        1.615010   1.000000
   32        1.822454   1.000000
   33        2.051634   1.000000
   34        2.360721   1.000000
   35        2.446215   1.000000
   36        2.582694   1.000000
   37        2.697693   1.000000
   38        2.800886   1.000000
   39        3.029931   1.000000
   40        3.265180   1.000000
   41        3.443417   1.000000
   42        3.679175   1.000000
   43        3.960801   1.000000
   44        4.109444   1.000000
   45        4.240953   1.000000
   46        4.533046   1.000000
   47        4.941188   1.000000
   48        5.197302   1.000000
   49        6.610198   1.000000
   50        6.845413   0.000000
   51        7.836539   0.000000
   52        8.122539   0.000000
   53        8.910297   0.000000
   54        9.351402   0.000000
   55        9.612248   0.000000
   56        9.777727   0.000000
   57       10.001503   0.000000
   58       10.328564   0.000000
   59       10.441367   0.000000
   60       10.587084   0.000000
   61       10.856295   0.000000
   62       11.406864   0.000000
   63       11.740410   0.000000
   64       12.194752   0.000000
   65       12.957375   0.000000
   66       13.163246   0.000000
   67       13.324386   0.000000
   68       13.607716   0.000000
   69       13.766143   0.000000
   70       13.860628   0.000000
   71       14.049999   0.000000
   72       14.347110   0.000000
 
  0.0000000E+00 -0.3333333E+00  0.2000000E+00  0.2777778E-02
    1      -11.194348   1.000000
    2      -10.713380   1.000000
    3      -10.158365   1.000000
    4       -9.063227   1.000000
    5       -8.688798   1.000000
    6       -8.390721   1.000000
    7       -6.714229   1.000000
    8       -6.143415   1.000000
    9       -6.002541   1.000000
   10       -5.309116   1.000000
   11       -4.840992   1.000000
   12       -4.116332   1.000000
   13       -3.550732   1.000000
   14       -2.948045   1.000000
   15       -2.738941   1.000000
   16       -2.514477   1.000000
   17       -2.172381   1.000000
   18       -1.938035   1.000000
   19       -1.415573   1.000000
   20       -1.193629   1.000000
   21       -1.084365   1.000000
   22       -0.825823   1.000000
   23       -0.635432   1.000000
   24       -0.051856   1.000000
   25        0.189417   1.000000
   26        0.383021   1.000000
   27        0.540035   1.000000
   28        0.826303   1.000000
   29        1.095366   1.000000
   30        1.278799   1.000000
   31        1.453108   1.000000
   32        1.643166   1.000000
   33        2.112560   1.000000
   34        2.315417   1.000000
   35        2.460088   1.000000
   36        2.555454   1.000000
   37        2.669832   1.000000
   38        2.855938   1.000000
   39        3.117092   1.000000
   40        3.292763   1.000000
   41        3.424566   1.000000
   42        3.643942   1.000000
   43        3.999587   1.000000
   44        4.108692   1.000000
   45        4.281309   1.000000
   46        4.522362   1.000000
   47        4.891057   1.000000
   48        5.060880   1.000000
   49        6.604451   1.000000
   50        6.904507   0.000000
   51        7.642063   0.000000
   52        8.274368   0.000000
   53        9.057164   0.000000
   54        9.480338   0.000000
   55        9.553941   0.000000
   56        9.889023   0.000000
   57       10.014612   0.000000
   58       10.205489   0.000000
   59       10.336804   0.000000
   60       10.528460   0.000000
   61       10.959725   0.000000
   62       11.631943   0.000000
   63       12.077511   0.000000
   64       12.143337   0.000000
   65       13.066749   0.000000
   66       13.210838   0.000000
   67       13.424806   0.000000
   68       13.530550   0.000000
   69       13.817483   0.000000
   70       14.033844   0.000000
   71       14.180445   0.000000
   72       14.514840   0.000000
 
  0.1666667E+00 -0.3333333E+00  0.2000000E+00  0.2777778E-02
    1      -11.183139   1.000000
    2      -10.734101   1.000000
    3      -10.159584   1.000000
    4       -9.043879   1.000000
    5       -8.703899   1.000000
    6       -8.355915   1.000000
    7       -6.781053   1.000000
    8       -6.135617   1.000000
    9       -6.025305   1.000000
   10       -5.158021   1.000000
   11       -4.848089   1.000000
   12       -4.174941   1.000000
   13       -3.755229   1.000000
   14       -2.991841   1.000000
   15       -2.904704   1.000000
   16       -2.374656   1.000000
   17       -1.986695   1.000000
   18       -1.670593   1.000000
   19       -1.413151   1.000000
   20       -1.262788   1.000000
   21       -0.824486   1.000000
   22       -0.718685   1.000000
   23       -0.559687   1.000000
   24       -0.183501   1.000000
   25       -0.009700   1.000000
   26        0.318801   1.000000
   27        0.500412   1.000000
   28        0.710879   1.000000
   29        0.899919   1.000000
   30        1.071154   1.000000
   31        1.356788   1.000000
   32        1.629517   1.000000
   33        2.015003   1.000000
   34        2.325783   1.000000
   35        2.494147   1.000000
   36        2.602455   1.000000
   37        2.833663   1.000000
   38        2.958319   1.000000
   39        3.195572   1.000000
   40        3.423591   1.000000
   41        3.539048   1.000000
   42        3.773798   1.000000
   43        3.933243   1.000000
   44        4.007244   1.000000
   45        4.352513   1.000000
   46        4.610255   1.000000
   47        4.763968   1.000000
   48        5.003195   1.000000
   49        6.634654   1.034127
   50        6.895987   0.000000
   51        7.625630   0.000000
   52        8.387274   0.000000
   53        9.073146   0.000000
   54        9.438367   0.000000
   55        9.517972   0.000000
   56        9.886721   0.000000
   57       10.008292   0.000000
   58       10.170929   0.000000
   59       10.334177   0.000000
   60       10.535539   0.000000
   61       10.915969   0.000000
   62       11.696359   0.000000
   63       11.886444   0.000000
   64       12.201434   0.000000
   65       12.864996   0.000000
   66       13.071477   0.000000
   67       13.455613   0.000000
   68       13.570983   0.000000
   69       13.827950   0.000000
   70       14.116502   0.000000
   71       14.246924   0.000000
   72       14.367148   0.000000
 
  0.3333333E+00 -0.3333333E+00  0.2000000E+00  0.2777778E-02
    1      -11.167460   1.000000
    2      -10.763956   1.000000
    3      -10.153158   1.000000
    4       -9.026678   1.000000
    5       -8.683704   1.000000
    6       -8.390725   1.000000
    7       -6.759322   1.000000
    8       -6.175839   1.000000
    9       -5.913935   1.000000
   10       -5.090947   1.000000
   11       -4.971356   1.000000
   12       -4.443265   1.000000
   13       -3.739157   1.000000
   14       -3.118928   1.000000
   15       -2.742154   1.000000
   16       -2.119661   1.000000
   17       -1.796861   1.000000
   18       -1.524085   1.000000
   19       -1.297215   1.000000
   20       -1.265175   1.000000
   21       -1.005582   1.000000
   22       -0.628918   1.000000
   23       -0.452824   1.000000
   24       -0.317072   1.000000
   25       -0.150448   1.000000
   26        0.054935   1.000000
   27        0.262265   1.000000
   28        0.586972   1.000000
   29        0.983570   1.000000
   30        1.116082   1.000000
   31        1.301097   1.000000
   32        1.553200   1.000000
   33        2.095147   1.000000
   34        2.270161   1.000000
   35        2.516674   1.000000
   36        2.712794   1.000000
   37        2.820110   1.000000
   38        3.021309   1.000000
   39        3.191441   1.000000
   40        3.482449   1.000000
   41        3.630073   1.000000
   42        3.847346   1.000000
   43        3.979122   1.000000
   44        4.157419   1.000000
   45        4.344241   1.000000
   46        4.563595   1.000000
   47        4.663946   1.000000
   48        4.987612   1.000000
   49        6.667337   0.900687
   50        6.870845   0.000000
   51        7.636699   0.000000
   52        8.253765   0.000000
   53        9.127179   0.000000
   54        9.279467   0.000000
   55        9.555665   0.000000
   56        9.863034   0.000000
   57       10.065232   0.000000
   58       10.242523   0.000000
   59       10.503200   0.000000
   60       10.594771   0.000000
   61       10.838009   0.000000
   62       11.634527   0.000000
   63       11.798050   0.000000
   64       12.294687   0.000000
   65       12.610888   0.000000
   66       12.900250   0.000000
   67       13.523614   0.000000
   68       13.595568   0.000000
   69       13.784931   0.000000
   70       14.019337   0.000000
   71       14.122128   0.000000
   72       14.615318   0.000000
 
  0.5000000E+00 -0.3333333E+00  0.2000000E+00  0.2777778E-02
    1      -11.163796   1.000000
    2      -10.772415   1.000000
    3      -10.145488   1.000000
    4       -9.027420   1.000000
    5       -8.634694   1.000000
    6       -8.474074   1.000000
    7       -6.657009   1.000000
    8       -6.220691   1.000000
    9       -5.769838   1.000000
   10       -5.300960   1.000000
   11       -4.953750   1.000000
   12       -4.641211   1.000000
   13       -3.537068   1.000000
   14       -3.133855   1.000000
   15       -2.640772   1.000000
   16       -1.904951   1.000000
   17       -1.734616   1.000000
   18       -1.572468   1.000000
   19       -1.463303   1.000000
   20       -1.225498   1.000000
   21       -1.018545   1.000000
   22       -0.847728   1.000000
   23       -0.495758   1.000000
   24       -0.295818   1.000000
   25       -0.226666   1.000000
   26       -0.096602   1.000000
   27        0.239250   1.000000
   28        0.771818   1.000000
   29        0.947175   1.000000
   30        1.224860   1.000000
   31        1.356519   1.000000
   32        1.747854   1.000000
   33        2.167661   1.000000
   34        2.232332   1.000000
   35        2.504107   1.000000
   36        2.615695   1.000000
   37        2.797369   1.000000
   38        3.017395   1.000000
   39        3.190852   1.000000
   40        3.344338   1.000000
   41        3.632818   1.000000
   42        3.779738   1.000000
   43        4.024905   1.000000
   44        4.219582   1.000000
   45        4.411963   1.000000
   46        4.530553   1.000000
   47        4.643679   1.000000
   48        5.042799   1.000000
   49        6.674396   0.897346
   50        6.844905   0.000000
   51        7.689898   0.000000
   52        8.028821   0.000000
   53        9.006213   0.000000
   54        9.276836   0.000000
   55        9.679724   0.000000
   56        9.872516   0.000000
   57       10.099687   0.000000
   58       10.296844   0.000000
   59       10.581274   0.000000
   60       10.714095   0.000000
   61       10.887375   0.000000
   62       11.428354   0.000000
   63       11.893315   0.000000
   64       12.271610   0.000000
   65       12.637388   0.000000
   66       12.846077   0.000000
   67       13.580549   0.000000
   68       13.644626   0.000000
   69       13.692420   0.000000
   70       13.755312   0.000000
   71       14.388034   0.000000
   72       14.567201   0.000000
 
 -0.3333333E+00 -0.3333333E+00  0.2000000E+00  0.2777778E-02
    1      -11.176580   1.000000
    2      -10.750814   1.000000
    3      -10.143476   1.000000
    4       -9.045114   1.000000
    5       -8.605984   1.000000
    6       -8.521015   1.000000
    7       -6.591980   1.000000
    8       -6.203029   1.000000
    9       -5.697505   1.000000
   10       -5.557002   1.000000
   11       -4.870985   1.000000
   12       -4.638995   1.000000
   13       -3.270933   1.000000
   14       -3.048233   1.000000
   15       -2.606225   1.000000
   16       -2.134980   1.000000
   17       -1.889508   1.000000
   18       -1.832776   1.000000
   19       -1.501859   1.000000
   20       -1.382617   1.000000
   21       -1.005470   1.000000
   22       -0.783659   1.000000
   23       -0.523915   1.000000
   24       -0.337264   1.000000
   25       -0.130166   1.000000
   26        0.048187   1.000000
   27        0.497644   1.000000
   28        0.757611   1.000000
   29        1.042972   1.000000
   30        1.268896   1.000000
   31        1.610891   1.000000
   32        1.897650   1.000000
   33        2.114707   1.000000
   34        2.224953   1.000000
   35        2.382809   1.000000
   36        2.579142   1.000000
   37        2.833389   1.000000
   38        2.960131   1.000000
   39        3.188024   1.000000
   40        3.284291   1.000000
   41        3.475386   1.000000
   42        3.617485   1.000000
   43        3.871316   1.000000
   44        4.171485   1.000000
   45        4.369870   1.000000
   46        4.579407   1.000000
   47        4.808016   1.000000
   48        5.121453   1.000000
   49        6.632005   1.027947
   50        6.835580   0.000000
   51        7.764510   0.000000
   52        7.906579   0.000000
   53        8.975269   0.000000
   54        9.311548   0.000000
   55        9.711210   0.000000
   56        9.846622   0.000000
   57       10.145783   0.000000
   58       10.367819   0.000000
   59       10.590198   0.000000
   60       10.667698   0.000000
   61       10.935561   0.000000
   62       11.328259   0.000000
   63       11.915748   0.000000
   64       12.441590   0.000000
   65       12.809997   0.000000
   66       12.998373   0.000000
   67       13.210433   0.000000
   68       13.695810   0.000000
   69       13.821834   0.000000
   70       13.946517   0.000000
   71       14.280099   0.000000
   72       14.327839   0.000000
 
 -0.1666667E+00 -0.3333333E+00  0.2000000E+00  0.2777778E-02
    1      -11.191362   1.000000
    2      -10.721751   1.000000
    3      -10.149880   1.000000
    4       -9.063804   1.000000
    5       -8.650006   1.000000
    6       -8.462158   1.000000
    7       -6.629678   1.000000
    8       -6.156565   1.000000
    9       -5.865527   1.000000
   10       -5.490952   1.000000
   11       -4.868146   1.000000
   12       -4.366674   1.000000
   13       -3.302268   1.000000
   14       -2.794905   1.000000
   15       -2.644648   1.000000
   16       -2.461200   1.000000
   17       -2.210268   1.000000
   18       -2.020853   1.000000
   19       -1.454508   1.000000
   20       -1.302275   1.000000
   21       -1.072225   1.000000
   22       -0.806827   1.000000
   23       -0.668639   1.000000
   24       -0.143502   1.000000
   25        0.099124   1.000000
   26        0.257412   1.000000
   27        0.625647   1.000000
   28        0.901069   1.000000
   29        1.117132   1.000000
   30        1.280108   1.000000
   31        1.505413   1.000000
   32        1.873838   1.000000
   33        2.132571   1.000000
   34        2.243753   1.000000
   35        2.450815   1.000000
   36        2.562999   1.000000
   37        2.719377   1.000000
   38        2.863066   1.000000
   39        3.073636   1.000000
   40        3.293281   1.000000
   41        3.357525   1.000000
   42        3.594932   1.000000
   43        3.922706   1.000000
   44        4.091306   1.000000
   45        4.294348   1.000000
   46        4.574643   1.000000
   47        4.923197   1.000000
   48        5.106951   1.000000
   49        6.596334   1.000000
   50        6.869237   0.000000
   51        7.699637   0.000000
   52        8.057627   0.000000
   53        9.034524   0.000000
   54        9.375350   0.000000
   55        9.658005   0.000000
   56        9.826633   0.000000
   57       10.115295   0.000000
   58       10.320016   0.000000
   59       10.481273   0.000000
   60       10.656085   0.000000
   61       10.843968   0.000000
   62       11.489768   0.000000
   63       11.960140   0.000000
   64       12.499253   0.000000
   65       12.859520   0.000000
   66       13.120928   0.000000
   67       13.345225   0.000000
   68       13.682093   0.000000
   69       13.909956   0.000000
   70       14.027806   0.000000
   71       14.095641   0.000000
   72       14.433850   0.000000
 
  0.0000000E+00 -0.2500000E+00  0.2000000E+00  0.2777778E-02
    1      -11.313487   1.000000
    2      -10.720213   1.000000
    3      -10.174418   1.000000
    4       -8.897148   1.000000
    5       -8.799304   1.000000
    6       -8.293013   1.000000
    7       -6.668206   1.000000
    8       -6.089392   1.000000
    9       -5.848967   1.000000
   10       -5.402394   1.000000
   11       -4.752159   1.000000
   12       -4.006191   1.000000
   13       -3.261924   1.000000
   14       -3.017905   1.000000
   15       -2.617287   1.000000
   16       -2.450760   1.000000
   17       -2.225907   1.000000
   18       -2.052385   1.000000
   19       -1.625020   1.000000
   20       -1.397777   1.000000
   21       -1.134519   1.000000
   22       -0.932268   1.000000
   23       -0.506623   1.000000
   24       -0.276194   1.000000
   25        0.076444   1.000000
   26        0.427087   1.000000
   27        0.494660   1.000000
   28        0.723208   1.000000
   29        1.103723   1.000000
   30        1.160709   1.000000
   31        1.307233   1.000000
   32        1.866564   1.000000
   33        2.113587   1.000000
   34        2.188302   1.000000
   35        2.344392   1.000000
   36        2.528815   1.000000
   37        2.605962   1.000000
   38        2.783188   1.000000
   39        2.955592   1.000000
   40        3.281094   1.000000
   41        3.468560   1.000000
   42        3.653878   1.000000
   43        3.858283   1.000000
   44        4.019583   1.000000
   45        4.377921   1.000000
   46        4.583931   1.000000
   47        4.841372   1.000000
   48        5.338880   1.000000
   49        6.621417   1.009415
   50        6.969103   0.000000
   51        7.611157   0.000000
   52        8.172306   0.000000
   53        9.247116   0.000000
   54        9.327661   0.000000
   55        9.586510   0.000000
   56        9.913286   0.000000
   57       10.064136   0.000000
   58       10.386232   0.000000
   59       10.491633   0.000000
   60       10.721677   0.000000
   61       11.195182   0.000000
   62       11.662125   0.000000
   63       12.361745   0.000000
   64       12.478211   0.000000
   65       12.802383   0.000000
   66       13.201981   0.000000
   67       13.455295   0.000000
   68       13.624632   0.000000
   69       13.843576   0.000000
   70       14.245841   0.000000
   71       14.390593   0.000000
   72       14.521675   0.000000
 
  0.1666667E+00 -0.2500000E+00  0.2000000E+00  0.2777778E-02
    1      -11.299093   1.000000
    2      -10.754783   1.000000
    3      -10.164741   1.000000
    4       -8.889863   1.000000
    5       -8.758587   1.000000
    6       -8.312077   1.000000
    7       -6.729117   1.000000
    8       -6.103102   1.000000
    9       -5.831943   1.000000
   10       -5.250992   1.000000
   11       -4.791991   1.000000
   12       -4.130128   1.000000
   13       -3.483443   1.000000
   14       -3.027768   1.000000
   15       -2.721224   1.000000
   16       -2.235938   1.000000
   17       -2.088179   1.000000
   18       -1.842800   1.000000
   19       -1.574167   1.000000
   20       -1.333255   1.000000
   21       -1.081834   1.000000
   22       -0.850189   1.000000
   23       -0.548087   1.000000
   24       -0.294147   1.000000
   25       -0.048788   1.000000
   26        0.215289   1.000000
   27        0.522638   1.000000
   28        0.768545   1.000000
   29        0.905731   1.000000
   30        1.039214   1.000000
   31        1.164201   1.000000
   32        1.746507   1.000000
   33        2.172393   1.000000
   34        2.205423   1.000000
   35        2.433493   1.000000
   36        2.522386   1.000000
   37        2.667909   1.000000
   38        2.890252   1.000000
   39        3.063625   1.000000
   40        3.237985   1.000000
   41        3.556319   1.000000
   42        3.668925   1.000000
   43        3.985716   1.000000
   44        4.036241   1.000000
   45        4.336514   1.000000
   46        4.554515   1.000000
   47        4.844645   1.000000
   48        5.246089   1.000000
   49        6.654274   0.936892
   50        6.974191   0.000000
   51        7.662961   0.000000
   52        8.211032   0.000000
   53        9.241755   0.000000
   54        9.328199   0.000000
   55        9.610852   0.000000
   56        9.957264   0.000000
   57       10.108308   0.000000
   58       10.244400   0.000000
   59       10.467022   0.000000
   60       10.754000   0.000000
   61       10.999596   0.000000
   62       11.648195   0.000000
   63       12.261393   0.000000
   64       12.486111   0.000000
   65       12.887521   0.000000
   66       13.181156   0.000000
   67       13.280691   0.000000
   68       13.625308   0.000000
   69       13.912179   0.000000
   70       14.259487   0.000000
   71       14.364076   0.000000
   72       14.622530   0.000000
 
  0.3333333E+00 -0.2500000E+00  0.2000000E+00  0.2777778E-02
    1      -11.274201   1.000000
    2      -10.806658   1.000000
    3      -10.151367   1.000000
    4       -8.892360   1.000000
    5       -8.659447   1.000000
    6       -8.395013   1.000000
    7       -6.731147   1.000000
    8       -6.096201   1.000000
    9       -5.749223   1.000000
   10       -5.134221   1.000000
   11       -4.948597   1.000000
   12       -4.348567   1.000000
   13       -3.614650   1.000000
   14       -3.160367   1.000000
   15       -2.643248   1.000000
   16       -2.007473   1.000000
   17       -1.901995   1.000000
   18       -1.572026   1.000000
   19       -1.462192   1.000000
   20       -1.206168   1.000000
   21       -1.005884   1.000000
   22       -0.700238   1.000000
   23       -0.610539   1.000000
   24       -0.341590   1.000000
   25       -0.281355   1.000000
   26       -0.056545   1.000000
   27        0.236829   1.000000
   28        0.572559   1.000000
   29        0.856717   1.000000
   30        1.008391   1.000000
   31        1.328082   1.000000
   32        1.710268   1.000000
   33        1.978058   1.000000
   34        2.191511   1.000000
   35        2.430616   1.000000
   36        2.538244   1.000000
   37        2.713373   1.000000
   38        3.079830   1.000000
   39        3.153802   1.000000
   40        3.219070   1.000000
   41        3.477209   1.000000
   42        3.890855   1.000000
   43        3.985518   1.000000
   44        4.194340   1.000000
   45        4.255719   1.000000
   46        4.606702   1.000000
   47        4.837808   1.000000
   48        5.196458   1.000000
   49        6.720801   0.264251
   50        6.956425   0.000000
   51        7.717637   0.000000
   52        8.062325   0.000000
   53        9.038746   0.000000
   54        9.358724   0.000000
   55        9.723072   0.000000
   56        9.948863   0.000000
   57       10.192341   0.000000
   58       10.423948   0.000000
   59       10.552148   0.000000
   60       10.735106   0.000000
   61       10.922393   0.000000
   62       11.565719   0.000000
   63       12.085313   0.000000
   64       12.488120   0.000000
   65       12.716371   0.000000
   66       12.993346   0.000000
   67       13.475044   0.000000
   68       13.682956   0.000000
   69       13.914574   0.000000
   70       14.085512   0.000000
   71       14.498029   0.000000
   72       14.575101   0.000000
 
  0.5000000E+00 -0.2500000E+00  0.2000000E+00  0.2777778E-02
    1      -11.264565   1.000000
    2      -10.824256   1.000000
    3      -10.146579   1.000000
    4       -8.895424   1.000000
    5       -8.586697   1.000000
    6       -8.479424   1.000000
    7       -6.659607   1.000000
    8       -6.117552   1.000000
    9       -5.642834   1.000000
   10       -5.279674   1.000000
   11       -4.925434   1.000000
   12       -4.497678   1.000000
   13       -3.566888   1.000000
   14       -3.222753   1.000000
   15       -2.614273   1.000000
   16       -1.902451   1.000000
   17       -1.732338   1.000000
   18       -1.602755   1.000000
   19       -1.365883   1.000000
   20       -1.117379   1.000000
   21       -0.922198   1.000000
   22       -0.796597   1.000000
   23       -0.593003   1.000000
   24       -0.517300   1.000000
   25       -0.250278   1.000000
   26       -0.166866   1.000000
   27        0.066616   1.000000
   28        0.488375   1.000000
   29        0.884018   1.000000
   30        1.138405   1.000000
   31        1.497892   1.000000
   32        1.584625   1.000000
   33        1.971175   1.000000
   34        2.138371   1.000000
   35        2.357703   1.000000
   36        2.541165   1.000000
   37        2.778316   1.000000
   38        3.057705   1.000000
   39        3.152850   1.000000
   40        3.236751   1.000000
   41        3.491039   1.000000
   42        3.721686   1.000000
   43        4.016355   1.000000
   44        4.225269   1.000000
   45        4.410928   1.000000
   46        4.600217   1.000000
   47        4.853771   1.000000
   48        5.268623   1.000000
   49        6.772442  -0.127469
   50        6.925670   0.000000
   51        7.702836   0.000000
   52        7.894872   0.000000
   53        8.922688   0.000000
   54        9.331997   0.000000
   55        9.720021   0.000000
   56       10.007316   0.000000
   57       10.244756   0.000000
   58       10.524767   0.000000
   59       10.690506   0.000000
   60       10.829749   0.000000
   61       11.034358   0.000000
   62       11.522383   0.000000
   63       11.966612   0.000000
   64       12.396911   0.000000
   65       12.701212   0.000000
   66       12.887334   0.000000
   67       13.511899   0.000000
   68       13.704679   0.000000
   69       13.863418   0.000000
   70       14.104326   0.000000
   71       14.435676   0.000000
   72       14.607444   0.000000
 
 -0.3333333E+00 -0.2500000E+00  0.2000000E+00  0.2777778E-02
    1      -11.282350   1.000000
    2      -10.788832   1.000000
    3      -10.153726   1.000000
    4       -8.896203   1.000000
    5       -8.692596   1.000000
    6       -8.399318   1.000000
    7       -6.595408   1.000000
    8       -6.107559   1.000000
    9       -5.646830   1.000000
   10       -5.498711   1.000000
   11       -4.748167   1.000000
   12       -4.509060   1.000000
   13       -3.381926   1.000000
   14       -3.181107   1.000000
   15       -2.604370   1.000000
   16       -1.994608   1.000000
   17       -1.877653   1.000000
   18       -1.662410   1.000000
   19       -1.470290   1.000000
   20       -1.387068   1.000000
   21       -1.098220   1.000000
   22       -0.865010   1.000000
   23       -0.617053   1.000000
   24       -0.327553   1.000000
   25       -0.079068   1.000000
   26       -0.032556   1.000000
   27        0.313595   1.000000
   28        0.673148   1.000000
   29        0.890172   1.000000
   30        1.133718   1.000000
   31        1.381957   1.000000
   32        1.757768   1.000000
   33        2.006195   1.000000
   34        2.187220   1.000000
   35        2.316381   1.000000
   36        2.511680   1.000000
   37        2.739439   1.000000
   38        3.027293   1.000000
   39        3.059510   1.000000
   40        3.223693   1.000000
   41        3.365403   1.000000
   42        3.641181   1.000000
   43        4.039922   1.000000
   44        4.225387   1.000000
   45        4.347735   1.000000
   46        4.580873   1.000000
   47        4.902483   1.000000
   48        5.368994   1.000000
   49        6.732070   0.186935
   50        6.914153   0.000000
   51        7.604606   0.000000
   52        7.925588   0.000000
   53        8.946790   0.000000
   54        9.289865   0.000000
   55        9.694094   0.000000
   56        9.964595   0.000000
   57       10.286632   0.000000
   58       10.501030   0.000000
   59       10.751675   0.000000
   60       10.985197   0.000000
   61       11.125340   0.000000
   62       11.471146   0.000000
   63       12.033734   0.000000
   64       12.368404   0.000000
   65       12.806801   0.000000
   66       12.976520   0.000000
   67       13.421389   0.000000
   68       13.761474   0.000000
   69       13.823465   0.000000
   70       14.099576   0.000000
   71       14.405908   0.000000
   72       14.474500   0.000000
 
 -0.1666667E+00 -0.2500000E+00  0.2000000E+00  0.2777778E-02
    1      -11.306029   1.000000
    2      -10.737187   1.000000
    3      -10.168005   1.000000
    4       -8.899275   1.000000
    5       -8.776987   1.000000
    6       -8.326045   1.000000
    7       -6.609205   1.000000
    8       -6.062938   1.000000
    9       -5.786080   1.000000
   10       -5.518653   1.000000
   11       -4.741220   1.000000
   12       -4.221249   1.000000
   13       -3.210536   1.000000
   14       -3.047812   1.000000
   15       -2.598305   1.000000
   16       -2.338985   1.000000
   17       -2.159987   1.000000
   18       -1.881180   1.000000
   19       -1.591902   1.000000
   20       -1.413767   1.000000
   21       -1.216321   1.000000
   22       -0.941912   1.000000
   23       -0.521130   1.000000
   24       -0.216341   1.000000
   25        0.059803   1.000000
   26        0.188903   1.000000
   27        0.487950   1.000000
   28        0.870815   1.000000
   29        0.951992   1.000000
   30        1.109857   1.000000
   31        1.500481   1.000000
   32        1.784413   1.000000
   33        2.007401   1.000000
   34        2.134746   1.000000
   35        2.410769   1.000000
   36        2.478346   1.000000
   37        2.724974   1.000000
   38        2.818008   1.000000
   39        2.946729   1.000000
   40        3.204708   1.000000
   41        3.447876   1.000000
   42        3.620654   1.000000
   43        3.929316   1.000000
   44        4.119432   1.000000
   45        4.366095   1.000000
   46        4.562468   1.000000
   47        4.891159   1.000000
   48        5.391141   1.000000
   49        6.650620   0.935720
   50        6.937129   0.000000
   51        7.585523   0.000000
   52        8.040872   0.000000
   53        9.095456   0.000000
   54        9.261578   0.000000
   55        9.687308   0.000000
   56        9.890835   0.000000
   57       10.214761   0.000000
   58       10.470708   0.000000
   59       10.642560   0.000000
   60       10.846911   0.000000
   61       11.202324   0.000000
   62       11.579467   0.000000
   63       12.201020   0.000000
   64       12.464815   0.000000
   65       12.863948   0.000000
   66       13.114769   0.000000
   67       13.349969   0.000000
   68       13.669570   0.000000
   69       13.978434   0.000000
   70       14.211184   0.000000
   71       14.340110   0.000000
   72       14.510495   0.000000
 
  0.0000000E+00 -0.1666667E+00  0.2000000E+00  0.2777778E-02
    1      -11.449105   1.000000
    2      -10.753573   1.000000
    3      -10.145893   1.000000
    4       -8.896541   1.000000
    5       -8.710800   1.000000
    6       -8.139655   1.000000
    7       -6.646779   1.000000
    8       -6.026015   1.000000
    9       -5.760283   1.000000
   10       -5.393760   1.000000
   11       -4.582788   1.000000
   12       -3.871442   1.000000
   13       -3.153357   1.000000
   14       -3.090956   1.000000
   15       -2.633650   1.000000
   16       -2.516539   1.000000
   17       -2.322420   1.000000
   18       -1.993848   1.000000
   19       -1.778493   1.000000
   20       -1.648541   1.000000
   21       -1.356932   1.000000
   22       -0.954335   1.000000
   23       -0.568749   1.000000
   24       -0.346194   1.000000
   25       -0.055168   1.000000
   26        0.357380   1.000000
   27        0.612391   1.000000
   28        0.766243   1.000000
   29        1.027371   1.000000
   30        1.185430   1.000000
   31        1.491150   1.000000
   32        1.684761   1.000000
   33        1.866532   1.000000
   34        2.055511   1.000000
   35        2.365198   1.000000
   36        2.451259   1.000000
   37        2.547486   1.000000
   38        2.837988   1.000000
   39        3.018234   1.000000
   40        3.149209   1.000000
   41        3.386010   1.000000
   42        3.473194   1.000000
   43        3.855476   1.000000
   44        4.147170   1.000000
   45        4.312909   1.000000
   46        4.737871   1.000000
   47        5.039297   1.000000
   48        5.612369   1.000000
   49        6.701041   0.381037
   50        7.055681   0.000000
   51        7.648127   0.000000
   52        8.116308   0.000000
   53        9.164743   0.000000
   54        9.372650   0.000000
   55        9.497765   0.000000
   56        9.874983   0.000000
   57       10.221800   0.000000
   58       10.482694   0.000000
   59       10.831831   0.000000
   60       11.049200   0.000000
   61       11.468325   0.000000
   62       11.669167   0.000000
   63       12.433990   0.000000
   64       12.663073   0.000000
   65       12.787477   0.000000
   66       13.242195   0.000000
   67       13.491592   0.000000
   68       13.658399   0.000000
   69       13.904717   0.000000
   70       14.289249   0.000000
   71       14.416723   0.000000
   72       14.533585   0.000000
 
  0.1666667E+00 -0.1666667E+00  0.2000000E+00  0.2777778E-02
    1      -11.437549   1.000000
    2      -10.788728   1.000000
    3      -10.127377   1.000000
    4       -8.867347   1.000000
    5       -8.696712   1.000000
    6       -8.170470   1.000000
    7       -6.692986   1.000000
    8       -6.035090   1.000000
    9       -5.722323   1.000000
   10       -5.288578   1.000000
   11       -4.685741   1.000000
   12       -4.008881   1.000000
   13       -3.173867   1.000000
   14       -3.122001   1.000000
   15       -2.616725   1.000000
   16       -2.280419   1.000000
   17       -2.194735   1.000000
   18       -1.960880   1.000000
   19       -1.807872   1.000000
   20       -1.646592   1.000000
   21       -1.246318   1.000000
   22       -0.999423   1.000000
   23       -0.573488   1.000000
   24       -0.435507   1.000000
   25       -0.172975   1.000000
   26        0.206484   1.000000
   27        0.532948   1.000000
   28        0.802490   1.000000
   29        0.900375   1.000000
   30        1.136574   1.000000
   31        1.413654   1.000000
   32        1.876256   1.000000
   33        1.965654   1.000000
   34        2.171022   1.000000
   35        2.250001   1.000000
   36        2.423971   1.000000
   37        2.714082   1.000000
   38        2.809672   1.000000
   39        3.031878   1.000000
   40        3.247891   1.000000
   41        3.316154   1.000000
   42        3.536361   1.000000
   43        3.908125   1.000000
   44        4.065656   1.000000
   45        4.345652   1.000000
   46        4.711902   1.000000
   47        5.017873   1.000000
   48        5.521254   1.000000
   49        6.694216   0.458452
   50        7.066043   0.000000
   51        7.743109   0.000000
   52        8.065353   0.000000
   53        9.114050   0.000000
   54        9.442993   0.000000
   55        9.710437   0.000000
   56       10.000083   0.000000
   57       10.115422   0.000000
   58       10.367182   0.000000
   59       10.712070   0.000000
   60       10.997596   0.000000
   61       11.189428   0.000000
   62       11.611194   0.000000
   63       12.563451   0.000000
   64       12.805460   0.000000
   65       12.834929   0.000000
   66       13.239318   0.000000
   67       13.337847   0.000000
   68       13.757127   0.000000
   69       13.873850   0.000000
   70       14.183495   0.000000
   71       14.403114   0.000000
   72       14.704356   0.000000
 
  0.3333333E+00 -0.1666667E+00  0.2000000E+00  0.2777778E-02
    1      -11.407208   1.000000
    2      -10.863130   1.000000
    3      -10.095561   1.000000
    4       -8.836591   1.000000
    5       -8.612382   1.000000
    6       -8.274648   1.000000
    7       -6.709562   1.000000
    8       -6.022257   1.000000
    9       -5.665705   1.000000
   10       -5.125986   1.000000
   11       -4.896548   1.000000
   12       -4.141479   1.000000
   13       -3.358557   1.000000
   14       -3.257845   1.000000
   15       -2.644374   1.000000
   16       -2.150472   1.000000
   17       -1.960500   1.000000
   18       -1.723807   1.000000
   19       -1.551204   1.000000
   20       -1.400044   1.000000
   21       -1.256140   1.000000
   22       -0.898267   1.000000
   23       -0.684682   1.000000
   24       -0.516544   1.000000
   25       -0.344684   1.000000
   26        0.011604   1.000000
   27        0.532855   1.000000
   28        0.583640   1.000000
   29        0.720958   1.000000
   30        0.886532   1.000000
   31        1.554547   1.000000
   32        1.853532   1.000000
   33        2.026592   1.000000
   34        2.193873   1.000000
   35        2.311781   1.000000
   36        2.443763   1.000000
   37        2.623971   1.000000
   38        2.873437   1.000000
   39        3.110075   1.000000
   40        3.217906   1.000000
   41        3.363082   1.000000
   42        3.819883   1.000000
   43        3.844495   1.000000
   44        4.163564   1.000000
   45        4.237254   1.000000
   46        4.695709   1.000000
   47        5.031489   1.000000
   48        5.458434   1.000000
   49        6.744040   0.038531
   50        7.058441   0.000000
   51        7.754825   0.000000
   52        7.979866   0.000000
   53        9.033659   0.000000
   54        9.457518   0.000000
   55        9.876709   0.000000
   56       10.098849   0.000000
   57       10.248873   0.000000
   58       10.365626   0.000000
   59       10.689371   0.000000
   60       10.848761   0.000000
   61       11.150897   0.000000
   62       11.527781   0.000000
   63       12.435028   0.000000
   64       12.760209   0.000000
   65       12.872690   0.000000
   66       13.251424   0.000000
   67       13.324598   0.000000
   68       13.761439   0.000000
   69       14.008920   0.000000
   70       14.136053   0.000000
   71       14.337717   0.000000
   72       14.705217   0.000000
 
  0.5000000E+00 -0.1666667E+00  0.2000000E+00  0.2777778E-02
    1      -11.387040   1.000000
    2      -10.904165   1.000000
    3      -10.081813   1.000000
    4       -8.832338   1.000000
    5       -8.500480   1.000000
    6       -8.392339   1.000000
    7       -6.672907   1.000000
    8       -6.035979   1.000000
    9       -5.613599   1.000000
   10       -5.167026   1.000000
   11       -4.877744   1.000000
   12       -4.218310   1.000000
   13       -3.467813   1.000000
   14       -3.338351   1.000000
   15       -2.698785   1.000000
   16       -2.144272   1.000000
   17       -1.834761   1.000000
   18       -1.700120   1.000000
   19       -1.463061   1.000000
   20       -1.143920   1.000000
   21       -1.051809   1.000000
   22       -0.843576   1.000000
   23       -0.705536   1.000000
   24       -0.496069   1.000000
   25       -0.305185   1.000000
   26       -0.102858   1.000000
   27        0.205865   1.000000
   28        0.422907   1.000000
   29        0.697743   1.000000
   30        0.903078   1.000000
   31        1.493757   1.000000
   32        1.777058   1.000000
   33        1.965982   1.000000
   34        2.252698   1.000000
   35        2.351165   1.000000
   36        2.456274   1.000000
   37        2.716479   1.000000
   38        2.839035   1.000000
   39        3.156581   1.000000
   40        3.241757   1.000000
   41        3.358354   1.000000
   42        3.711546   1.000000
   43        3.856934   1.000000
   44        4.128606   1.000000
   45        4.421009   1.000000
   46        4.645906   1.000000
   47        5.078567   1.000000
   48        5.500077   1.000000
   49        6.828379  -0.032251
   50        7.023302   0.000000
   51        7.616114   0.000000
   52        8.006456   0.000000
   53        8.971707   0.000000
   54        9.409010   0.000000
   55        9.757709   0.000000
   56       10.147459   0.000000
   57       10.348023   0.000000
   58       10.448441   0.000000
   59       10.851732   0.000000
   60       11.038184   0.000000
   61       11.199363   0.000000
   62       11.530275   0.000000
   63       12.233373   0.000000
   64       12.639139   0.000000
   65       12.847532   0.000000
   66       13.124968   0.000000
   67       13.375949   0.000000
   68       13.676035   0.000000
   69       14.109449   0.000000
   70       14.222328   0.000000
   71       14.469081   0.000000
   72       14.567054   0.000000
 
 -0.3333333E+00 -0.1666667E+00  0.2000000E+00  0.2777778E-02
    1      -11.402568   1.000000
    2      -10.870092   1.000000
    3      -10.094711   1.000000
    4       -8.854124   1.000000
    5       -8.587361   1.000000
    6       -8.295312   1.000000
    7       -6.623683   1.000000
    8       -6.049401   1.000000
    9       -5.636123   1.000000
   10       -5.348072   1.000000
   11       -4.622953   1.000000
   12       -4.225221   1.000000
   13       -3.440549   1.000000
   14       -3.314326   1.000000
   15       -2.733360   1.000000
   16       -2.191913   1.000000
   17       -1.947399   1.000000
   18       -1.754001   1.000000
   19       -1.665841   1.000000
   20       -1.223230   1.000000
   21       -1.062045   1.000000
   22       -0.886839   1.000000
   23       -0.529862   1.000000
   24       -0.382381   1.000000
   25       -0.236885   1.000000
   26        0.036335   1.000000
   27        0.283583   1.000000
   28        0.586346   1.000000
   29        0.769243   1.000000
   30        0.901211   1.000000
   31        1.471943   1.000000
   32        1.595031   1.000000
   33        1.824790   1.000000
   34        2.135406   1.000000
   35        2.387959   1.000000
   36        2.480480   1.000000
   37        2.801454   1.000000
   38        2.925288   1.000000
   39        3.053141   1.000000
   40        3.272761   1.000000
   41        3.379611   1.000000
   42        3.587235   1.000000
   43        3.914796   1.000000
   44        4.033884   1.000000
   45        4.309777   1.000000
   46        4.720433   1.000000
   47        5.130660   1.000000
   48        5.609573   1.000000
   49        6.864244  -0.003841
   50        6.987776   0.000000
   51        7.534067   0.000000
   52        8.045115   0.000000
   53        8.974690   0.000000
   54        9.323937   0.000000
   55        9.682474   0.000000
   56        9.970408   0.000000
   57       10.382238   0.000000
   58       10.578587   0.000000
   59       10.972702   0.000000
   60       11.207361   0.000000
   61       11.387998   0.000000
   62       11.635690   0.000000
   63       12.060195   0.000000
   64       12.566414   0.000000
   65       12.899068   0.000000
   66       13.094402   0.000000
   67       13.285386   0.000000
   68       13.635778   0.000000
   69       14.078408   0.000000
   70       14.275863   0.000000
   71       14.489147   0.000000
   72       14.611350   0.000000
 
 -0.1666667E+00 -0.1666667E+00  0.2000000E+00  0.2777778E-02
    1      -11.433624   1.000000
    2      -10.795299   1.000000
    3      -10.126217   1.000000
    4       -8.887624   1.000000
    5       -8.673983   1.000000
    6       -8.186072   1.000000
    7       -6.615427   1.000000
    8       -6.024114   1.000000
    9       -5.729898   1.000000
   10       -5.417809   1.000000
   11       -4.546197   1.000000
   12       -4.006044   1.000000
   13       -3.299821   1.000000
   14       -3.224217   1.000000
   15       -2.733784   1.000000
   16       -2.326722   1.000000
   17       -2.196712   1.000000
   18       -1.933992   1.000000
   19       -1.676756   1.000000
   20       -1.425730   1.000000
   21       -1.351344   1.000000
   22       -0.889264   1.000000
   23       -0.525098   1.000000
   24       -0.439677   1.000000
   25       -0.038166   1.000000
   26        0.332543   1.000000
   27        0.556029   1.000000
   28        0.734369   1.000000
   29        0.956382   1.000000
   30        1.096316   1.000000
   31        1.227336   1.000000
   32        1.716600   1.000000
   33        1.839112   1.000000
   34        2.053369   1.000000
   35        2.244555   1.000000
   36        2.412773   1.000000
   37        2.736728   1.000000
   38        2.931737   1.000000
   39        2.959879   1.000000
   40        3.250978   1.000000
   41        3.351142   1.000000
   42        3.686950   1.000000
   43        3.822796   1.000000
   44        4.095594   1.000000
   45        4.197542   1.000000
   46        4.762244   1.000000
   47        5.105623   1.000000
   48        5.656266   1.000000
   49        6.774029  -0.052934
   50        7.024208   0.000000
   51        7.562966   0.000000
   52        8.088902   0.000000
   53        9.068769   0.000000
   54        9.274537   0.000000
   55        9.622423   0.000000
   56        9.840157   0.000000
   57       10.358004   0.000000
   58       10.552182   0.000000
   59       10.956067   0.000000
   60       11.163955   0.000000
   61       11.527067   0.000000
   62       11.702225   0.000000
   63       12.162017   0.000000
   64       12.556696   0.000000
   65       12.924072   0.000000
   66       13.104989   0.000000
   67       13.316731   0.000000
   68       13.838702   0.000000
   69       13.954567   0.000000
   70       14.182096   0.000000
   71       14.424674   0.000000
   72       14.590769   0.000000
 
  0.0000000E+00 -0.8333333E-01  0.2000000E+00  0.2777778E-02
    1      -11.562839   1.000000
    2      -10.799633   1.000000
    3      -10.100253   1.000000
    4       -8.940039   1.000000
    5       -8.507764   1.000000
    6       -8.011372   1.000000
    7       -6.706630   1.000000
    8       -5.955146   1.000000
    9       -5.806685   1.000000
   10       -5.196001   1.000000
   11       -4.386711   1.000000
   12       -3.756247   1.000000
   13       -3.290008   1.000000
   14       -3.085986   1.000000
   15       -2.826970   1.000000
   16       -2.601130   1.000000
   17       -2.474131   1.000000
   18       -2.043262   1.000000
   19       -1.782070   1.000000
   20       -1.675468   1.000000
   21       -1.368599   1.000000
   22       -1.144560   1.000000
   23       -0.608200   1.000000
   24       -0.467029   1.000000
   25       -0.023099   1.000000
   26        0.304962   1.000000
   27        0.430754   1.000000
   28        0.643316   1.000000
   29        0.943394   1.000000
   30        1.234492   1.000000
   31        1.462268   1.000000
   32        1.681174   1.000000
   33        1.966784   1.000000
   34        2.038587   1.000000
   35        2.278225   1.000000
   36        2.365546   1.000000
   37        2.615943   1.000000
   38        2.808192   1.000000
   39        3.010655   1.000000
   40        3.220692   1.000000
   41        3.362908   1.000000
   42        3.639561   1.000000
   43        3.895283   1.000000
   44        3.996373   1.000000
   45        4.537089   1.000000
   46        4.876903   1.000000
   47        5.070066   1.000000
   48        5.797401   1.000000
   49        6.838192   0.000000
   50        7.126075   0.000000
   51        7.737729   0.000000
   52        8.024835   0.000000
   53        9.109671   0.000000
   54        9.387826   0.000000
   55        9.545453   0.000000
   56        9.866349   0.000000
   57       10.369689   0.000000
   58       10.535588   0.000000
   59       11.023686   0.000000
   60       11.280513   0.000000
   61       11.613048   0.000000
   62       11.775270   0.000000
   63       12.210377   0.000000
   64       12.663752   0.000000
   65       13.018204   0.000000
   66       13.347433   0.000000
   67       13.489008   0.000000
   68       13.681144   0.000000
   69       14.024701   0.000000
   70       14.079161   0.000000
   71       14.312523   0.000000
   72       14.382910   0.000000
 
  0.1666667E+00 -0.8333333E-01  0.2000000E+00  0.2777778E-02
    1      -11.557713   1.000000
    2      -10.819745   1.000000
    3      -10.083427   1.000000
    4       -8.907216   1.000000
    5       -8.544594   1.000000
    6       -8.007623   1.000000
    7       -6.726798   1.000000
    8       -5.946406   1.000000
    9       -5.799521   1.000000
   10       -5.117229   1.000000
   11       -4.550695   1.000000
   12       -3.838168   1.000000
   13       -3.327466   1.000000
   14       -2.923848   1.000000
   15       -2.694613   1.000000
   16       -2.520475   1.000000
   17       -2.347775   1.000000
   18       -2.113480   1.000000
   19       -1.846771   1.000000
   20       -1.638157   1.000000
   21       -1.319434   1.000000
   22       -1.245946   1.000000
   23       -0.748893   1.000000
   24       -0.453681   1.000000
   25       -0.070060   1.000000
   26        0.080064   1.000000
   27        0.373530   1.000000
   28        0.621511   1.000000
   29        1.005443   1.000000
   30        1.345983   1.000000
   31        1.475549   1.000000
   32        1.684284   1.000000
   33        1.875698   1.000000
   34        2.053229   1.000000
   35        2.370091   1.000000
   36        2.527549   1.000000
   37        2.699260   1.000000
   38        2.885183   1.000000
   39        3.051141   1.000000
   40        3.186714   1.000000
   41        3.378409   1.000000
   42        3.600791   1.000000
   43        3.852442   1.000000
   44        4.029391   1.000000
   45        4.555050   1.000000
   46        4.803591   1.000000
   47        4.989004   1.000000
   48        5.728204   1.000000
   49        6.799124  -0.019727
   50        7.131740   0.000000
   51        7.780473   0.000000
   52        7.999139   0.000000
   53        9.138450   0.000000
   54        9.446323   0.000000
   55        9.792197   0.000000
   56        9.939583   0.000000
   57       10.274957   0.000000
   58       10.427860   0.000000
   59       10.830911   0.000000
   60       11.144451   0.000000
   61       11.436210   0.000000
   62       11.658529   0.000000
   63       12.443719   0.000000
   64       12.684107   0.000000
   65       13.106835   0.000000
   66       13.413404   0.000000
   67       13.469177   0.000000
   68       13.720559   0.000000
   69       13.968023   0.000000
   70       14.109179   0.000000
   71       14.271255   0.000000
   72       14.476578   0.000000
 
  0.3333333E+00 -0.8333333E-01  0.2000000E+00  0.2777778E-02
    1      -11.526994   1.000000
    2      -10.907284   1.000000
    3      -10.026830   1.000000
    4       -8.847158   1.000000
    5       -8.536905   1.000000
    6       -8.078525   1.000000
    7       -6.740370   1.000000
    8       -5.936098   1.000000
    9       -5.766358   1.000000
   10       -4.993787   1.000000
   11       -4.768914   1.000000
   12       -3.879672   1.000000
   13       -3.425872   1.000000
   14       -3.039810   1.000000
   15       -2.690463   1.000000
   16       -2.461081   1.000000
   17       -2.163389   1.000000
   18       -1.883560   1.000000
   19       -1.733616   1.000000
   20       -1.523165   1.000000
   21       -1.387348   1.000000
   22       -1.025754   1.000000
   23       -0.828794   1.000000
   24       -0.628407   1.000000
   25       -0.234308   1.000000
   26        0.051779   1.000000
   27        0.251689   1.000000
   28        0.569429   1.000000
   29        0.773024   1.000000
   30        1.122412   1.000000
   31        1.577327   1.000000
   32        1.832747   1.000000
   33        1.980830   1.000000
   34        2.168651   1.000000
   35        2.373316   1.000000
   36        2.605189   1.000000
   37        2.756918   1.000000
   38        2.904028   1.000000
   39        3.125159   1.000000
   40        3.207016   1.000000
   41        3.348879   1.000000
   42        3.614651   1.000000
   43        3.783225   1.000000
   44        4.145830   1.000000
   45        4.409794   1.000000
   46        4.696213   1.000000
   47        5.015790   1.000000
   48        5.649121   1.000000
   49        6.806798  -0.042877
   50        7.122839   0.000000
   51        7.681064   0.000000
   52        8.103237   0.000000
   53        9.162611   0.000000
   54        9.513214   0.000000
   55       10.012349   0.000000
   56       10.134267   0.000000
   57       10.274115   0.000000
   58       10.333584   0.000000
   59       10.643676   0.000000
   60       11.059733   0.000000
   61       11.325526   0.000000
   62       11.625708   0.000000
   63       12.512051   0.000000
   64       12.792664   0.000000
   65       13.028720   0.000000
   66       13.316311   0.000000
   67       13.497928   0.000000
   68       13.814151   0.000000
   69       14.011704   0.000000
   70       14.107162   0.000000
   71       14.197336   0.000000
   72       14.583355   0.000000
 
  0.5000000E+00 -0.8333333E-01  0.2000000E+00  0.2777778E-02
    1      -11.497149   1.000000
    2      -10.974632   1.000000
    3       -9.992132   1.000000
    4       -8.825885   1.000000
    5       -8.460304   1.000000
    6       -8.178275   1.000000
    7       -6.730822   1.000000
    8       -5.948217   1.000000
    9       -5.730993   1.000000
   10       -5.038938   1.000000
   11       -4.728620   1.000000
   12       -3.887794   1.000000
   13       -3.493333   1.000000
   14       -3.170242   1.000000
   15       -2.833643   1.000000
   16       -2.452190   1.000000
   17       -2.083481   1.000000
   18       -1.836793   1.000000
   19       -1.555188   1.000000
   20       -1.341340   1.000000
   21       -1.247069   1.000000
   22       -1.079061   1.000000
   23       -0.827289   1.000000
   24       -0.455174   1.000000
   25       -0.223064   1.000000
   26       -0.078907   1.000000
   27        0.151720   1.000000
   28        0.452597   1.000000
   29        0.666330   1.000000
   30        0.963376   1.000000
   31        1.584434   1.000000
   32        1.790570   1.000000
   33        2.154950   1.000000
   34        2.229157   1.000000
   35        2.471278   1.000000
   36        2.525808   1.000000
   37        2.714332   1.000000
   38        2.815916   1.000000
   39        3.021592   1.000000
   40        3.255500   1.000000
   41        3.397391   1.000000
   42        3.736053   1.000000
   43        3.856327   1.000000
   44        4.058936   1.000000
   45        4.281429   1.000000
   46        4.644189   1.000000
   47        5.136351   1.000000
   48        5.634817   1.000000
   49        6.860172  -0.002821
   50        7.104361   0.000000
   51        7.603344   0.000000
   52        8.175013   0.000000
   53        9.133692   0.000000
   54        9.510350   0.000000
   55        9.863900   0.000000
   56       10.135771   0.000000
   57       10.365478   0.000000
   58       10.462019   0.000000
   59       10.834886   0.000000
   60       11.206561   0.000000
   61       11.271401   0.000000
   62       11.645470   0.000000
   63       12.414239   0.000000
   64       12.768216   0.000000
   65       12.977286   0.000000
   66       13.281433   0.000000
   67       13.443365   0.000000
   68       13.692363   0.000000
   69       14.066961   0.000000
   70       14.219947   0.000000
   71       14.342748   0.000000
   72       14.538009   0.000000
 
 -0.3333333E+00 -0.8333333E-01  0.2000000E+00  0.2777778E-02
    1      -11.504467   1.000000
    2      -10.956610   1.000000
    3      -10.003783   1.000000
    4       -8.870274   1.000000
    5       -8.390692   1.000000
    6       -8.203360   1.000000
    7       -6.709495   1.000000
    8       -5.977429   1.000000
    9       -5.719380   1.000000
   10       -5.162182   1.000000
   11       -4.505596   1.000000
   12       -3.866155   1.000000
   13       -3.468484   1.000000
   14       -3.279295   1.000000
   15       -2.901259   1.000000
   16       -2.484552   1.000000
   17       -2.191128   1.000000
   18       -1.874543   1.000000
   19       -1.696747   1.000000
   20       -1.431226   1.000000
   21       -1.173129   1.000000
   22       -0.844194   1.000000
   23       -0.687891   1.000000
   24       -0.375024   1.000000
   25       -0.218082   1.000000
   26       -0.030743   1.000000
   27        0.312988   1.000000
   28        0.449067   1.000000
   29        0.666534   1.000000
   30        0.942311   1.000000
   31        1.477537   1.000000
   32        1.762594   1.000000
   33        2.016415   1.000000
   34        2.085472   1.000000
   35        2.435617   1.000000
   36        2.519816   1.000000
   37        2.746861   1.000000
   38        2.887371   1.000000
   39        3.076357   1.000000
   40        3.286126   1.000000
   41        3.471450   1.000000
   42        3.519021   1.000000
   43        3.738132   1.000000
   44        4.125231   1.000000
   45        4.251622   1.000000
   46        4.719910   1.000000
   47        5.220168   1.000000
   48        5.725222   1.000000
   49        6.943194   0.000000
   50        7.057470   0.000000
   51        7.585690   0.000000
   52        8.174976   0.000000
   53        9.085075   0.000000
   54        9.455152   0.000000
   55        9.705475   0.000000
   56        9.938849   0.000000
   57       10.437649   0.000000
   58       10.653439   0.000000
   59       11.037427   0.000000
   60       11.250712   0.000000
   61       11.514070   0.000000
   62       11.729456   0.000000
   63       12.240949   0.000000
   64       12.732215   0.000000
   65       12.954913   0.000000
   66       13.206980   0.000000
   67       13.397237   0.000000
   68       13.582997   0.000000
   69       14.058538   0.000000
   70       14.283160   0.000000
   71       14.445099   0.000000
   72       14.526067   0.000000
 
 -0.1666667E+00 -0.8333333E-01  0.2000000E+00  0.2777778E-02
    1      -11.538976   1.000000
    2      -10.870504   1.000000
    3      -10.054416   1.000000
    4       -8.924166   1.000000
    5       -8.443593   1.000000
    6       -8.094388   1.000000
    7       -6.698985   1.000000
    8       -5.977345   1.000000
    9       -5.758631   1.000000
   10       -5.213839   1.000000
   11       -4.362541   1.000000
   12       -3.768007   1.000000
   13       -3.356502   1.000000
   14       -3.312656   1.000000
   15       -2.912394   1.000000
   16       -2.505437   1.000000
   17       -2.401737   1.000000
   18       -1.976419   1.000000
   19       -1.801025   1.000000
   20       -1.484204   1.000000
   21       -1.293329   1.000000
   22       -0.967407   1.000000
   23       -0.642877   1.000000
   24       -0.278347   1.000000
   25       -0.130346   1.000000
   26        0.116904   1.000000
   27        0.495390   1.000000
   28        0.544446   1.000000
   29        0.905822   1.000000
   30        0.959639   1.000000
   31        1.532296   1.000000
   32        1.628302   1.000000
   33        1.874729   1.000000
   34        2.051164   1.000000
   35        2.285639   1.000000
   36        2.514850   1.000000
   37        2.634867   1.000000
   38        2.872979   1.000000
   39        3.109092   1.000000
   40        3.303208   1.000000
   41        3.316943   1.000000
   42        3.626031   1.000000
   43        3.723455   1.000000
   44        4.024444   1.000000
   45        4.404858   1.000000
   46        4.861684   1.000000
   47        5.182280   1.000000
   48        5.803058   1.000000
   49        6.919906   0.000000
   50        7.079839   0.000000
   51        7.633877   0.000000
   52        8.116083   0.000000
   53        9.076971   0.000000
   54        9.397292   0.000000
   55        9.565937   0.000000
   56        9.847239   0.000000
   57       10.449090   0.000000
   58       10.634209   0.000000
   59       11.098908   0.000000
   60       11.334255   0.000000
   61       11.619182   0.000000
   62       11.844943   0.000000
   63       12.141754   0.000000
   64       12.706102   0.000000
   65       12.905420   0.000000
   66       13.246034   0.000000
   67       13.373896   0.000000
   68       13.767943   0.000000
   69       13.948643   0.000000
   70       14.112262   0.000000
   71       14.332514   0.000000
   72       14.513545   0.000000
 
  0.0000000E+00  0.0000000E+00  0.3000000E+00  0.2777778E-02
    1      -11.508023   1.000000
    2      -10.808675   1.000000
    3      -10.186109   1.000000
    4       -9.026932   1.000000
    5       -8.492329   1.000000
    6       -7.909886   1.000000
    7       -6.797472   1.000000
    8       -5.964198   1.000000
    9       -5.874476   1.000000
   10       -5.111091   1.000000
   11       -4.214718   1.000000
   12       -3.753814   1.000000
   13       -3.272372   1.000000
   14       -3.217696   1.000000
   15       -2.900617   1.000000
   16       -2.641830   1.000000
   17       -2.255193   1.000000
   18       -2.124588   1.000000
   19       -1.573238   1.000000
   20       -1.448366   1.000000
   21       -1.212896   1.000000
   22       -0.982502   1.000000
   23       -0.433219   1.000000
   24       -0.193139   1.000000
   25       -0.011967   1.000000
   26        0.239363   1.000000
   27        0.315273   1.000000
   28        0.434176   1.000000
   29        0.769224   1.000000
   30        0.965671   1.000000
   31        1.465258   1.000000
   32        1.508293   1.000000
   33        1.722602   1.000000
   34        2.009987   1.000000
   35        2.181809   1.000000
   36        2.427086   1.000000
   37        2.558504   1.000000
   38        2.811609   1.000000
   39        2.907348   1.000000
   40        3.056388   1.000000
   41        3.182073   1.000000
   42        3.452952   1.000000
   43        3.786013   1.000000
   44        4.135104   1.000000
   45        4.557312   1.000000
   46        4.867273   1.000000
   47        5.114151   1.000000
   48        5.879926   1.000000
   49        6.931465   0.000000
   50        7.061995   0.000000
   51        7.708836   0.000000
   52        8.043720   0.000000
   53        8.833072   0.000000
   54        9.202395   0.000000
   55        9.337635   0.000000
   56       10.160177   0.000000
   57       10.478704   0.000000
   58       10.985662   0.000000
   59       11.133896   0.000000
   60       11.416092   0.000000
   61       11.660767   0.000000
   62       12.190314   0.000000
   63       12.551678   0.000000
   64       12.711807   0.000000
   65       12.912090   0.000000
   66       13.239423   0.000000
   67       13.606276   0.000000
   68       13.825176   0.000000
   69       13.999333   0.000000
   70       14.128496   0.000000
   71       14.236322   0.000000
   72       14.272181   0.000000
 
  0.1666667E+00  0.6938894E-17  0.3000000E+00  0.2777778E-02
    1      -11.517904   1.000000
    2      -10.783343   1.000000
    3      -10.197059   1.000000
    4       -8.988016   1.000000
    5       -8.578403   1.000000
    6       -7.883078   1.000000
    7       -6.799064   1.000000
    8       -5.968808   1.000000
    9       -5.838577   1.000000
   10       -5.028369   1.000000
   11       -4.460664   1.000000
   12       -3.720730   1.000000
   13       -3.215108   1.000000
   14       -3.010853   1.000000
   15       -2.842837   1.000000
   16       -2.592981   1.000000
   17       -2.290324   1.000000
   18       -2.225855   1.000000
   19       -1.663209   1.000000
   20       -1.389452   1.000000
   21       -1.244871   1.000000
   22       -1.053480   1.000000
   23       -0.583636   1.000000
   24       -0.313241   1.000000
   25        0.097803   1.000000
   26        0.165506   1.000000
   27        0.366160   1.000000
   28        0.554705   1.000000
   29        0.719605   1.000000
   30        1.102957   1.000000
   31        1.338701   1.000000
   32        1.495362   1.000000
   33        1.782039   1.000000
   34        1.949300   1.000000
   35        2.257161   1.000000
   36        2.453068   1.000000
   37        2.512473   1.000000
   38        2.817006   1.000000
   39        2.913106   1.000000
   40        3.047187   1.000000
   41        3.312149   1.000000
   42        3.564396   1.000000
   43        3.827011   1.000000
   44        4.109122   1.000000
   45        4.591689   1.000000
   46        4.854015   1.000000
   47        5.007334   1.000000
   48        5.810290   1.000000
   49        6.867192  -0.006138
   50        7.029753   0.000000
   51        7.782862   0.000000
   52        8.006111   0.000000
   53        8.839203   0.000000
   54        9.301322   0.000000
   55        9.469663   0.000000
   56       10.125515   0.000000
   57       10.435851   0.000000
   58       10.839661   0.000000
   59       11.027768   0.000000
   60       11.431437   0.000000
   61       11.632863   0.000000
   62       11.807853   0.000000
   63       12.585404   0.000000
   64       12.787175   0.000000
   65       13.126275   0.000000
   66       13.293143   0.000000
   67       13.588815   0.000000
   68       13.794871   0.000000
   69       14.001223   0.000000
   70       14.204556   0.000000
   71       14.297448   0.000000
   72       14.343955   0.000000
 
  0.3333333E+00  0.0000000E+00  0.3000000E+00  0.2777778E-02
    1      -11.500102   1.000000
    2      -10.841783   1.000000
    3      -10.161740   1.000000
    4       -8.919375   1.000000
    5       -8.595890   1.000000
    6       -7.949667   1.000000
    7       -6.794442   1.000000
    8       -5.976374   1.000000
    9       -5.800034   1.000000
   10       -4.930139   1.000000
   11       -4.701137   1.000000
   12       -3.663902   1.000000
   13       -3.270093   1.000000
   14       -3.026072   1.000000
   15       -2.722081   1.000000
   16       -2.480719   1.000000
   17       -2.205709   1.000000
   18       -2.119109   1.000000
   19       -1.719413   1.000000
   20       -1.361114   1.000000
   21       -1.233390   1.000000
   22       -1.016440   1.000000
   23       -0.790674   1.000000
   24       -0.454509   1.000000
   25       -0.190445   1.000000
   26        0.185058   1.000000
   27        0.259532   1.000000
   28        0.619995   1.000000
   29        0.877138   1.000000
   30        1.108654   1.000000
   31        1.331463   1.000000
   32        1.445544   1.000000
   33        1.807292   1.000000
   34        2.074795   1.000000
   35        2.312975   1.000000
   36        2.397533   1.000000
   37        2.662801   1.000000
   38        2.872350   1.000000
   39        3.005146   1.000000
   40        3.074661   1.000000
   41        3.419198   1.000000
   42        3.594932   1.000000
   43        3.737446   1.000000
   44        4.156522   1.000000
   45        4.484480   1.000000
   46        4.721729   1.000000
   47        4.946248   1.000000
   48        5.705681   1.000000
   49        6.782115  -0.047119
   50        6.993821   0.000000
   51        7.715974   0.000000
   52        8.160719   0.000000
   53        8.884494   0.000000
   54        9.493180   0.000000
   55        9.740169   0.000000
   56       10.052867   0.000000
   57       10.396515   0.000000
   58       10.613206   0.000000
   59       10.811501   0.000000
   60       11.380647   0.000000
   61       11.478631   0.000000
   62       11.811729   0.000000
   63       12.657606   0.000000
   64       12.883269   0.000000
   65       13.172636   0.000000
   66       13.395831   0.000000
   67       13.558967   0.000000
   68       13.859403   0.000000
   69       14.152806   0.000000
   70       14.294865   0.000000
   71       14.356524   0.000000
   72       14.513379   0.000000
 
  0.5000000E+00  0.0000000E+00  0.3000000E+00  0.2777778E-02
    1      -11.467918   1.000000
    2      -10.920898   1.000000
    3      -10.125799   1.000000
    4       -8.901119   1.000000
    5       -8.496743   1.000000
    6       -8.059699   1.000000
    7       -6.789271   1.000000
    8       -5.965585   1.000000
    9       -5.817480   1.000000
   10       -5.010889   1.000000
   11       -4.625993   1.000000
   12       -3.664437   1.000000
   13       -3.376580   1.000000
   14       -3.073986   1.000000
   15       -2.753026   1.000000
   16       -2.425110   1.000000
   17       -2.165080   1.000000
   18       -1.809566   1.000000
   19       -1.592398   1.000000
   20       -1.468029   1.000000
   21       -1.255950   1.000000
   22       -0.939472   1.000000
   23       -0.801175   1.000000
   24       -0.712706   1.000000
   25       -0.108216   1.000000
   26        0.109110   1.000000
   27        0.189579   1.000000
   28        0.515572   1.000000
   29        0.713502   1.000000
   30        1.110365   1.000000
   31        1.360532   1.000000
   32        1.650355   1.000000
   33        1.985440   1.000000
   34        2.091249   1.000000
   35        2.362689   1.000000
   36        2.403679   1.000000
   37        2.691837   1.000000
   38        2.791514   1.000000
   39        2.938982   1.000000
   40        3.167796   1.000000
   41        3.332312   1.000000
   42        3.638690   1.000000
   43        3.819810   1.000000
   44        4.182146   1.000000
   45        4.320434   1.000000
   46        4.516139   1.000000
   47        5.065869   1.000000
   48        5.643889   1.000000
   49        6.740275   0.080545
   50        7.000034   0.000000
   51        7.649035   0.000000
   52        8.297641   0.000000
   53        8.910286   0.000000
   54        9.514619   0.000000
   55        9.930741   0.000000
   56        9.980153   0.000000
   57       10.334735   0.000000
   58       10.531238   0.000000
   59       10.874915   0.000000
   60       11.340742   0.000000
   61       11.458188   0.000000
   62       11.951206   0.000000
   63       12.667605   0.000000
   64       12.894397   0.000000
   65       13.048670   0.000000
   66       13.350472   0.000000
   67       13.679761   0.000000
   68       13.962583   0.000000
   69       14.198374   0.000000
   70       14.328145   0.000000
   71       14.487691   0.000000
   72       14.643230   0.000000
 
 -0.3333333E+00  0.0000000E+00  0.3000000E+00  0.2777778E-02
    1      -11.454668   1.000000
    2      -10.945573   1.000000
    3      -10.119309   1.000000
    4       -8.946900   1.000000
    5       -8.360119   1.000000
    6       -8.128798   1.000000
    7       -6.788208   1.000000
    8       -5.963855   1.000000
    9       -5.856624   1.000000
   10       -5.105265   1.000000
   11       -4.402452   1.000000
   12       -3.707176   1.000000
   13       -3.449313   1.000000
   14       -3.074932   1.000000
   15       -2.903780   1.000000
   16       -2.438656   1.000000
   17       -2.203925   1.000000
   18       -1.810506   1.000000
   19       -1.581290   1.000000
   20       -1.311535   1.000000
   21       -1.209259   1.000000
   22       -0.948755   1.000000
   23       -0.649612   1.000000
   24       -0.525991   1.000000
   25       -0.246930   1.000000
   26       -0.145631   1.000000
   27        0.377508   1.000000
   28        0.561624   1.000000
   29        0.722285   1.000000
   30        0.994172   1.000000
   31        1.455043   1.000000
   32        1.677081   1.000000
   33        1.854469   1.000000
   34        2.073226   1.000000
   35        2.355014   1.000000
   36        2.457709   1.000000
   37        2.625782   1.000000
   38        2.711394   1.000000
   39        2.922732   1.000000
   40        3.127216   1.000000
   41        3.484734   1.000000
   42        3.536399   1.000000
   43        3.891009   1.000000
   44        4.028830   1.000000
   45        4.193164   1.000000
   46        4.563293   1.000000
   47        5.203225   1.000000
   48        5.705797   1.000000
   49        6.777905  -0.051671
   50        7.056481   0.000000
   51        7.621781   0.000000
   52        8.327476   0.000000
   53        8.886791   0.000000
   54        9.342431   0.000000
   55        9.620023   0.000000
   56       10.088346   0.000000
   57       10.470638   0.000000
   58       10.696711   0.000000
   59       11.070473   0.000000
   60       11.287988   0.000000
   61       11.647736   0.000000
   62       12.076604   0.000000
   63       12.654355   0.000000
   64       12.783787   0.000000
   65       12.988203   0.000000
   66       13.340577   0.000000
   67       13.646720   0.000000
   68       13.878712   0.000000
   69       14.110189   0.000000
   70       14.224879   0.000000
   71       14.540888   0.000000
   72       14.723954   0.000000
 
 -0.1666667E+00  0.0000000E+00  0.3000000E+00  0.2777778E-02
    1      -11.477581   1.000000
    2      -10.890355   1.000000
    3      -10.145140   1.000000
    4       -9.005991   1.000000
    5       -8.389074   1.000000
    6       -8.027752   1.000000
    7       -6.791815   1.000000
    8       -5.976567   1.000000
    9       -5.868201   1.000000
   10       -5.138347   1.000000
   11       -4.207329   1.000000
   12       -3.727545   1.000000
   13       -3.425105   1.000000
   14       -3.202750   1.000000
   15       -2.928592   1.000000
   16       -2.570924   1.000000
   17       -2.209785   1.000000
   18       -1.980553   1.000000
   19       -1.624510   1.000000
   20       -1.280377   1.000000
   21       -1.132305   1.000000
   22       -0.916908   1.000000
   23       -0.567605   1.000000
   24       -0.277732   1.000000
   25       -0.173904   1.000000
   26       -0.052992   1.000000
   27        0.374282   1.000000
   28        0.447954   1.000000
   29        0.888592   1.000000
   30        1.008472   1.000000
   31        1.437095   1.000000
   32        1.618955   1.000000
   33        1.657637   1.000000
   34        1.970474   1.000000
   35        2.270637   1.000000
   36        2.447757   1.000000
   37        2.552034   1.000000
   38        2.867100   1.000000
   39        2.976335   1.000000
   40        3.049265   1.000000
   41        3.352738   1.000000
   42        3.498011   1.000000
   43        3.661836   1.000000
   44        4.108365   1.000000
   45        4.309153   1.000000
   46        4.773717   1.000000
   47        5.201306   1.000000
   48        5.836381   1.000000
   49        6.875509   0.000000
   50        7.090654   0.000000
   51        7.634426   0.000000
   52        8.207588   0.000000
   53        8.853112   0.000000
   54        9.232532   0.000000
   55        9.379657   0.000000
   56       10.156420   0.000000
   57       10.492015   0.000000
   58       10.938015   0.000000
   59       11.121899   0.000000
   60       11.349699   0.000000
   61       11.724302   0.000000
   62       12.214885   0.000000
   63       12.693926   0.000000
   64       12.711248   0.000000
   65       12.861316   0.000000
   66       13.290204   0.000000
   67       13.607469   0.000000
   68       13.791321   0.000000
   69       14.017351   0.000000
   70       14.141541   0.000000
   71       14.306980   0.000000
   72       14.459965   0.000000
 
  0.0000000E+00  0.8333333E-01  0.3000000E+00  0.2777778E-02
    1      -11.551010   1.000000
    2      -10.838572   1.000000
    3      -10.103678   1.000000
    4       -9.044207   1.000000
    5       -8.264336   1.000000
    6       -7.927060   1.000000
    7       -6.963491   1.000000
    8       -6.030117   1.000000
    9       -5.803954   1.000000
   10       -5.067812   1.000000
   11       -4.182256   1.000000
   12       -3.997644   1.000000
   13       -3.318659   1.000000
   14       -3.047557   1.000000
   15       -2.875033   1.000000
   16       -2.646074   1.000000
   17       -2.343426   1.000000
   18       -2.165561   1.000000
   19       -1.654813   1.000000
   20       -1.445052   1.000000
   21       -1.286548   1.000000
   22       -1.107794   1.000000
   23       -0.658921   1.000000
   24       -0.278265   1.000000
   25       -0.065406   1.000000
   26        0.072162   1.000000
   27        0.247550   1.000000
   28        0.449641   1.000000
   29        0.847792   1.000000
   30        1.133125   1.000000
   31        1.498148   1.000000
   32        1.724802   1.000000
   33        1.774446   1.000000
   34        2.088833   1.000000
   35        2.297643   1.000000
   36        2.466083   1.000000
   37        2.689905   1.000000
   38        2.833555   1.000000
   39        3.036974   1.000000
   40        3.228528   1.000000
   41        3.331497   1.000000
   42        3.641030   1.000000
   43        4.000478   1.000000
   44        4.143250   1.000000
   45        4.518476   1.000000
   46        4.792975   1.000000
   47        5.028786   1.000000
   48        5.765828   1.000000
   49        6.925649   0.000000
   50        7.092104   0.000000
   51        7.780774   0.000000
   52        7.992241   0.000000
   53        8.983909   0.000000
   54        9.334315   0.000000
   55        9.410407   0.000000
   56       10.154754   0.000000
   57       10.460555   0.000000
   58       10.949888   0.000000
   59       11.112657   0.000000
   60       11.319733   0.000000
   61       11.661848   0.000000
   62       11.804618   0.000000
   63       12.392690   0.000000
   64       12.552707   0.000000
   65       12.780697   0.000000
   66       13.279481   0.000000
   67       13.611866   0.000000
   68       13.691700   0.000000
   69       13.732895   0.000000
   70       14.012171   0.000000
   71       14.220844   0.000000
   72       14.307510   0.000000
 
  0.1666667E+00  0.8333333E-01  0.3000000E+00  0.2777778E-02
    1      -11.567825   1.000000
    2      -10.790250   1.000000
    3      -10.129486   1.000000
    4       -9.027266   1.000000
    5       -8.393649   1.000000
    6       -7.829837   1.000000
    7       -6.971626   1.000000
    8       -6.034184   1.000000
    9       -5.754580   1.000000
   10       -4.939024   1.000000
   11       -4.466429   1.000000
   12       -3.904111   1.000000
   13       -3.345572   1.000000
   14       -2.977498   1.000000
   15       -2.828749   1.000000
   16       -2.604061   1.000000
   17       -2.421061   1.000000
   18       -2.247907   1.000000
   19       -1.674784   1.000000
   20       -1.491658   1.000000
   21       -1.209031   1.000000
   22       -1.005372   1.000000
   23       -0.364914   1.000000
   24       -0.236710   1.000000
   25       -0.012601   1.000000
   26        0.075743   1.000000
   27        0.127590   1.000000
   28        0.235365   1.000000
   29        0.468466   1.000000
   30        1.152715   1.000000
   31        1.379270   1.000000
   32        1.632099   1.000000
   33        1.871543   1.000000
   34        2.054565   1.000000
   35        2.389384   1.000000
   36        2.559703   1.000000
   37        2.791694   1.000000
   38        2.875388   1.000000
   39        3.052644   1.000000
   40        3.197055   1.000000
   41        3.481910   1.000000
   42        3.795715   1.000000
   43        3.988786   1.000000
   44        4.190732   1.000000
   45        4.506223   1.000000
   46        4.777964   1.000000
   47        4.917600   1.000000
   48        5.716462   1.000000
   49        6.944571   0.000000
   50        7.063936   0.000000
   51        7.655553   0.000000
   52        8.139845   0.000000
   53        9.040748   0.000000
   54        9.364662   0.000000
   55        9.483554   0.000000
   56       10.092563   0.000000
   57       10.403195   0.000000
   58       10.862970   0.000000
   59       10.965512   0.000000
   60       11.306970   0.000000
   61       11.600951   0.000000
   62       11.696506   0.000000
   63       12.307844   0.000000
   64       12.571601   0.000000
   65       12.861538   0.000000
   66       13.235350   0.000000
   67       13.523906   0.000000
   68       13.665606   0.000000
   69       13.837592   0.000000
   70       13.931616   0.000000
   71       14.214861   0.000000
   72       14.319768   0.000000
 
  0.3333333E+00  0.8333333E-01  0.3000000E+00  0.2777778E-02
    1      -11.556128   1.000000
    2      -10.837194   1.000000
    3      -10.085601   1.000000
    4       -8.968439   1.000000
    5       -8.496890   1.000000
    6       -7.806153   1.000000
    7       -6.961788   1.000000
    8       -6.040999   1.000000
    9       -5.726460   1.000000
   10       -4.821636   1.000000
   11       -4.722612   1.000000
   12       -3.793514   1.000000
   13       -3.394646   1.000000
   14       -3.026023   1.000000
   15       -2.714887   1.000000
   16       -2.586974   1.000000
   17       -2.438573   1.000000
   18       -2.063427   1.000000
   19       -1.696708   1.000000
   20       -1.463654   1.000000
   21       -1.141654   1.000000
   22       -1.035826   1.000000
   23       -0.636485   1.000000
   24       -0.369853   1.000000
   25       -0.195056   1.000000
   26       -0.017478   1.000000
   27        0.165601   1.000000
   28        0.427479   1.000000
   29        0.631696   1.000000
   30        1.061749   1.000000
   31        1.420785   1.000000
   32        1.497146   1.000000
   33        1.806325   1.000000
   34        2.193812   1.000000
   35        2.472109   1.000000
   36        2.631407   1.000000
   37        2.807982   1.000000
   38        2.950485   1.000000
   39        3.150444   1.000000
   40        3.360821   1.000000
   41        3.591470   1.000000
   42        3.714903   1.000000
   43        3.946526   1.000000
   44        4.160479   1.000000
   45        4.402593   1.000000
   46        4.688373   1.000000
   47        4.831874   1.000000
   48        5.592461   1.000000
   49        6.889399  -0.000135
   50        7.027718   0.000000
   51        7.612393   0.000000
   52        8.301689   0.000000
   53        9.137934   0.000000
   54        9.568647   0.000000
   55        9.689015   0.000000
   56        9.988021   0.000000
   57       10.374579   0.000000
   58       10.616147   0.000000
   59       10.757689   0.000000
   60       11.290942   0.000000
   61       11.389819   0.000000
   62       11.777413   0.000000
   63       12.328229   0.000000
   64       12.666717   0.000000
   65       12.947624   0.000000
   66       13.218085   0.000000
   67       13.447971   0.000000
   68       13.734150   0.000000
   69       13.883188   0.000000
   70       14.087439   0.000000
   71       14.201639   0.000000
   72       14.473030   0.000000
 
  0.5000000E+00  0.8333333E-01  0.3000000E+00  0.2777778E-02
    1      -11.524146   1.000000
    2      -10.925145   1.000000
    3      -10.028211   1.000000
    4       -8.919270   1.000000
    5       -8.510731   1.000000
    6       -7.844197   1.000000
    7       -6.943477   1.000000
    8       -6.045943   1.000000
    9       -5.749063   1.000000
   10       -5.023123   1.000000
   11       -4.546977   1.000000
   12       -3.779267   1.000000
   13       -3.389446   1.000000
   14       -3.068109   1.000000
   15       -2.730003   1.000000
   16       -2.567498   1.000000
   17       -2.268796   1.000000
   18       -1.900345   1.000000
   19       -1.658766   1.000000
   20       -1.426985   1.000000
   21       -1.323201   1.000000
   22       -1.008418   1.000000
   23       -0.936304   1.000000
   24       -0.617596   1.000000
   25       -0.364558   1.000000
   26        0.028631   1.000000
   27        0.364669   1.000000
   28        0.555068   1.000000
   29        0.748394   1.000000
   30        1.072672   1.000000
   31        1.351026   1.000000
   32        1.675848   1.000000
   33        2.016771   1.000000
   34        2.358184   1.000000
   35        2.401090   1.000000
   36        2.579600   1.000000
   37        2.866816   1.000000
   38        2.947458   1.000000
   39        3.046888   1.000000
   40        3.142886   1.000000
   41        3.580188   1.000000
   42        3.735731   1.000000
   43        3.915881   1.000000
   44        4.114631   1.000000
   45        4.427183   1.000000
   46        4.508403   1.000000
   47        4.921655   1.000000
   48        5.499290   1.000000
   49        6.824804  -0.038370
   50        7.010812   0.000000
   51        7.624675   0.000000
   52        8.362205   0.000000
   53        9.165006   0.000000
   54        9.687158   0.000000
   55        9.895593   0.000000
   56        9.977949   0.000000
   57       10.278807   0.000000
   58       10.588814   0.000000
   59       10.711047   0.000000
   60       11.225370   0.000000
   61       11.361321   0.000000
   62       11.919130   0.000000
   63       12.344682   0.000000
   64       12.734277   0.000000
   65       12.992473   0.000000
   66       13.209894   0.000000
   67       13.388586   0.000000
   68       13.741201   0.000000
   69       13.978852   0.000000
   70       14.214684   0.000000
   71       14.338413   0.000000
   72       14.660651   0.000000
 
 -0.3333333E+00  0.8333333E-01  0.3000000E+00  0.2777778E-02
    1      -11.502304   1.000000
    2      -10.970369   1.000000
    3      -10.011680   1.000000
    4       -8.949513   1.000000
    5       -8.385380   1.000000
    6       -7.921329   1.000000
    7       -6.935431   1.000000
    8       -6.041782   1.000000
    9       -5.806439   1.000000
   10       -5.123609   1.000000
   11       -4.358290   1.000000
   12       -3.846942   1.000000
   13       -3.333519   1.000000
   14       -3.087791   1.000000
   15       -2.782674   1.000000
   16       -2.462914   1.000000
   17       -2.280226   1.000000
   18       -1.891122   1.000000
   19       -1.667541   1.000000
   20       -1.545328   1.000000
   21       -1.349249   1.000000
   22       -1.128582   1.000000
   23       -0.847048   1.000000
   24       -0.621664   1.000000
   25       -0.380106   1.000000
   26       -0.056451   1.000000
   27        0.359189   1.000000
   28        0.704735   1.000000
   29        0.980675   1.000000
   30        1.175953   1.000000
   31        1.427852   1.000000
   32        1.788514   1.000000
   33        2.097213   1.000000
   34        2.232346   1.000000
   35        2.392240   1.000000
   36        2.501011   1.000000
   37        2.720298   1.000000
   38        2.783617   1.000000
   39        3.025534   1.000000
   40        3.184868   1.000000
   41        3.273457   1.000000
   42        3.800705   1.000000
   43        3.951434   1.000000
   44        4.136320   1.000000
   45        4.288353   1.000000
   46        4.591905   1.000000
   47        5.017439   1.000000
   48        5.554836   1.000000
   49        6.801611  -0.056495
   50        7.033458   0.000000
   51        7.685821   0.000000
   52        8.302149   0.000000
   53        9.098547   0.000000
   54        9.507229   0.000000
   55        9.786273   0.000000
   56       10.108773   0.000000
   57       10.413549   0.000000
   58       10.619429   0.000000
   59       10.955204   0.000000
   60       11.250965   0.000000
   61       11.446505   0.000000
   62       11.995866   0.000000
   63       12.318839   0.000000
   64       12.735621   0.000000
   65       12.982641   0.000000
   66       13.258158   0.000000
   67       13.441618   0.000000
   68       13.714129   0.000000
   69       13.961262   0.000000
   70       14.291149   0.000000
   71       14.459178   0.000000
   72       14.657372   0.000000
 
 -0.1666667E+00  0.8333333E-01  0.3000000E+00  0.2777778E-02
    1      -11.518185   1.000000
    2      -10.928527   1.000000
    3      -10.044771   1.000000
    4       -9.011438   1.000000
    5       -8.227838   1.000000
    6       -7.999095   1.000000
    7       -6.945674   1.000000
    8       -6.032555   1.000000
    9       -5.832769   1.000000
   10       -5.131190   1.000000
   11       -4.206731   1.000000
   12       -3.920033   1.000000
   13       -3.295932   1.000000
   14       -3.111364   1.000000
   15       -2.839842   1.000000
   16       -2.563941   1.000000
   17       -2.317427   1.000000
   18       -1.948244   1.000000
   19       -1.741812   1.000000
   20       -1.455171   1.000000
   21       -1.304337   1.000000
   22       -1.177889   1.000000
   23       -0.798373   1.000000
   24       -0.537344   1.000000
   25       -0.270237   1.000000
   26        0.096347   1.000000
   27        0.281355   1.000000
   28        0.716279   1.000000
   29        1.109385   1.000000
   30        1.198837   1.000000
   31        1.520092   1.000000
   32        1.730675   1.000000
   33        1.860781   1.000000
   34        2.114661   1.000000
   35        2.276744   1.000000
   36        2.396350   1.000000
   37        2.681331   1.000000
   38        2.803567   1.000000
   39        3.081541   1.000000
   40        3.231248   1.000000
   41        3.290259   1.000000
   42        3.687098   1.000000
   43        3.943613   1.000000
   44        4.070616   1.000000
   45        4.350298   1.000000
   46        4.752601   1.000000
   47        5.057303   1.000000
   48        5.692119   1.000000
   49        6.848494  -0.018419
   50        7.073953   0.000000
   51        7.771534   0.000000
   52        8.123251   0.000000
   53        9.013974   0.000000
   54        9.375007   0.000000
   55        9.548347   0.000000
   56       10.166935   0.000000
   57       10.478193   0.000000
   58       10.816258   0.000000
   59       11.071905   0.000000
   60       11.360346   0.000000
   61       11.606839   0.000000
   62       11.878193   0.000000
   63       12.354502   0.000000
   64       12.695434   0.000000
   65       12.869847   0.000000
   66       13.319396   0.000000
   67       13.563836   0.000000
   68       13.713114   0.000000
   69       13.842915   0.000000
   70       14.102507   0.000000
   71       14.345744   0.000000
   72       14.467968   0.000000
 
  0.0000000E+00  0.1666667E+00  0.3000000E+00  0.2777778E-02
    1      -11.551815   1.000000
    2      -10.843831   1.000000
    3      -10.041246   1.000000
    4       -9.023083   1.000000
    5       -8.129749   1.000000
    6       -7.941414   1.000000
    7       -7.108086   1.000000
    8       -6.121614   1.000000
    9       -5.805122   1.000000
   10       -5.094740   1.000000
   11       -4.285873   1.000000
   12       -4.080521   1.000000
   13       -3.494903   1.000000
   14       -3.209044   1.000000
   15       -2.778424   1.000000
   16       -2.542999   1.000000
   17       -2.199301   1.000000
   18       -2.078979   1.000000
   19       -1.676173   1.000000
   20       -1.574888   1.000000
   21       -1.319591   1.000000
   22       -1.048821   1.000000
   23       -0.887383   1.000000
   24       -0.682401   1.000000
   25       -0.067941   1.000000
   26        0.070113   1.000000
   27        0.337722   1.000000
   28        0.650773   1.000000
   29        0.864748   1.000000
   30        1.344389   1.000000
   31        1.543069   1.000000
   32        1.938647   1.000000
   33        2.017144   1.000000
   34        2.128664   1.000000
   35        2.359768   1.000000
   36        2.592235   1.000000
   37        2.732862   1.000000
   38        2.913048   1.000000
   39        3.261588   1.000000
   40        3.344041   1.000000
   41        3.541097   1.000000
   42        3.706111   1.000000
   43        4.093996   1.000000
   44        4.358270   1.000000
   45        4.465918   1.000000
   46        4.559364   1.000000
   47        4.958228   1.000000
   48        5.554181   1.000000
   49        6.858115  -0.046010
   50        7.036632   0.000000
   51        7.670732   0.000000
   52        8.156233   0.000000
   53        9.164323   0.000000
   54        9.402063   0.000000
   55        9.534206   0.000000
   56       10.141606   0.000000
   57       10.366334   0.000000
   58       10.752326   0.000000
   59       11.025599   0.000000
   60       11.161664   0.000000
   61       11.307003   0.000000
   62       11.679816   0.000000
   63       12.065121   0.000000
   64       12.508196   0.000000
   65       12.731817   0.000000
   66       13.304854   0.000000
   67       13.450448   0.000000
   68       13.567883   0.000000
   69       13.665348   0.000000
   70       13.988914   0.000000
   71       14.201260   0.000000
   72       14.487075   0.000000
 
  0.1666667E+00  0.1666667E+00  0.3000000E+00  0.2777778E-02
    1      -11.573161   1.000000
    2      -10.780946   1.000000
    3      -10.077824   1.000000
    4       -9.034627   1.000000
    5       -8.218485   1.000000
    6       -7.856533   1.000000
    7       -7.123312   1.000000
    8       -6.111228   1.000000
    9       -5.775850   1.000000
   10       -4.990827   1.000000
   11       -4.303702   1.000000
   12       -4.198426   1.000000
   13       -3.547107   1.000000
   14       -3.110469   1.000000
   15       -2.860505   1.000000
   16       -2.558893   1.000000
   17       -2.324898   1.000000
   18       -2.032549   1.000000
   19       -1.651704   1.000000
   20       -1.453908   1.000000
   21       -1.195196   1.000000
   22       -1.004278   1.000000
   23       -0.802820   1.000000
   24       -0.417697   1.000000
   25       -0.221811   1.000000
   26        0.043794   1.000000
   27        0.216602   1.000000
   28        0.397836   1.000000
   29        0.558961   1.000000
   30        1.279067   1.000000
   31        1.440309   1.000000
   32        1.839444   1.000000
   33        2.119932   1.000000
   34        2.258419   1.000000
   35        2.492879   1.000000
   36        2.580540   1.000000
   37        2.893084   1.000000
   38        3.035682   1.000000
   39        3.161490   1.000000
   40        3.349263   1.000000
   41        3.735951   1.000000
   42        3.919363   1.000000
   43        4.060526   1.000000
   44        4.318328   1.000000
   45        4.415448   1.000000
   46        4.562948   1.000000
   47        4.872223   1.000000
   48        5.498149   1.000000
   49        6.910694  -0.003426
   50        7.052979   0.000000
   51        7.543755   0.000000
   52        8.299573   0.000000
   53        9.218540   0.000000
   54        9.407877   0.000000
   55        9.536379   0.000000
   56       10.076317   0.000000
   57       10.281084   0.000000
   58       10.747176   0.000000
   59       10.904625   0.000000
   60       11.096710   0.000000
   61       11.287302   0.000000
   62       11.695260   0.000000
   63       12.090799   0.000000
   64       12.358489   0.000000
   65       12.635710   0.000000
   66       13.163537   0.000000
   67       13.389601   0.000000
   68       13.538589   0.000000
   69       13.701103   0.000000
   70       13.860984   0.000000
   71       14.196896   0.000000
   72       14.416369   0.000000
 
  0.3333333E+00  0.1666667E+00  0.3000000E+00  0.2777778E-02
    1      -11.568070   1.000000
    2      -10.811967   1.000000
    3      -10.027611   1.000000
    4       -9.015910   1.000000
    5       -8.374992   1.000000
    6       -7.747197   1.000000
    7       -7.124528   1.000000
    8       -6.090467   1.000000
    9       -5.758448   1.000000
   10       -4.911177   1.000000
   11       -4.528307   1.000000
   12       -4.125840   1.000000
   13       -3.578715   1.000000
   14       -3.037207   1.000000
   15       -2.844073   1.000000
   16       -2.627281   1.000000
   17       -2.427743   1.000000
   18       -1.867997   1.000000
   19       -1.627225   1.000000
   20       -1.354915   1.000000
   21       -1.184966   1.000000
   22       -1.073580   1.000000
   23       -0.641981   1.000000
   24       -0.445505   1.000000
   25       -0.248095   1.000000
   26       -0.098442   1.000000
   27        0.175201   1.000000
   28        0.355236   1.000000
   29        0.603034   1.000000
   30        1.159758   1.000000
   31        1.414973   1.000000
   32        1.584527   1.000000
   33        2.041347   1.000000
   34        2.406666   1.000000
   35        2.529690   1.000000
   36        2.743042   1.000000
   37        2.927040   1.000000
   38        3.135824   1.000000
   39        3.348429   1.000000
   40        3.579538   1.000000
   41        3.752986   1.000000
   42        3.872583   1.000000
   43        4.048937   1.000000
   44        4.146605   1.000000
   45        4.358131   1.000000
   46        4.570941   1.000000
   47        4.774159   1.000000
   48        5.349193   1.000000
   49        6.931914   0.000000
   50        7.033542   0.000000
   51        7.572934   0.000000
   52        8.351382   0.000000
   53        9.333314   0.000000
   54        9.507414   0.000000
   55        9.689033   0.000000
   56       10.043832   0.000000
   57       10.240812   0.000000
   58       10.586768   0.000000
   59       10.703902   0.000000
   60       11.030173   0.000000
   61       11.263826   0.000000
   62       11.725544   0.000000
   63       12.112538   0.000000
   64       12.386546   0.000000
   65       12.619808   0.000000
   66       13.079350   0.000000
   67       13.339448   0.000000
   68       13.447429   0.000000
   69       13.660201   0.000000
   70       13.843062   0.000000
   71       14.251561   0.000000
   72       14.434702   0.000000
 
  0.5000000E+00  0.1666667E+00  0.3000000E+00  0.2777778E-02
    1      -11.539987   1.000000
    2      -10.897996   1.000000
    3       -9.950267   1.000000
    4       -8.971808   1.000000
    5       -8.478376   1.000000
    6       -7.700367   1.000000
    7       -7.110409   1.000000
    8       -6.079987   1.000000
    9       -5.768662   1.000000
   10       -5.021481   1.000000
   11       -4.499530   1.000000
   12       -4.090877   1.000000
   13       -3.581974   1.000000
   14       -3.048718   1.000000
   15       -2.789558   1.000000
   16       -2.597096   1.000000
   17       -2.434539   1.000000
   18       -1.851659   1.000000
   19       -1.610403   1.000000
   20       -1.383492   1.000000
   21       -1.132059   1.000000
   22       -1.075730   1.000000
   23       -0.857034   1.000000
   24       -0.547957   1.000000
   25       -0.341962   1.000000
   26       -0.090982   1.000000
   27        0.319306   1.000000
   28        0.480563   1.000000
   29        0.892479   1.000000
   30        1.071364   1.000000
   31        1.381291   1.000000
   32        1.653699   1.000000
   33        2.004944   1.000000
   34        2.448520   1.000000
   35        2.511512   1.000000
   36        2.784730   1.000000
   37        3.043421   1.000000
   38        3.157081   1.000000
   39        3.207240   1.000000
   40        3.302373   1.000000
   41        3.666069   1.000000
   42        3.842220   1.000000
   43        4.098696   1.000000
   44        4.250438   1.000000
   45        4.461592   1.000000
   46        4.493711   1.000000
   47        4.740774   1.000000
   48        5.230992   1.000000
   49        6.893330   0.000000
   50        7.022881   0.000000
   51        7.659259   0.000000
   52        8.279167   0.000000
   53        9.366663   0.000000
   54        9.599001   0.000000
   55        9.853149   0.000000
   56       10.112873   0.000000
   57       10.269224   0.000000
   58       10.521384   0.000000
   59       10.611218   0.000000
   60       11.027402   0.000000
   61       11.205736   0.000000
   62       11.794750   0.000000
   63       12.111516   0.000000
   64       12.522374   0.000000
   65       12.651042   0.000000
   66       13.113185   0.000000
   67       13.303086   0.000000
   68       13.427115   0.000000
   69       13.632163   0.000000
   70       13.851726   0.000000
   71       14.374050   0.000000
   72       14.606175   0.000000
 
 -0.3333333E+00  0.1666667E+00  0.3000000E+00  0.2777778E-02
    1      -11.513885   1.000000
    2      -10.955663   1.000000
    3       -9.925512   1.000000
    4       -8.953580   1.000000
    5       -8.452033   1.000000
    6       -7.726212   1.000000
    7       -7.094518   1.000000
    8       -6.092658   1.000000
    9       -5.799005   1.000000
   10       -5.135654   1.000000
   11       -4.402775   1.000000
   12       -4.067334   1.000000
   13       -3.545048   1.000000
   14       -3.054624   1.000000
   15       -2.751259   1.000000
   16       -2.572779   1.000000
   17       -2.295593   1.000000
   18       -1.976805   1.000000
   19       -1.741484   1.000000
   20       -1.459297   1.000000
   21       -1.238828   1.000000
   22       -1.025680   1.000000
   23       -0.933765   1.000000
   24       -0.734718   1.000000
   25       -0.211213   1.000000
   26        0.056696   1.000000
   27        0.392388   1.000000
   28        0.631541   1.000000
   29        0.896998   1.000000
   30        1.258624   1.000000
   31        1.498514   1.000000
   32        1.833452   1.000000
   33        2.134295   1.000000
   34        2.279696   1.000000
   35        2.531968   1.000000
   36        2.595356   1.000000
   37        2.790096   1.000000
   38        2.975777   1.000000
   39        3.172301   1.000000
   40        3.267045   1.000000
   41        3.442104   1.000000
   42        3.909374   1.000000
   43        4.142061   1.000000
   44        4.257986   1.000000
   45        4.427655   1.000000
   46        4.594924   1.000000
   47        4.801533   1.000000
   48        5.289196   1.000000
   49        6.844205  -0.030033
   50        7.006251   0.000000
   51        7.782454   0.000000
   52        8.135418   0.000000
   53        9.295073   0.000000
   54        9.515077   0.000000
   55        9.917835   0.000000
   56       10.147668   0.000000
   57       10.320500   0.000000
   58       10.571250   0.000000
   59       10.814767   0.000000
   60       11.125815   0.000000
   61       11.152306   0.000000
   62       11.780769   0.000000
   63       12.096505   0.000000
   64       12.603295   0.000000
   65       12.800731   0.000000
   66       13.204482   0.000000
   67       13.352205   0.000000
   68       13.469673   0.000000
   69       13.632079   0.000000
   70       14.087434   0.000000
   71       14.429294   0.000000
   72       14.646772   0.000000
 
 -0.1666667E+00  0.1666667E+00  0.3000000E+00  0.2777778E-02
    1      -11.521006   1.000000
    2      -10.930579   1.000000
    3       -9.967701   1.000000
    4       -8.987541   1.000000
    5       -8.291506   1.000000
    6       -7.825154   1.000000
    7       -7.093411   1.000000
    8       -6.113363   1.000000
    9       -5.818326   1.000000
   10       -5.151613   1.000000
   11       -4.351111   1.000000
   12       -4.024504   1.000000
   13       -3.509052   1.000000
   14       -3.139182   1.000000
   15       -2.667198   1.000000
   16       -2.558235   1.000000
   17       -2.301338   1.000000
   18       -1.976232   1.000000
   19       -1.772190   1.000000
   20       -1.572624   1.000000
   21       -1.367988   1.000000
   22       -0.989158   1.000000
   23       -0.956565   1.000000
   24       -0.813627   1.000000
   25       -0.094957   1.000000
   26        0.228955   1.000000
   27        0.325285   1.000000
   28        0.719503   1.000000
   29        1.113788   1.000000
   30        1.251663   1.000000
   31        1.583056   1.000000
   32        1.846943   1.000000
   33        2.022409   1.000000
   34        2.166589   1.000000
   35        2.416281   1.000000
   36        2.590612   1.000000
   37        2.789498   1.000000
   38        2.806778   1.000000
   39        3.129408   1.000000
   40        3.349133   1.000000
   41        3.453451   1.000000
   42        3.862911   1.000000
   43        4.052566   1.000000
   44        4.290297   1.000000
   45        4.383117   1.000000
   46        4.587938   1.000000
   47        4.955413   1.000000
   48        5.457939   1.000000
   49        6.827957  -0.062406
   50        7.005102   0.000000
   51        7.862670   0.000000
   52        8.018809   0.000000
   53        9.202333   0.000000
   54        9.424029   0.000000
   55        9.744508   0.000000
   56       10.159213   0.000000
   57       10.397138   0.000000
   58       10.628286   0.000000
   59       11.007105   0.000000
   60       11.191586   0.000000
   61       11.259228   0.000000
   62       11.673739   0.000000
   63       12.072375   0.000000
   64       12.613764   0.000000
   65       12.876174   0.000000
   66       13.306771   0.000000
   67       13.412596   0.000000
   68       13.552685   0.000000
   69       13.772862   0.000000
   70       13.967663   0.000000
   71       14.387660   0.000000
   72       14.520971   0.000000
 
  0.0000000E+00  0.2500000E+00  0.3000000E+00  0.2777778E-02
    1      -11.512308   1.000000
    2      -10.821620   1.000000
    3      -10.009385   1.000000
    4       -9.000994   1.000000
    5       -8.234609   1.000000
    6       -7.837500   1.000000
    7       -7.166972   1.000000
    8       -6.172761   1.000000
    9       -5.928597   1.000000
   10       -5.082372   1.000000
   11       -4.526970   1.000000
   12       -4.025394   1.000000
   13       -3.703273   1.000000
   14       -3.415965   1.000000
   15       -2.719862   1.000000
   16       -2.532715   1.000000
   17       -2.257314   1.000000
   18       -2.029710   1.000000
   19       -1.837840   1.000000
   20       -1.433821   1.000000
   21       -1.227219   1.000000
   22       -0.966501   1.000000
   23       -0.836207   1.000000
   24       -0.660987   1.000000
   25       -0.013215   1.000000
   26        0.156648   1.000000
   27        0.498889   1.000000
   28        0.747937   1.000000
   29        0.908858   1.000000
   30        1.371823   1.000000
   31        1.761064   1.000000
   32        1.839325   1.000000
   33        2.209657   1.000000
   34        2.329154   1.000000
   35        2.500994   1.000000
   36        2.682028   1.000000
   37        2.755928   1.000000
   38        3.010532   1.000000
   39        3.231384   1.000000
   40        3.385520   1.000000
   41        3.619704   1.000000
   42        3.870683   1.000000
   43        4.019609   1.000000
   44        4.261154   1.000000
   45        4.531605   1.000000
   46        4.584009   1.000000
   47        4.937523   1.000000
   48        5.370425   1.000000
   49        6.793464  -0.011905
   50        6.949312   0.000000
   51        7.610293   0.000000
   52        8.274764   0.000000
   53        9.144571   0.000000
   54        9.359960   0.000000
   55        9.723512   0.000000
   56       10.093159   0.000000
   57       10.320789   0.000000
   58       10.406525   0.000000
   59       10.779667   0.000000
   60       11.011102   0.000000
   61       11.119963   0.000000
   62       11.615572   0.000000
   63       11.947309   0.000000
   64       12.501170   0.000000
   65       12.720386   0.000000
   66       13.168149   0.000000
   67       13.336838   0.000000
   68       13.574684   0.000000
   69       13.698829   0.000000
   70       13.986778   0.000000
   71       14.083046   0.000000
   72       14.533945   0.000000
 
  0.1666667E+00  0.2500000E+00  0.3000000E+00  0.2777778E-02
    1      -11.534736   1.000000
    2      -10.756965   1.000000
    3      -10.045667   1.000000
    4       -9.044467   1.000000
    5       -8.137246   1.000000
    6       -7.911594   1.000000
    7       -7.173601   1.000000
    8       -6.189213   1.000000
    9       -5.915708   1.000000
   10       -5.028750   1.000000
   11       -4.507283   1.000000
   12       -4.115106   1.000000
   13       -3.729486   1.000000
   14       -3.217842   1.000000
   15       -2.917831   1.000000
   16       -2.441122   1.000000
   17       -2.221324   1.000000
   18       -1.911963   1.000000
   19       -1.775227   1.000000
   20       -1.375245   1.000000
   21       -1.252010   1.000000
   22       -1.043653   1.000000
   23       -0.887355   1.000000
   24       -0.789694   1.000000
   25       -0.185617   1.000000
   26        0.161063   1.000000
   27        0.422571   1.000000
   28        0.628532   1.000000
   29        0.871249   1.000000
   30        1.388853   1.000000
   31        1.636821   1.000000
   32        2.101858   1.000000
   33        2.211263   1.000000
   34        2.445716   1.000000
   35        2.598842   1.000000
   36        2.686313   1.000000
   37        2.952113   1.000000
   38        3.062018   1.000000
   39        3.130263   1.000000
   40        3.335290   1.000000
   41        3.738941   1.000000
   42        3.846034   1.000000
   43        4.059308   1.000000
   44        4.329800   1.000000
   45        4.445238   1.000000
   46        4.600207   1.000000
   47        4.872956   1.000000
   48        5.260186   1.000000
   49        6.828298  -0.060507
   50        6.983508   0.000000
   51        7.561152   0.000000
   52        8.350597   0.000000
   53        9.157174   0.000000
   54        9.417265   0.000000
   55        9.618905   0.000000
   56       10.055676   0.000000
   57       10.221351   0.000000
   58       10.515704   0.000000
   59       10.791377   0.000000
   60       10.915517   0.000000
   61       11.111563   0.000000
   62       11.621124   0.000000
   63       11.883908   0.000000
   64       12.354889   0.000000
   65       12.551647   0.000000
   66       13.052046   0.000000
   67       13.330208   0.000000
   68       13.520037   0.000000
   69       13.602734   0.000000
   70       13.966695   0.000000
   71       14.153911   0.000000
   72       14.402447   0.000000
 
  0.3333333E+00  0.2500000E+00  0.3000000E+00  0.2777778E-02
    1      -11.535175   1.000000
    2      -10.774059   1.000000
    3       -9.990175   1.000000
    4       -9.072390   1.000000
    5       -8.283508   1.000000
    6       -7.785383   1.000000
    7       -7.173248   1.000000
    8       -6.158819   1.000000
    9       -5.912248   1.000000
   10       -4.939839   1.000000
   11       -4.532483   1.000000
   12       -4.267111   1.000000
   13       -3.739877   1.000000
   14       -3.014163   1.000000
   15       -2.998238   1.000000
   16       -2.663681   1.000000
   17       -2.324601   1.000000
   18       -1.802424   1.000000
   19       -1.559613   1.000000
   20       -1.311308   1.000000
   21       -1.209839   1.000000
   22       -1.118963   1.000000
   23       -0.787831   1.000000
   24       -0.586895   1.000000
   25       -0.229330   1.000000
   26       -0.083367   1.000000
   27        0.293804   1.000000
   28        0.571350   1.000000
   29        0.946643   1.000000
   30        1.221068   1.000000
   31        1.563382   1.000000
   32        1.847404   1.000000
   33        2.327492   1.000000
   34        2.456109   1.000000
   35        2.591780   1.000000
   36        2.736699   1.000000
   37        3.039034   1.000000
   38        3.170589   1.000000
   39        3.382332   1.000000
   40        3.564038   1.000000
   41        3.738307   1.000000
   42        4.028048   1.000000
   43        4.071119   1.000000
   44        4.113467   1.000000
   45        4.404810   1.000000
   46        4.538318   1.000000
   47        4.777073   1.000000
   48        5.072944   1.000000
   49        6.887041  -0.014966
   50        7.010070   0.000000
   51        7.627648   0.000000
   52        8.283785   0.000000
   53        9.289383   0.000000
   54        9.370143   0.000000
   55        9.735486   0.000000
   56       10.013546   0.000000
   57       10.236477   0.000000
   58       10.522181   0.000000
   59       10.655838   0.000000
   60       10.863753   0.000000
   61       11.163378   0.000000
   62       11.596733   0.000000
   63       11.880345   0.000000
   64       12.283453   0.000000
   65       12.497127   0.000000
   66       12.945471   0.000000
   67       13.269045   0.000000
   68       13.344825   0.000000
   69       13.488567   0.000000
   70       13.746268   0.000000
   71       14.352546   0.000000
   72       14.449749   0.000000
 
  0.5000000E+00  0.2500000E+00  0.3000000E+00  0.2777778E-02
    1      -11.513054   1.000000
    2      -10.848797   1.000000
    3       -9.902190   1.000000
    4       -9.056586   1.000000
    5       -8.434810   1.000000
    6       -7.682035   1.000000
    7       -7.165444   1.000000
    8       -6.102606   1.000000
    9       -5.928769   1.000000
   10       -4.919420   1.000000
   11       -4.590594   1.000000
   12       -4.280078   1.000000
   13       -3.750326   1.000000
   14       -3.112506   1.000000
   15       -3.051865   1.000000
   16       -2.677628   1.000000
   17       -2.275778   1.000000
   18       -2.001336   1.000000
   19       -1.642984   1.000000
   20       -1.107216   1.000000
   21       -1.016704   1.000000
   22       -0.942110   1.000000
   23       -0.660497   1.000000
   24       -0.506656   1.000000
   25       -0.249625   1.000000
   26       -0.153644   1.000000
   27        0.324949   1.000000
   28        0.449061   1.000000
   29        0.951594   1.000000
   30        1.321039   1.000000
   31        1.344650   1.000000
   32        1.746341   1.000000
   33        2.131113   1.000000
   34        2.396850   1.000000
   35        2.617168   1.000000
   36        2.832277   1.000000
   37        3.111658   1.000000
   38        3.305336   1.000000
   39        3.389090   1.000000
   40        3.544812   1.000000
   41        3.740983   1.000000
   42        3.792917   1.000000
   43        4.164416   1.000000
   44        4.312615   1.000000
   45        4.386878   1.000000
   46        4.539556   1.000000
   47        4.704620   1.000000
   48        4.964851   1.000000
   49        6.907564  -0.024824
   50        7.012221   0.000000
   51        7.747267   0.000000
   52        8.118965   0.000000
   53        9.271942   0.000000
   54        9.464510   0.000000
   55        9.790716   0.000000
   56       10.157498   0.000000
   57       10.249873   0.000000
   58       10.410036   0.000000
   59       10.701073   0.000000
   60       10.881684   0.000000
   61       11.132008   0.000000
   62       11.598374   0.000000
   63       11.961092   0.000000
   64       12.348444   0.000000
   65       12.505209   0.000000
   66       12.981845   0.000000
   67       13.159612   0.000000
   68       13.270618   0.000000
   69       13.447527   0.000000
   70       13.618247   0.000000
   71       14.388508   0.000000
   72       14.622252   0.000000
 
 -0.3333333E+00  0.2500000E+00  0.3000000E+00  0.2777778E-02
    1      -11.487355   1.000000
    2      -10.907557   1.000000
    3       -9.877663   1.000000
    4       -8.993892   1.000000
    5       -8.505296   1.000000
    6       -7.650074   1.000000
    7       -7.158918   1.000000
    8       -6.072121   1.000000
    9       -5.955660   1.000000
   10       -5.013567   1.000000
   11       -4.584493   1.000000
   12       -4.171051   1.000000
   13       -3.748041   1.000000
   14       -3.246546   1.000000
   15       -3.053215   1.000000
   16       -2.691895   1.000000
   17       -2.179963   1.000000
   18       -2.124411   1.000000
   19       -1.700281   1.000000
   20       -1.161325   1.000000
   21       -0.956074   1.000000
   22       -0.921080   1.000000
   23       -0.725256   1.000000
   24       -0.412651   1.000000
   25       -0.080441   1.000000
   26        0.081345   1.000000
   27        0.327533   1.000000
   28        0.590783   1.000000
   29        0.809058   1.000000
   30        1.198255   1.000000
   31        1.495437   1.000000
   32        1.811615   1.000000
   33        1.998171   1.000000
   34        2.361268   1.000000
   35        2.619619   1.000000
   36        2.744374   1.000000
   37        2.957757   1.000000
   38        3.092388   1.000000
   39        3.433873   1.000000
   40        3.555636   1.000000
   41        3.622460   1.000000
   42        3.791920   1.000000
   43        4.188988   1.000000
   44        4.308991   1.000000
   45        4.331679   1.000000
   46        4.601586   1.000000
   47        4.889744   1.000000
   48        5.023543   1.000000
   49        6.883231  -0.062257
   50        6.977250   0.000000
   51        7.874166   0.000000
   52        7.960156   0.000000
   53        9.227601   0.000000
   54        9.462194   0.000000
   55        9.830108   0.000000
   56       10.064027   0.000000
   57       10.357820   0.000000
   58       10.541015   0.000000
   59       10.714798   0.000000
   60       10.991678   0.000000
   61       11.041956   0.000000
   62       11.570363   0.000000
   63       12.033098   0.000000
   64       12.515840   0.000000
   65       12.626650   0.000000
   66       13.123893   0.000000
   67       13.182183   0.000000
   68       13.303837   0.000000
   69       13.385702   0.000000
   70       13.824673   0.000000
   71       14.330753   0.000000
   72       14.678253   0.000000
 
 -0.1666667E+00  0.2500000E+00  0.3000000E+00  0.2777778E-02
    1      -11.487085   1.000000
    2      -10.896216   1.000000
    3       -9.930133   1.000000
    4       -8.968349   1.000000
    5       -8.422872   1.000000
    6       -7.706001   1.000000
    7       -7.160191   1.000000
    8       -6.117063   1.000000
    9       -5.946997   1.000000
   10       -5.078549   1.000000
   11       -4.564476   1.000000
   12       -4.050808   1.000000
   13       -3.734224   1.000000
   14       -3.387314   1.000000
   15       -2.842227   1.000000
   16       -2.611003   1.000000
   17       -2.330286   1.000000
   18       -2.106934   1.000000
   19       -1.707329   1.000000
   20       -1.311775   1.000000
   21       -1.120341   1.000000
   22       -0.961510   1.000000
   23       -0.711082   1.000000
   24       -0.570768   1.000000
   25        0.149219   1.000000
   26        0.230843   1.000000
   27        0.441956   1.000000
   28        0.597691   1.000000
   29        0.947878   1.000000
   30        1.204369   1.000000
   31        1.512941   1.000000
   32        1.932899   1.000000
   33        2.057170   1.000000
   34        2.320828   1.000000
   35        2.534384   1.000000
   36        2.585578   1.000000
   37        2.843064   1.000000
   38        3.014679   1.000000
   39        3.324978   1.000000
   40        3.455307   1.000000
   41        3.658438   1.000000
   42        3.950441   1.000000
   43        4.094163   1.000000
   44        4.137895   1.000000
   45        4.412040   1.000000
   46        4.605245   1.000000
   47        4.945038   1.000000
   48        5.280907   1.000000
   49        6.827940  -0.035115
   50        6.943972   0.000000
   51        7.750528   0.000000
   52        8.099779   0.000000
   53        9.202442   0.000000
   54        9.363985   0.000000
   55        9.851977   0.000000
   56       10.060895   0.000000
   57       10.351697   0.000000
   58       10.448952   0.000000
   59       10.781895   0.000000
   60       11.026423   0.000000
   61       11.090531   0.000000
   62       11.566131   0.000000
   63       12.011810   0.000000
   64       12.569563   0.000000
   65       12.826951   0.000000
   66       13.205304   0.000000
   67       13.292666   0.000000
   68       13.428140   0.000000
   69       13.584850   0.000000
   70       13.879188   0.000000
   71       14.273209   0.000000
   72       14.473398   0.000000
 
  0.0000000E+00  0.3333333E+00  0.3000000E+00  0.2777778E-02
    1      -11.439963   1.000000
    2      -10.777789   1.000000
    3      -10.006965   1.000000
    4       -9.018480   1.000000
    5       -8.396598   1.000000
    6       -7.805039   1.000000
    7       -7.123318   1.000000
    8       -6.195224   1.000000
    9       -6.042390   1.000000
   10       -5.084424   1.000000
   11       -4.718789   1.000000
   12       -4.019050   1.000000
   13       -3.842631   1.000000
   14       -3.458130   1.000000
   15       -2.895584   1.000000
   16       -2.706692   1.000000
   17       -2.405272   1.000000
   18       -2.067666   1.000000
   19       -1.677328   1.000000
   20       -1.386784   1.000000
   21       -1.114609   1.000000
   22       -0.746061   1.000000
   23       -0.674209   1.000000
   24       -0.334290   1.000000
   25        0.153145   1.000000
   26        0.384900   1.000000
   27        0.777603   1.000000
   28        0.817983   1.000000
   29        1.015096   1.000000
   30        1.252439   1.000000
   31        1.537750   1.000000
   32        2.025922   1.000000
   33        2.216985   1.000000
   34        2.395438   1.000000
   35        2.541194   1.000000
   36        2.631689   1.000000
   37        2.787670   1.000000
   38        3.001704   1.000000
   39        3.254623   1.000000
   40        3.415559   1.000000
   41        3.529259   1.000000
   42        3.828130   1.000000
   43        4.007961   1.000000
   44        4.259833   1.000000
   45        4.453846   1.000000
   46        4.669005   1.000000
   47        5.025412   1.000000
   48        5.295015   1.000000
   49        6.726086   0.288227
   50        6.933415   0.000000
   51        7.633469   0.000000
   52        8.255581   0.000000
   53        8.996518   0.000000
   54        9.326783   0.000000
   55        9.706852   0.000000
   56        9.984996   0.000000
   57       10.113767   0.000000
   58       10.279017   0.000000
   59       10.625885   0.000000
   60       10.951333   0.000000
   61       11.116017   0.000000
   62       11.509523   0.000000
   63       11.985627   0.000000
   64       12.545361   0.000000
   65       12.710453   0.000000
   66       12.981123   0.000000
   67       13.250152   0.000000
   68       13.587322   0.000000
   69       13.754618   0.000000
   70       13.937106   0.000000
   71       14.038431   0.000000
   72       14.375070   0.000000
 
  0.1666667E+00  0.3333333E+00  0.3000000E+00  0.2777778E-02
    1      -11.459701   1.000000
    2      -10.724998   1.000000
    3      -10.031054   1.000000
    4       -9.085750   1.000000
    5       -8.231596   1.000000
    6       -7.917315   1.000000
    7       -7.123476   1.000000
    8       -6.249817   1.000000
    9       -6.049540   1.000000
   10       -5.065478   1.000000
   11       -4.763178   1.000000
   12       -4.064355   1.000000
   13       -3.776620   1.000000
   14       -3.206781   1.000000
   15       -2.829674   1.000000
   16       -2.546046   1.000000
   17       -2.245813   1.000000
   18       -2.091467   1.000000
   19       -1.786206   1.000000
   20       -1.509438   1.000000
   21       -1.316050   1.000000
   22       -1.125948   1.000000
   23       -0.781878   1.000000
   24       -0.416449   1.000000
   25        0.121238   1.000000
   26        0.311639   1.000000
   27        0.748808   1.000000
   28        0.855241   1.000000
   29        1.109011   1.000000
   30        1.411208   1.000000
   31        1.825989   1.000000
   32        2.016458   1.000000
   33        2.296733   1.000000
   34        2.489307   1.000000
   35        2.630845   1.000000
   36        2.739538   1.000000
   37        2.833049   1.000000
   38        3.065712   1.000000
   39        3.138474   1.000000
   40        3.356599   1.000000
   41        3.535570   1.000000
   42        3.731255   1.000000
   43        4.103979   1.000000
   44        4.304475   1.000000
   45        4.346157   1.000000
   46        4.621911   1.000000
   47        4.975972   1.000000
   48        5.156069   1.000000
   49        6.743826   0.108622
   50        6.928228   0.000000
   51        7.700982   0.000000
   52        8.276059   0.000000
   53        8.956106   0.000000
   54        9.382117   0.000000
   55        9.703376   0.000000
   56        9.915116   0.000000
   57       10.142128   0.000000
   58       10.256468   0.000000
   59       10.692616   0.000000
   60       10.892604   0.000000
   61       11.033896   0.000000
   62       11.481068   0.000000
   63       11.895920   0.000000
   64       12.365342   0.000000
   65       12.602908   0.000000
   66       12.942625   0.000000
   67       13.356232   0.000000
   68       13.525340   0.000000
   69       13.668509   0.000000
   70       14.041026   0.000000
   71       14.152541   0.000000
   72       14.276859   0.000000
 
  0.3333333E+00  0.3333333E+00  0.3000000E+00  0.2777778E-02
    1      -11.463290   1.000000
    2      -10.735602   1.000000
    3       -9.970065   1.000000
    4       -9.146032   1.000000
    5       -8.276951   1.000000
    6       -7.877227   1.000000
    7       -7.102267   1.000000
    8       -6.260900   1.000000
    9       -6.052919   1.000000
   10       -4.977933   1.000000
   11       -4.782904   1.000000
   12       -4.191211   1.000000
   13       -3.755324   1.000000
   14       -3.016402   1.000000
   15       -2.926610   1.000000
   16       -2.643851   1.000000
   17       -2.252090   1.000000
   18       -1.972220   1.000000
   19       -1.754697   1.000000
   20       -1.517687   1.000000
   21       -1.295044   1.000000
   22       -1.057811   1.000000
   23       -0.837529   1.000000
   24       -0.392257   1.000000
   25       -0.012965   1.000000
   26        0.237318   1.000000
   27        0.546873   1.000000
   28        0.820571   1.000000
   29        1.226757   1.000000
   30        1.371831   1.000000
   31        1.752120   1.000000
   32        2.058459   1.000000
   33        2.364177   1.000000
   34        2.457070   1.000000
   35        2.554875   1.000000
   36        2.776395   1.000000
   37        2.896805   1.000000
   38        3.130117   1.000000
   39        3.330982   1.000000
   40        3.473614   1.000000
   41        3.722871   1.000000
   42        3.954407   1.000000
   43        4.006246   1.000000
   44        4.179498   1.000000
   45        4.355701   1.000000
   46        4.531791   1.000000
   47        4.788455   1.000000
   48        5.010913   1.000000
   49        6.792411  -0.069609
   50        6.946597   0.000000
   51        7.783747   0.000000
   52        8.145248   0.000000
   53        9.045657   0.000000
   54        9.378646   0.000000
   55        9.739186   0.000000
   56        9.823709   0.000000
   57       10.244672   0.000000
   58       10.347312   0.000000
   59       10.696672   0.000000
   60       10.835058   0.000000
   61       11.001913   0.000000
   62       11.430358   0.000000
   63       11.807599   0.000000
   64       12.283230   0.000000
   65       12.562073   0.000000
   66       12.869933   0.000000
   67       13.333926   0.000000
   68       13.398142   0.000000
   69       13.483453   0.000000
   70       13.788201   0.000000
   71       14.316280   0.000000
   72       14.458285   0.000000
 
  0.5000000E+00  0.3333333E+00  0.3000000E+00  0.2777778E-02
    1      -11.447635   1.000000
    2      -10.793114   1.000000
    3       -9.884839   1.000000
    4       -9.154364   1.000000
    5       -8.433593   1.000000
    6       -7.771188   1.000000
    7       -7.079893   1.000000
    8       -6.224696   1.000000
    9       -6.039283   1.000000
   10       -4.871813   1.000000
   11       -4.793293   1.000000
   12       -4.269902   1.000000
   13       -3.812337   1.000000
   14       -3.187458   1.000000
   15       -3.111910   1.000000
   16       -2.779384   1.000000
   17       -2.147006   1.000000
   18       -2.088923   1.000000
   19       -1.573409   1.000000
   20       -1.365498   1.000000
   21       -1.054680   1.000000
   22       -0.825160   1.000000
   23       -0.642445   1.000000
   24       -0.307424   1.000000
   25       -0.118251   1.000000
   26        0.275225   1.000000
   27        0.424463   1.000000
   28        0.690976   1.000000
   29        1.008865   1.000000
   30        1.396298   1.000000
   31        1.511254   1.000000
   32        1.925473   1.000000
   33        2.194700   1.000000
   34        2.469994   1.000000
   35        2.587943   1.000000
   36        2.732465   1.000000
   37        2.998911   1.000000
   38        3.206788   1.000000
   39        3.489359   1.000000
   40        3.622317   1.000000
   41        3.752208   1.000000
   42        3.949492   1.000000
   43        4.047931   1.000000
   44        4.251327   1.000000
   45        4.304312   1.000000
   46        4.499627   1.000000
   47        4.680946   1.000000
   48        5.006833   1.000000
   49        6.835673  -0.054514
   50        6.964016   0.000000
   51        7.843199   0.000000
   52        7.956165   0.000000
   53        9.148388   0.000000
   54        9.277739   0.000000
   55        9.728782   0.000000
   56       10.011752   0.000000
   57       10.208947   0.000000
   58       10.394361   0.000000
   59       10.756649   0.000000
   60       10.801461   0.000000
   61       11.057116   0.000000
   62       11.410400   0.000000
   63       11.853462   0.000000
   64       12.317187   0.000000
   65       12.543049   0.000000
   66       12.877116   0.000000
   67       13.154752   0.000000
   68       13.279811   0.000000
   69       13.360671   0.000000
   70       13.729317   0.000000
   71       14.298898   0.000000
   72       14.626248   0.000000
 
 -0.3333333E+00  0.3333333E+00  0.3000000E+00  0.2777778E-02
    1      -11.426201   1.000000
    2      -10.841084   1.000000
    3       -9.871403   1.000000
    4       -9.074674   1.000000
    5       -8.556103   1.000000
    6       -7.711221   1.000000
    7       -7.078475   1.000000
    8       -6.174803   1.000000
    9       -6.023615   1.000000
   10       -4.927996   1.000000
   11       -4.732406   1.000000
   12       -4.202043   1.000000
   13       -3.841109   1.000000
   14       -3.444452   1.000000
   15       -3.272177   1.000000
   16       -2.913319   1.000000
   17       -2.135290   1.000000
   18       -1.962311   1.000000
   19       -1.676887   1.000000
   20       -1.166431   1.000000
   21       -0.913635   1.000000
   22       -0.544167   1.000000
   23       -0.386260   1.000000
   24       -0.289140   1.000000
   25        0.069270   1.000000
   26        0.236416   1.000000
   27        0.469210   1.000000
   28        0.617171   1.000000
   29        0.922463   1.000000
   30        1.010543   1.000000
   31        1.445503   1.000000
   32        1.842306   1.000000
   33        2.034281   1.000000
   34        2.517460   1.000000
   35        2.601109   1.000000
   36        2.701054   1.000000
   37        2.959966   1.000000
   38        3.154428   1.000000
   39        3.501651   1.000000
   40        3.616493   1.000000
   41        3.686178   1.000000
   42        3.816941   1.000000
   43        4.063093   1.000000
   44        4.152778   1.000000
   45        4.377216   1.000000
   46        4.699011   1.000000
   47        4.847971   1.000000
   48        5.088443   1.000000
   49        6.830881   0.017234
   50        6.962987   0.000000
   51        7.753686   0.000000
   52        7.967218   0.000000
   53        9.124272   0.000000
   54        9.300217   0.000000
   55        9.696069   0.000000
   56        9.931609   0.000000
   57       10.251645   0.000000
   58       10.486248   0.000000
   59       10.744799   0.000000
   60       10.907814   0.000000
   61       11.073025   0.000000
   62       11.439028   0.000000
   63       11.977605   0.000000
   64       12.460378   0.000000
   65       12.547513   0.000000
   66       12.984820   0.000000
   67       13.087793   0.000000
   68       13.246077   0.000000
   69       13.443845   0.000000
   70       13.719668   0.000000
   71       14.183326   0.000000
   72       14.595643   0.000000
 
 -0.1666667E+00  0.3333333E+00  0.3000000E+00  0.2777778E-02
    1      -11.422051   1.000000
    2      -10.835614   1.000000
    3       -9.932453   1.000000
    4       -8.994365   1.000000
    5       -8.555605   1.000000
    6       -7.719492   1.000000
    7       -7.100693   1.000000
    8       -6.152936   1.000000
    9       -6.033828   1.000000
   10       -5.029491   1.000000
   11       -4.697931   1.000000
   12       -4.079318   1.000000
   13       -3.861964   1.000000
   14       -3.537656   1.000000
   15       -3.184125   1.000000
   16       -2.924806   1.000000
   17       -2.203692   1.000000
   18       -2.004369   1.000000
   19       -1.700339   1.000000
   20       -1.254898   1.000000
   21       -0.822390   1.000000
   22       -0.546829   1.000000
   23       -0.454247   1.000000
   24       -0.123457   1.000000
   25       -0.016079   1.000000
   26        0.373601   1.000000
   27        0.632653   1.000000
   28        0.742680   1.000000
   29        0.812222   1.000000
   30        1.117199   1.000000
   31        1.354030   1.000000
   32        1.848955   1.000000
   33        2.059377   1.000000
   34        2.469144   1.000000
   35        2.594354   1.000000
   36        2.709990   1.000000
   37        2.788204   1.000000
   38        3.007299   1.000000
   39        3.410698   1.000000
   40        3.471888   1.000000
   41        3.667915   1.000000
   42        3.800789   1.000000
   43        4.018639   1.000000
   44        4.316636   1.000000
   45        4.347963   1.000000
   46        4.716742   1.000000
   47        4.979289   1.000000
   48        5.255719   1.000000
   49        6.770898   0.180076
   50        6.951229   0.000000
   51        7.650708   0.000000
   52        8.112958   0.000000
   53        9.090609   0.000000
   54        9.305642   0.000000
   55        9.675489   0.000000
   56        9.917976   0.000000
   57       10.176442   0.000000
   58       10.449128   0.000000
   59       10.686122   0.000000
   60       10.949050   0.000000
   61       11.122472   0.000000
   62       11.484860   0.000000
   63       12.011427   0.000000
   64       12.568414   0.000000
   65       12.705932   0.000000
   66       13.108306   0.000000
   67       13.218376   0.000000
   68       13.305414   0.000000
   69       13.550166   0.000000
   70       13.737114   0.000000
   71       14.176307   0.000000
   72       14.398070   0.000000
 
  0.0000000E+00  0.4166667E+00  0.3000000E+00  0.2777778E-02
    1      -11.347501   1.000000
    2      -10.729262   1.000000
    3      -10.024581   1.000000
    4       -9.087949   1.000000
    5       -8.545319   1.000000
    6       -7.853905   1.000000
    7       -7.030523   1.000000
    8       -6.261469   1.000000
    9       -6.034631   1.000000
   10       -5.117884   1.000000
   11       -4.861424   1.000000
   12       -4.023464   1.000000
   13       -3.876757   1.000000
   14       -3.323598   1.000000
   15       -3.189648   1.000000
   16       -2.851483   1.000000
   17       -2.343568   1.000000
   18       -2.137666   1.000000
   19       -1.540758   1.000000
   20       -1.335533   1.000000
   21       -1.122760   1.000000
   22       -0.563879   1.000000
   23       -0.411408   1.000000
   24        0.141636   1.000000
   25        0.249989   1.000000
   26        0.511313   1.000000
   27        0.907510   1.000000
   28        1.004738   1.000000
   29        1.114801   1.000000
   30        1.312811   1.000000
   31        1.390416   1.000000
   32        1.954148   1.000000
   33        2.093662   1.000000
   34        2.293687   1.000000
   35        2.506101   1.000000
   36        2.613460   1.000000
   37        2.752649   1.000000
   38        2.943138   1.000000
   39        3.043877   1.000000
   40        3.333518   1.000000
   41        3.532380   1.000000
   42        3.680179   1.000000
   43        4.193284   1.000000
   44        4.295251   1.000000
   45        4.383065   1.000000
   46        4.752516   1.000000
   47        5.017164   1.000000
   48        5.304183   1.000000
   49        6.633332   0.822857
   50        6.965191   0.000000
   51        7.758945   0.000000
   52        8.117589   0.000000
   53        8.859418   0.000000
   54        9.289051   0.000000
   55        9.471689   0.000000
   56        9.895393   0.000000
   57        9.965596   0.000000
   58       10.313035   0.000000
   59       10.607908   0.000000
   60       10.906736   0.000000
   61       11.135507   0.000000
   62       11.417568   0.000000
   63       12.069097   0.000000
   64       12.557160   0.000000
   65       12.698937   0.000000
   66       12.884450   0.000000
   67       13.182732   0.000000
   68       13.435276   0.000000
   69       13.817636   0.000000
   70       13.915395   0.000000
   71       14.100035   0.000000
   72       14.307490   0.000000
 
  0.1666667E+00  0.4166667E+00  0.3000000E+00  0.2777778E-02
    1      -11.361544   1.000000
    2      -10.697785   1.000000
    3      -10.030976   1.000000
    4       -9.157478   1.000000
    5       -8.392759   1.000000
    6       -7.935328   1.000000
    7       -7.050299   1.000000
    8       -6.309063   1.000000
    9       -6.069832   1.000000
   10       -5.099545   1.000000
   11       -4.931007   1.000000
   12       -4.079106   1.000000
   13       -3.732571   1.000000
   14       -3.084631   1.000000
   15       -2.998856   1.000000
   16       -2.613470   1.000000
   17       -2.323607   1.000000
   18       -2.150153   1.000000
   19       -1.744355   1.000000
   20       -1.564323   1.000000
   21       -1.339338   1.000000
   22       -1.006957   1.000000
   23       -0.543751   1.000000
   24        0.042521   1.000000
   25        0.288998   1.000000
   26        0.491036   1.000000
   27        0.933144   1.000000
   28        1.154892   1.000000
   29        1.305136   1.000000
   30        1.363995   1.000000
   31        1.664438   1.000000
   32        2.051842   1.000000
   33        2.139650   1.000000
   34        2.444899   1.000000
   35        2.556699   1.000000
   36        2.603839   1.000000
   37        2.736040   1.000000
   38        2.923953   1.000000
   39        3.123323   1.000000
   40        3.187495   1.000000
   41        3.678651   1.000000
   42        3.881281   1.000000
   43        4.022415   1.000000
   44        4.179150   1.000000
   45        4.274516   1.000000
   46        4.686266   1.000000
   47        4.898282   1.000000
   48        5.238826   1.000000
   49        6.650021   0.869663
   50        6.934590   0.000000
   51        7.910921   0.000000
   52        8.098463   0.000000
   53        8.796916   0.000000
   54        9.328373   0.000000
   55        9.567861   0.000000
   56        9.850501   0.000000
   57        9.989527   0.000000
   58       10.186861   0.000000
   59       10.610611   0.000000
   60       10.887743   0.000000
   61       11.031441   0.000000
   62       11.411786   0.000000
   63       12.014138   0.000000
   64       12.349356   0.000000
   65       12.708702   0.000000
   66       12.863240   0.000000
   67       13.298598   0.000000
   68       13.540925   0.000000
   69       13.831715   0.000000
   70       14.029109   0.000000
   71       14.119802   0.000000
   72       14.220431   0.000000
 
  0.3333333E+00  0.4166667E+00  0.3000000E+00  0.2777778E-02
    1      -11.365257   1.000000
    2      -10.709744   1.000000
    3       -9.969506   1.000000
    4       -9.223571   1.000000
    5       -8.360402   1.000000
    6       -7.966008   1.000000
    7       -7.010622   1.000000
    8       -6.360886   1.000000
    9       -6.090099   1.000000
   10       -5.058312   1.000000
   11       -4.897948   1.000000
   12       -4.228607   1.000000
   13       -3.656741   1.000000
   14       -2.996153   1.000000
   15       -2.818095   1.000000
   16       -2.598168   1.000000
   17       -2.361738   1.000000
   18       -2.005319   1.000000
   19       -1.775921   1.000000
   20       -1.549533   1.000000
   21       -1.483606   1.000000
   22       -1.166644   1.000000
   23       -0.732838   1.000000
   24       -0.061349   1.000000
   25        0.305397   1.000000
   26        0.467222   1.000000
   27        0.770968   1.000000
   28        1.242060   1.000000
   29        1.290484   1.000000
   30        1.381173   1.000000
   31        1.898210   1.000000
   32        1.972907   1.000000
   33        2.253295   1.000000
   34        2.423895   1.000000
   35        2.560301   1.000000
   36        2.623591   1.000000
   37        2.823346   1.000000
   38        2.989754   1.000000
   39        3.209378   1.000000
   40        3.454646   1.000000
   41        3.618311   1.000000
   42        3.933689   1.000000
   43        4.019329   1.000000
   44        4.169004   1.000000
   45        4.291108   1.000000
   46        4.581025   1.000000
   47        4.679142   1.000000
   48        5.126540   1.000000
   49        6.697548   0.545054
   50        6.892310   0.000000
   51        7.917182   0.000000
   52        7.995258   0.000000
   53        8.900304   0.000000
   54        9.439687   0.000000
   55        9.557627   0.000000
   56        9.780470   0.000000
   57       10.100883   0.000000
   58       10.193492   0.000000
   59       10.692330   0.000000
   60       10.748287   0.000000
   61       10.902945   0.000000
   62       11.404078   0.000000
   63       11.876012   0.000000
   64       12.310290   0.000000
   65       12.636727   0.000000
   66       12.885289   0.000000
   67       13.380630   0.000000
   68       13.488834   0.000000
   69       13.633643   0.000000
   70       13.934697   0.000000
   71       14.221235   0.000000
   72       14.367173   0.000000
 
  0.5000000E+00  0.4166667E+00  0.3000000E+00  0.2777778E-02
    1      -11.355271   1.000000
    2      -10.748926   1.000000
    3       -9.901099   1.000000
    4       -9.238909   1.000000
    5       -8.477702   1.000000
    6       -7.904053   1.000000
    7       -6.948873   1.000000
    8       -6.370032   1.000000
    9       -6.073834   1.000000
   10       -5.032922   1.000000
   11       -4.778122   1.000000
   12       -4.353164   1.000000
   13       -3.728394   1.000000
   14       -3.173180   1.000000
   15       -3.036008   1.000000
   16       -2.674434   1.000000
   17       -2.160450   1.000000
   18       -2.006336   1.000000
   19       -1.802141   1.000000
   20       -1.438590   1.000000
   21       -1.024973   1.000000
   22       -0.947294   1.000000
   23       -0.830479   1.000000
   24       -0.078890   1.000000
   25        0.250415   1.000000
   26        0.465923   1.000000
   27        0.727966   1.000000
   28        1.018921   1.000000
   29        1.191517   1.000000
   30        1.315665   1.000000
   31        1.653314   1.000000
   32        2.031897   1.000000
   33        2.293821   1.000000
   34        2.394262   1.000000
   35        2.468114   1.000000
   36        2.803296   1.000000
   37        2.850154   1.000000
   38        2.991002   1.000000
   39        3.249988   1.000000
   40        3.501853   1.000000
   41        3.667644   1.000000
   42        3.982903   1.000000
   43        4.039993   1.000000
   44        4.252506   1.000000
   45        4.340745   1.000000
   46        4.489826   1.000000
   47        4.696711   1.000000
   48        5.081103   1.000000
   49        6.732339   0.228124
   50        6.878698   0.000000
   51        7.761929   0.000000
   52        7.956784   0.000000
   53        9.035713   0.000000
   54        9.274635   0.000000
   55        9.609571   0.000000
   56        9.955054   0.000000
   57       10.187824   0.000000
   58       10.241577   0.000000
   59       10.598800   0.000000
   60       10.694892   0.000000
   61       10.973107   0.000000
   62       11.376575   0.000000
   63       11.835940   0.000000
   64       12.378225   0.000000
   65       12.612151   0.000000
   66       12.876588   0.000000
   67       13.235128   0.000000
   68       13.360365   0.000000
   69       13.486747   0.000000
   70       14.045960   0.000000
   71       14.179184   0.000000
   72       14.492540   0.000000
 
 -0.3333333E+00  0.4166667E+00  0.3000000E+00  0.2777778E-02
    1      -11.340492   1.000000
    2      -10.777953   1.000000
    3       -9.902765   1.000000
    4       -9.165641   1.000000
    5       -8.610176   1.000000
    6       -7.841310   1.000000
    7       -6.932766   1.000000
    8       -6.330406   1.000000
    9       -6.022608   1.000000
   10       -5.046728   1.000000
   11       -4.723427   1.000000
   12       -4.304120   1.000000
   13       -3.812440   1.000000
   14       -3.435029   1.000000
   15       -3.260486   1.000000
   16       -2.937146   1.000000
   17       -2.069951   1.000000
   18       -1.840086   1.000000
   19       -1.670421   1.000000
   20       -1.344583   1.000000
   21       -1.095020   1.000000
   22       -0.473641   1.000000
   23       -0.331843   1.000000
   24        0.017473   1.000000
   25        0.205070   1.000000
   26        0.422612   1.000000
   27        0.574413   1.000000
   28        0.862302   1.000000
   29        1.046213   1.000000
   30        1.230427   1.000000
   31        1.437582   1.000000
   32        2.017100   1.000000
   33        2.101371   1.000000
   34        2.348022   1.000000
   35        2.523699   1.000000
   36        2.661851   1.000000
   37        2.887678   1.000000
   38        3.024806   1.000000
   39        3.233632   1.000000
   40        3.395282   1.000000
   41        3.734588   1.000000
   42        3.914544   1.000000
   43        3.989889   1.000000
   44        4.219443   1.000000
   45        4.385024   1.000000
   46        4.733296   1.000000
   47        4.882657   1.000000
   48        5.153140   1.000000
   49        6.719740   0.402752
   50        6.909038   0.000000
   51        7.642500   0.000000
   52        7.973925   0.000000
   53        9.054107   0.000000
   54        9.220235   0.000000
   55        9.552994   0.000000
   56        9.889897   0.000000
   57       10.182466   0.000000
   58       10.362024   0.000000
   59       10.646638   0.000000
   60       10.799416   0.000000
   61       11.082056   0.000000
   62       11.361880   0.000000
   63       11.909641   0.000000
   64       12.444687   0.000000
   65       12.599741   0.000000
   66       12.868837   0.000000
   67       13.143174   0.000000
   68       13.354435   0.000000
   69       13.524646   0.000000
   70       13.968869   0.000000
   71       14.135874   0.000000
   72       14.507772   0.000000
 
 -0.1666667E+00  0.4166667E+00  0.3000000E+00  0.2777778E-02
    1      -11.336411   1.000000
    2      -10.769874   1.000000
    3       -9.964167   1.000000
    4       -9.075670   1.000000
    5       -8.655260   1.000000
    6       -7.818265   1.000000
    7       -6.974252   1.000000
    8       -6.275021   1.000000
    9       -6.002721   1.000000
   10       -5.089778   1.000000
   11       -4.771342   1.000000
   12       -4.135318   1.000000
   13       -3.888982   1.000000
   14       -3.480335   1.000000
   15       -3.256581   1.000000
   16       -3.108412   1.000000
   17       -2.158207   1.000000
   18       -1.954938   1.000000
   19       -1.593340   1.000000
   20       -1.257798   1.000000
   21       -0.894118   1.000000
   22       -0.387191   1.000000
   23       -0.193958   1.000000
   24        0.023341   1.000000
   25        0.260347   1.000000
   26        0.558509   1.000000
   27        0.639145   1.000000
   28        0.864466   1.000000
   29        0.942346   1.000000
   30        1.174599   1.000000
   31        1.386326   1.000000
   32        1.850367   1.000000
   33        2.077886   1.000000
   34        2.267690   1.000000
   35        2.582454   1.000000
   36        2.642071   1.000000
   37        2.763568   1.000000
   38        2.983077   1.000000
   39        3.184509   1.000000
   40        3.362785   1.000000
   41        3.558111   1.000000
   42        3.666653   1.000000
   43        4.197291   1.000000
   44        4.313724   1.000000
   45        4.419994   1.000000
   46        4.804390   1.000000
   47        4.997446   1.000000
   48        5.272186   1.000000
   49        6.668041   0.653359
   50        6.952560   0.000000
   51        7.639094   0.000000
   52        8.042154   0.000000
   53        8.985802   0.000000
   54        9.256518   0.000000
   55        9.471242   0.000000
   56        9.844980   0.000000
   57       10.039600   0.000000
   58       10.417219   0.000000
   59       10.689053   0.000000
   60       10.856554   0.000000
   61       11.165895   0.000000
   62       11.391584   0.000000
   63       12.024643   0.000000
   64       12.501035   0.000000
   65       12.673374   0.000000
   66       12.921009   0.000000
   67       13.121766   0.000000
   68       13.491000   0.000000
   69       13.612496   0.000000
   70       13.764671   0.000000
   71       14.106411   0.000000
   72       14.404047   0.000000
 
  0.0000000E+00  0.5000000E+00  0.3000000E+00  0.2777778E-02
    1      -11.253276   1.000000
    2      -10.699199   1.000000
    3      -10.059374   1.000000
    4       -9.173841   1.000000
    5       -8.635207   1.000000
    6       -7.971738   1.000000
    7       -6.936707   1.000000
    8       -6.266789   1.000000
    9       -6.029841   1.000000
   10       -5.195686   1.000000
   11       -4.906565   1.000000
   12       -4.063280   1.000000
   13       -3.786592   1.000000
   14       -3.362839   1.000000
   15       -3.039663   1.000000
   16       -2.728177   1.000000
   17       -2.354060   1.000000
   18       -2.197003   1.000000
   19       -1.503078   1.000000
   20       -1.276491   1.000000
   21       -1.134384   1.000000
   22       -0.510462   1.000000
   23       -0.183811   1.000000
   24        0.228111   1.000000
   25        0.358434   1.000000
   26        0.583205   1.000000
   27        0.772665   1.000000
   28        1.078625   1.000000
   29        1.144839   1.000000
   30        1.288478   1.000000
   31        1.621892   1.000000
   32        1.882008   1.000000
   33        2.112011   1.000000
   34        2.267769   1.000000
   35        2.414431   1.000000
   36        2.487417   1.000000
   37        2.709287   1.000000
   38        2.821382   1.000000
   39        2.906092   1.000000
   40        3.208034   1.000000
   41        3.298968   1.000000
   42        3.846035   1.000000
   43        4.163680   1.000000
   44        4.234538   1.000000
   45        4.434629   1.000000
   46        4.765471   1.000000
   47        5.009776   1.000000
   48        5.271887   1.000000
   49        6.532263   1.069147
   50        6.962129   0.000000
   51        7.922700   0.000000
   52        8.058869   0.000000
   53        8.714461   0.000000
   54        9.216548   0.000000
   55        9.375144   0.000000
   56        9.785447   0.000000
   57        9.933233   0.000000
   58       10.326048   0.000000
   59       10.577849   0.000000
   60       10.888012   0.000000
   61       11.091961   0.000000
   62       11.405225   0.000000
   63       12.135005   0.000000
   64       12.472949   0.000000
   65       12.766171   0.000000
   66       12.936400   0.000000
   67       13.177389   0.000000
   68       13.399896   0.000000
   69       13.813191   0.000000
   70       14.040649   0.000000
   71       14.151667   0.000000
   72       14.315336   0.000000
 
  0.1666667E+00  0.5000000E+00  0.3000000E+00  0.2777778E-02
    1      -11.260460   1.000000
    2      -10.689079   1.000000
    3      -10.053675   1.000000
    4       -9.221118   1.000000
    5       -8.530335   1.000000
    6       -8.008908   1.000000
    7       -6.998876   1.000000
    8       -6.306131   1.000000
    9       -6.043182   1.000000
   10       -5.140297   1.000000
   11       -4.970232   1.000000
   12       -4.064531   1.000000
   13       -3.675580   1.000000
   14       -3.282608   1.000000
   15       -2.856461   1.000000
   16       -2.597546   1.000000
   17       -2.325016   1.000000
   18       -2.221995   1.000000
   19       -1.686074   1.000000
   20       -1.493334   1.000000
   21       -1.118145   1.000000
   22       -0.732643   1.000000
   23       -0.315555   1.000000
   24        0.061910   1.000000
   25        0.233368   1.000000
   26        0.562787   1.000000
   27        0.878029   1.000000
   28        1.063390   1.000000
   29        1.337879   1.000000
   30        1.554720   1.000000
   31        1.716714   1.000000
   32        1.961805   1.000000
   33        2.047509   1.000000
   34        2.278606   1.000000
   35        2.402205   1.000000
   36        2.542742   1.000000
   37        2.777297   1.000000
   38        2.824463   1.000000
   39        2.986237   1.000000
   40        3.191579   1.000000
   41        3.457966   1.000000
   42        3.883411   1.000000
   43        4.023154   1.000000
   44        4.212439   1.000000
   45        4.429888   1.000000
   46        4.685571   1.000000
   47        4.859024   1.000000
   48        5.221402   1.000000
   49        6.550215   1.058728
   50        6.958998   0.000000
   51        7.866850   0.000000
   52        8.177030   0.000000
   53        8.719220   0.000000
   54        9.274229   0.000000
   55        9.422390   0.000000
   56        9.743410   0.000000
   57        9.945110   0.000000
   58       10.223235   0.000000
   59       10.536753   0.000000
   60       10.783231   0.000000
   61       11.122387   0.000000
   62       11.424164   0.000000
   63       12.150073   0.000000
   64       12.306427   0.000000
   65       12.728131   0.000000
   66       12.909786   0.000000
   67       13.250807   0.000000
   68       13.575465   0.000000
   69       13.801124   0.000000
   70       14.067766   0.000000
   71       14.137408   0.000000
   72       14.334729   0.000000
 
  0.3333333E+00  0.5000000E+00  0.3000000E+00  0.2777778E-02
    1      -11.261839   1.000000
    2      -10.704587   1.000000
    3      -10.005244   1.000000
    4       -9.268692   1.000000
    5       -8.474510   1.000000
    6       -8.057116   1.000000
    7       -6.974350   1.000000
    8       -6.378748   1.000000
    9       -6.040927   1.000000
   10       -5.127578   1.000000
   11       -4.918263   1.000000
   12       -4.247482   1.000000
   13       -3.585329   1.000000
   14       -3.112892   1.000000
   15       -2.832584   1.000000
   16       -2.560164   1.000000
   17       -2.165895   1.000000
   18       -1.947135   1.000000
   19       -1.770127   1.000000
   20       -1.498515   1.000000
   21       -1.425949   1.000000
   22       -1.030428   1.000000
   23       -0.540682   1.000000
   24        0.035078   1.000000
   25        0.214437   1.000000
   26        0.498608   1.000000
   27        0.897448   1.000000
   28        1.068879   1.000000
   29        1.373826   1.000000
   30        1.684611   1.000000
   31        1.751886   1.000000
   32        1.988400   1.000000
   33        2.127822   1.000000
   34        2.267677   1.000000
   35        2.465050   1.000000
   36        2.582096   1.000000
   37        2.749742   1.000000
   38        2.895058   1.000000
   39        3.119177   1.000000
   40        3.478227   1.000000
   41        3.597676   1.000000
   42        3.659737   1.000000
   43        4.069751   1.000000
   44        4.273596   1.000000
   45        4.383345   1.000000
   46        4.517380   1.000000
   47        4.719586   1.000000
   48        5.125833   1.000000
   49        6.610145   1.033753
   50        6.890157   0.000000
   51        7.719817   0.000000
   52        8.125290   0.000000
   53        8.877165   0.000000
   54        9.429468   0.000000
   55        9.525102   0.000000
   56        9.700424   0.000000
   57        9.981285   0.000000
   58       10.086943   0.000000
   59       10.583265   0.000000
   60       10.648072   0.000000
   61       10.974264   0.000000
   62       11.450258   0.000000
   63       12.010428   0.000000
   64       12.290812   0.000000
   65       12.581501   0.000000
   66       13.022372   0.000000
   67       13.366122   0.000000
   68       13.584431   0.000000
   69       13.901975   0.000000
   70       14.006779   0.000000
   71       14.199030   0.000000
   72       14.361185   0.000000
 
  0.5000000E+00  0.5000000E+00  0.3000000E+00  0.2777778E-02
    1      -11.256015   1.000000
    2      -10.728294   1.000000
    3       -9.962548   1.000000
    4       -9.280224   1.000000
    5       -8.525269   1.000000
    6       -8.057929   1.000000
    7       -6.875621   1.000000
    8       -6.415856   1.000000
    9       -6.038230   1.000000
   10       -5.157234   1.000000
   11       -4.768254   1.000000
   12       -4.453458   1.000000
   13       -3.641820   1.000000
   14       -3.103488   1.000000
   15       -2.820822   1.000000
   16       -2.464801   1.000000
   17       -2.257296   1.000000
   18       -2.011704   1.000000
   19       -1.746373   1.000000
   20       -1.355979   1.000000
   21       -1.137864   1.000000
   22       -0.986444   1.000000
   23       -0.811695   1.000000
   24        0.102212   1.000000
   25        0.197208   1.000000
   26        0.446541   1.000000
   27        0.820827   1.000000
   28        0.990100   1.000000
   29        1.289751   1.000000
   30        1.587371   1.000000
   31        1.731622   1.000000
   32        2.030966   1.000000
   33        2.148023   1.000000
   34        2.343720   1.000000
   35        2.479779   1.000000
   36        2.648548   1.000000
   37        2.811181   1.000000
   38        2.964808   1.000000
   39        3.159030   1.000000
   40        3.427819   1.000000
   41        3.576618   1.000000
   42        3.785300   1.000000
   43        3.931900   1.000000
   44        4.224466   1.000000
   45        4.401053   1.000000
   46        4.569517   1.000000
   47        4.791699   1.000000
   48        5.071829   1.000000
   49        6.653895   1.016120
   50        6.822072   0.000000
   51        7.613682   0.000000
   52        8.025596   0.000000
   53        8.977315   0.000000
   54        9.389903   0.000000
   55        9.563804   0.000000
   56        9.882718   0.000000
   57       10.068594   0.000000
   58       10.100471   0.000000
   59       10.458120   0.000000
   60       10.588637   0.000000
   61       10.933378   0.000000
   62       11.413300   0.000000
   63       11.910361   0.000000
   64       12.393288   0.000000
   65       12.559806   0.000000
   66       13.053110   0.000000
   67       13.307835   0.000000
   68       13.531117   0.000000
   69       13.717565   0.000000
   70       14.149677   0.000000
   71       14.270256   0.000000
   72       14.523428   0.000000
 
 -0.3333333E+00  0.5000000E+00  0.3000000E+00  0.2777778E-02
    1      -11.248527   1.000000
    2      -10.738217   1.000000
    3       -9.971076   1.000000
    4       -9.234757   1.000000
    5       -8.627777   1.000000
    6       -8.017447   1.000000
    7       -6.808055   1.000000
    8       -6.387712   1.000000
    9       -6.015108   1.000000
   10       -5.212838   1.000000
   11       -4.708650   1.000000
   12       -4.461610   1.000000
   13       -3.719396   1.000000
   14       -3.203307   1.000000
   15       -3.054443   1.000000
   16       -2.675813   1.000000
   17       -2.024628   1.000000
   18       -1.967479   1.000000
   19       -1.712829   1.000000
   20       -1.497995   1.000000
   21       -1.052477   1.000000
   22       -0.602547   1.000000
   23       -0.364897   1.000000
   24        0.042827   1.000000
   25        0.245406   1.000000
   26        0.384444   1.000000
   27        0.782060   1.000000
   28        0.890139   1.000000
   29        1.221091   1.000000
   30        1.417199   1.000000
   31        1.643948   1.000000
   32        1.994041   1.000000
   33        2.153848   1.000000
   34        2.279468   1.000000
   35        2.495397   1.000000
   36        2.687851   1.000000
   37        2.719213   1.000000
   38        2.911326   1.000000
   39        3.180924   1.000000
   40        3.283866   1.000000
   41        3.541408   1.000000
   42        3.777532   1.000000
   43        3.982470   1.000000
   44        4.144112   1.000000
   45        4.377490   1.000000
   46        4.763401   1.000000
   47        4.953654   1.000000
   48        5.150505   1.000000
   49        6.629129   1.044195
   50        6.831717   0.000000
   51        7.612794   0.000000
   52        7.998589   0.000000
   53        8.950913   0.000000
   54        9.307845   0.000000
   55        9.423924   0.000000
   56        9.975606   0.000000
   57       10.095223   0.000000
   58       10.198515   0.000000
   59       10.491316   0.000000
   60       10.651828   0.000000
   61       11.051902   0.000000
   62       11.329346   0.000000
   63       11.919094   0.000000
   64       12.464931   0.000000
   65       12.640099   0.000000
   66       12.981779   0.000000
   67       13.242290   0.000000
   68       13.425408   0.000000
   69       13.739917   0.000000
   70       14.149382   0.000000
   71       14.341156   0.000000
   72       14.483168   0.000000
 
 -0.1666667E+00  0.5000000E+00  0.3000000E+00  0.2777778E-02
    1      -11.247167   1.000000
    2      -10.724567   1.000000
    3      -10.019184   1.000000
    4       -9.174537   1.000000
    5       -8.685240   1.000000
    6       -7.977898   1.000000
    7       -6.846390   1.000000
    8       -6.311831   1.000000
    9       -6.001187   1.000000
   10       -5.236062   1.000000
   11       -4.806556   1.000000
   12       -4.247988   1.000000
   13       -3.782448   1.000000
   14       -3.309012   1.000000
   15       -3.125952   1.000000
   16       -2.881659   1.000000
   17       -2.140505   1.000000
   18       -1.960633   1.000000
   19       -1.561489   1.000000
   20       -1.317197   1.000000
   21       -1.184928   1.000000
   22       -0.424992   1.000000
   23       -0.048773   1.000000
   24        0.090048   1.000000
   25        0.313114   1.000000
   26        0.621665   1.000000
   27        0.771604   1.000000
   28        0.922089   1.000000
   29        1.089628   1.000000
   30        1.171760   1.000000
   31        1.594468   1.000000
   32        1.977843   1.000000
   33        2.104645   1.000000
   34        2.200005   1.000000
   35        2.472392   1.000000
   36        2.577841   1.000000
   37        2.709483   1.000000
   38        2.832977   1.000000
   39        3.046505   1.000000
   40        3.179432   1.000000
   41        3.341907   1.000000
   42        3.870579   1.000000
   43        4.168117   1.000000
   44        4.191160   1.000000
   45        4.376069   1.000000
   46        4.791808   1.000000
   47        5.046271   1.000000
   48        5.253090   1.000000
   49        6.570519   1.078833
   50        6.901468   0.000000
   51        7.743397   0.000000
   52        8.021841   0.000000
   53        8.836491   0.000000
   54        9.240663   0.000000
   55        9.363175   0.000000
   56        9.882953   0.000000
   57        9.958711   0.000000
   58       10.317006   0.000000
   59       10.624849   0.000000
   60       10.799767   0.000000
   61       11.099731   0.000000
   62       11.343997   0.000000
   63       12.044074   0.000000
   64       12.463096   0.000000
   65       12.774871   0.000000
   66       12.879662   0.000000
   67       13.174139   0.000000
   68       13.484832   0.000000
   69       13.839558   0.000000
   70       14.041963   0.000000
   71       14.124410   0.000000
   72       14.381179   0.000000
 
  0.0000000E+00 -0.4166667E+00  0.3000000E+00  0.2777778E-02
    1      -11.182890   1.000000
    2      -10.696804   1.000000
    3      -10.126739   1.000000
    4       -9.210957   1.000000
    5       -8.634488   1.000000
    6       -8.148918   1.000000
    7       -6.859332   1.000000
    8       -6.192115   1.000000
    9       -6.042539   1.000000
   10       -5.326001   1.000000
   11       -4.844395   1.000000
   12       -4.112257   1.000000
   13       -3.623576   1.000000
   14       -3.246785   1.000000
   15       -2.771525   1.000000
   16       -2.510269   1.000000
   17       -2.337730   1.000000
   18       -2.144790   1.000000
   19       -1.528215   1.000000
   20       -1.332577   1.000000
   21       -1.154981   1.000000
   22       -0.682701   1.000000
   23       -0.150994   1.000000
   24        0.200200   1.000000
   25        0.244326   1.000000
   26        0.564710   1.000000
   27        0.763025   1.000000
   28        0.961776   1.000000
   29        1.101516   1.000000
   30        1.312810   1.000000
   31        1.600293   1.000000
   32        1.914481   1.000000
   33        2.152769   1.000000
   34        2.198643   1.000000
   35        2.429504   1.000000
   36        2.545651   1.000000
   37        2.611690   1.000000
   38        2.714838   1.000000
   39        2.797860   1.000000
   40        3.167269   1.000000
   41        3.467843   1.000000
   42        3.836709   1.000000
   43        3.934368   1.000000
   44        4.189121   1.000000
   45        4.442721   1.000000
   46        4.647295   1.000000
   47        4.961640   1.000000
   48        5.196465   1.000000
   49        6.499152   1.000000
   50        6.915762   0.000000
   51        7.876254   0.000000
   52        8.215417   0.000000
   53        8.668106   0.000000
   54        9.196576   0.000000
   55        9.418672   0.000000
   56        9.702857   0.000000
   57        9.990149   0.000000
   58       10.215226   0.000000
   59       10.544707   0.000000
   60       10.775743   0.000000
   61       11.103148   0.000000
   62       11.482375   0.000000
   63       12.204378   0.000000
   64       12.482126   0.000000
   65       12.930385   0.000000
   66       13.139893   0.000000
   67       13.278839   0.000000
   68       13.516538   0.000000
   69       13.881283   0.000000
   70       14.153902   0.000000
   71       14.241226   0.000000
   72       14.351342   0.000000
 
  0.1666667E+00 -0.4166667E+00  0.3000000E+00  0.2777778E-02
    1      -11.183799   1.000000
    2      -10.700363   1.000000
    3      -10.121649   1.000000
    4       -9.218290   1.000000
    5       -8.601331   1.000000
    6       -8.140617   1.000000
    7       -6.957344   1.000000
    8       -6.197875   1.000000
    9       -6.053697   1.000000
   10       -5.206718   1.000000
   11       -4.893668   1.000000
   12       -4.063510   1.000000
   13       -3.622921   1.000000
   14       -3.284704   1.000000
   15       -2.662993   1.000000
   16       -2.537792   1.000000
   17       -2.432437   1.000000
   18       -2.070749   1.000000
   19       -1.554253   1.000000
   20       -1.306764   1.000000
   21       -1.028013   1.000000
   22       -0.482564   1.000000
   23       -0.380600   1.000000
   24       -0.047786   1.000000
   25        0.205931   1.000000
   26        0.474281   1.000000
   27        0.592032   1.000000
   28        0.829704   1.000000
   29        1.322597   1.000000
   30        1.426302   1.000000
   31        1.673825   1.000000
   32        1.816134   1.000000
   33        2.128078   1.000000
   34        2.205365   1.000000
   35        2.375954   1.000000
   36        2.518503   1.000000
   37        2.717309   1.000000
   38        2.827623   1.000000
   39        3.031100   1.000000
   40        3.181500   1.000000
   41        3.506977   1.000000
   42        3.787537   1.000000
   43        3.931820   1.000000
   44        4.206407   1.000000
   45        4.536474   1.000000
   46        4.645176   1.000000
   47        4.809224   1.000000
   48        5.096077   1.000000
   49        6.503164   1.000000
   50        6.949519   0.000000
   51        7.729212   0.000000
   52        8.374919   0.000000
   53        8.748478   0.000000
   54        9.264156   0.000000
   55        9.401235   0.000000
   56        9.697309   0.000000
   57        9.932567   0.000000
   58       10.273432   0.000000
   59       10.412597   0.000000
   60       10.633266   0.000000
   61       11.243907   0.000000
   62       11.475949   0.000000
   63       12.225956   0.000000
   64       12.320275   0.000000
   65       12.814826   0.000000
   66       13.048886   0.000000
   67       13.322147   0.000000
   68       13.638422   0.000000
   69       13.868832   0.000000
   70       14.114636   0.000000
   71       14.248191   0.000000
   72       14.362866   0.000000
 
  0.3333333E+00 -0.4166667E+00  0.3000000E+00  0.2777778E-02
    1      -11.181870   1.000000
    2      -10.716787   1.000000
    3      -10.094513   1.000000
    4       -9.239053   1.000000
    5       -8.560333   1.000000
    6       -8.168626   1.000000
    7       -6.967016   1.000000
    8       -6.276302   1.000000
    9       -5.993308   1.000000
   10       -5.159902   1.000000
   11       -4.897057   1.000000
   12       -4.265241   1.000000
   13       -3.524805   1.000000
   14       -3.235006   1.000000
   15       -2.774640   1.000000
   16       -2.375309   1.000000
   17       -2.117784   1.000000
   18       -1.941284   1.000000
   19       -1.710134   1.000000
   20       -1.162790   1.000000
   21       -1.094283   1.000000
   22       -0.855039   1.000000
   23       -0.346401   1.000000
   24       -0.279574   1.000000
   25        0.049847   1.000000
   26        0.470811   1.000000
   27        0.702400   1.000000
   28        0.762656   1.000000
   29        1.231858   1.000000
   30        1.418328   1.000000
   31        1.664680   1.000000
   32        1.853430   1.000000
   33        2.073030   1.000000
   34        2.276455   1.000000
   35        2.416771   1.000000
   36        2.617376   1.000000
   37        2.782837   1.000000
   38        2.963424   1.000000
   39        3.177684   1.000000
   40        3.303094   1.000000
   41        3.601124   1.000000
   42        3.782703   1.000000
   43        4.003672   1.000000
   44        4.222757   1.000000
   45        4.386712   1.000000
   46        4.591141   1.000000
   47        4.758723   1.000000
   48        4.971471   1.000000
   49        6.552384   1.000000
   50        6.915352   0.000000
   51        7.588762   0.000000
   52        8.276011   0.000000
   53        8.929745   0.000000
   54        9.355582   0.000000
   55        9.553027   0.000000
   56        9.647389   0.000000
   57        9.964867   0.000000
   58       10.161629   0.000000
   59       10.404983   0.000000
   60       10.539655   0.000000
   61       11.150182   0.000000
   62       11.474057   0.000000
   63       12.089244   0.000000
   64       12.253836   0.000000
   65       12.638163   0.000000
   66       13.156241   0.000000
   67       13.436140   0.000000
   68       13.643743   0.000000
   69       13.918491   0.000000
   70       14.153634   0.000000
   71       14.294884   0.000000
   72       14.403151   0.000000
 
  0.5000000E+00 -0.4166667E+00  0.3000000E+00  0.2777778E-02
    1      -11.178943   1.000000
    2      -10.729283   1.000000
    3      -10.072144   1.000000
    4       -9.255068   1.000000
    5       -8.545396   1.000000
    6       -8.212213   1.000000
    7       -6.869766   1.000000
    8       -6.338180   1.000000
    9       -5.947149   1.000000
   10       -5.231186   1.000000
   11       -4.810538   1.000000
   12       -4.498675   1.000000
   13       -3.491834   1.000000
   14       -3.089921   1.000000
   15       -2.778823   1.000000
   16       -2.260364   1.000000
   17       -2.015080   1.000000
   18       -1.954365   1.000000
   19       -1.607567   1.000000
   20       -1.353493   1.000000
   21       -1.105828   1.000000
   22       -0.860302   1.000000
   23       -0.662483   1.000000
   24       -0.183109   1.000000
   25        0.109270   1.000000
   26        0.440241   1.000000
   27        0.627964   1.000000
   28        0.890556   1.000000
   29        1.037800   1.000000
   30        1.438619   1.000000
   31        1.585330   1.000000
   32        1.978937   1.000000
   33        2.105843   1.000000
   34        2.294795   1.000000
   35        2.549360   1.000000
   36        2.611289   1.000000
   37        2.877955   1.000000
   38        3.012827   1.000000
   39        3.157856   1.000000
   40        3.280683   1.000000
   41        3.652336   1.000000
   42        3.808652   1.000000
   43        3.961289   1.000000
   44        4.118370   1.000000
   45        4.339468   1.000000
   46        4.637124   1.000000
   47        4.789552   1.000000
   48        4.945815   1.000000
   49        6.604606   1.000000
   50        6.837894   0.000000
   51        7.546693   0.000000
   52        8.125394   0.000000
   53        8.984751   0.000000
   54        9.381566   0.000000
   55        9.526850   0.000000
   56        9.854553   0.000000
   57       10.021138   0.000000
   58       10.142722   0.000000
   59       10.244059   0.000000
   60       10.682454   0.000000
   61       10.975425   0.000000
   62       11.407319   0.000000
   63       12.035839   0.000000
   64       12.231731   0.000000
   65       12.675466   0.000000
   66       13.232088   0.000000
   67       13.427614   0.000000
   68       13.621398   0.000000
   69       13.859863   0.000000
   70       14.227946   0.000000
   71       14.337216   0.000000
   72       14.481967   0.000000
 
 -0.3333333E+00 -0.4166667E+00  0.3000000E+00  0.2777778E-02
    1      -11.178005   1.000000
    2      -10.726277   1.000000
    3      -10.076491   1.000000
    4       -9.250592   1.000000
    5       -8.575616   1.000000
    6       -8.220178   1.000000
    7       -6.755649   1.000000
    8       -6.336954   1.000000
    9       -5.939332   1.000000
   10       -5.378136   1.000000
   11       -4.701906   1.000000
   12       -4.566312   1.000000
   13       -3.526881   1.000000
   14       -2.998673   1.000000
   15       -2.724302   1.000000
   16       -2.293629   1.000000
   17       -2.258308   1.000000
   18       -1.941953   1.000000
   19       -1.695078   1.000000
   20       -1.441929   1.000000
   21       -0.968772   1.000000
   22       -0.736158   1.000000
   23       -0.569907   1.000000
   24       -0.002915   1.000000
   25        0.052509   1.000000
   26        0.535080   1.000000
   27        0.613314   1.000000
   28        0.865986   1.000000
   29        1.089513   1.000000
   30        1.434176   1.000000
   31        1.536360   1.000000
   32        1.855567   1.000000
   33        2.192283   1.000000
   34        2.297047   1.000000
   35        2.475226   1.000000
   36        2.656245   1.000000
   37        2.960444   1.000000
   38        2.975172   1.000000
   39        3.122417   1.000000
   40        3.264983   1.000000
   41        3.523188   1.000000
   42        3.612667   1.000000
   43        3.945008   1.000000
   44        4.025031   1.000000
   45        4.328664   1.000000
   46        4.648083   1.000000
   47        4.962674   1.000000
   48        5.097199   1.000000
   49        6.602824   1.000000
   50        6.793292   0.000000
   51        7.651092   0.000000
   52        8.047175   0.000000
   53        8.887548   0.000000
   54        9.232749   0.000000
   55        9.540637   0.000000
   56       10.001643   0.000000
   57       10.017265   0.000000
   58       10.137043   0.000000
   59       10.351639   0.000000
   60       10.689250   0.000000
   61       11.009163   0.000000
   62       11.337134   0.000000
   63       12.015954   0.000000
   64       12.412985   0.000000
   65       12.751447   0.000000
   66       13.245727   0.000000
   67       13.367182   0.000000
   68       13.523171   0.000000
   69       13.859417   0.000000
   70       14.180459   0.000000
   71       14.392500   0.000000
   72       14.510716   0.000000
 
 -0.1666667E+00 -0.4166667E+00  0.3000000E+00  0.2777778E-02
    1      -11.180025   1.000000
    2      -10.710267   1.000000
    3      -10.103925   1.000000
    4       -9.227386   1.000000
    5       -8.623228   1.000000
    6       -8.185438   1.000000
    7       -6.757759   1.000000
    8       -6.264726   1.000000
    9       -5.972176   1.000000
   10       -5.430063   1.000000
   11       -4.772850   1.000000
   12       -4.337446   1.000000
   13       -3.579315   1.000000
   14       -3.074996   1.000000
   15       -2.833331   1.000000
   16       -2.463277   1.000000
   17       -2.104786   1.000000
   18       -2.042369   1.000000
   19       -1.729912   1.000000
   20       -1.483662   1.000000
   21       -1.134002   1.000000
   22       -0.529733   1.000000
   23       -0.251881   1.000000
   24       -0.118545   1.000000
   25        0.299461   1.000000
   26        0.641820   1.000000
   27        0.835019   1.000000
   28        0.917348   1.000000
   29        1.097289   1.000000
   30        1.329675   1.000000
   31        1.448435   1.000000
   32        1.773823   1.000000
   33        2.216595   1.000000
   34        2.320664   1.000000
   35        2.454469   1.000000
   36        2.608335   1.000000
   37        2.728290   1.000000
   38        2.789855   1.000000
   39        2.937887   1.000000
   40        3.184020   1.000000
   41        3.419898   1.000000
   42        3.847398   1.000000
   43        3.980344   1.000000
   44        4.038991   1.000000
   45        4.296475   1.000000
   46        4.639172   1.000000
   47        5.050173   1.000000
   48        5.205778   1.000000
   49        6.545365   1.000000
   50        6.840370   0.000000
   51        7.858329   0.000000
   52        8.035277   0.000000
   53        8.730551   0.000000
   54        9.186632   0.000000
   55        9.481827   0.000000
   56        9.827904   0.000000
   57       10.021752   0.000000
   58       10.164682   0.000000
   59       10.580102   0.000000
   60       10.794897   0.000000
   61       10.952071   0.000000
   62       11.417375   0.000000
   63       12.104573   0.000000
   64       12.548615   0.000000
   65       12.853442   0.000000
   66       13.144621   0.000000
   67       13.315179   0.000000
   68       13.550474   0.000000
   69       13.936798   0.000000
   70       14.133776   0.000000
   71       14.298062   0.000000
   72       14.420689   0.000000
 
  0.0000000E+00 -0.3333333E+00  0.3000000E+00  0.2777778E-02
    1      -11.168341   1.000000
    2      -10.703476   1.000000
    3      -10.223130   1.000000
    4       -9.169441   1.000000
    5       -8.546825   1.000000
    6       -8.347461   1.000000
    7       -6.789578   1.000000
    8       -6.130390   1.000000
    9       -5.979250   1.000000
   10       -5.453876   1.000000
   11       -4.727107   1.000000
   12       -4.116624   1.000000
   13       -3.442993   1.000000
   14       -2.938291   1.000000
   15       -2.632470   1.000000
   16       -2.496754   1.000000
   17       -2.257145   1.000000
   18       -1.797036   1.000000
   19       -1.654769   1.000000
   20       -1.438617   1.000000
   21       -1.144850   1.000000
   22       -0.790626   1.000000
   23       -0.563317   1.000000
   24       -0.090778   1.000000
   25        0.285033   1.000000
   26        0.510775   1.000000
   27        0.752234   1.000000
   28        0.954473   1.000000
   29        1.104810   1.000000
   30        1.267533   1.000000
   31        1.479770   1.000000
   32        1.660184   1.000000
   33        2.062463   1.000000
   34        2.154187   1.000000
   35        2.471399   1.000000
   36        2.542854   1.000000
   37        2.615071   1.000000
   38        2.781397   1.000000
   39        2.835127   1.000000
   40        3.150190   1.000000
   41        3.511586   1.000000
   42        3.642756   1.000000
   43        3.936387   1.000000
   44        4.239862   1.000000
   45        4.309768   1.000000
   46        4.580897   1.000000
   47        4.923986   1.000000
   48        5.058596   1.000000
   49        6.537010   1.000000
   50        6.877404   0.000000
   51        7.755586   0.000000
   52        8.200211   0.000000
   53        8.743818   0.000000
   54        9.343123   0.000000
   55        9.576634   0.000000
   56        9.721389   0.000000
   57       10.010116   0.000000
   58       10.076043   0.000000
   59       10.577733   0.000000
   60       10.733428   0.000000
   61       11.205713   0.000000
   62       11.645147   0.000000
   63       12.278192   0.000000
   64       12.601472   0.000000
   65       13.099379   0.000000
   66       13.376500   0.000000
   67       13.481861   0.000000
   68       13.666755   0.000000
   69       13.954602   0.000000
   70       14.194410   0.000000
   71       14.225724   0.000000
   72       14.388787   0.000000
 
  0.1666667E+00 -0.3333333E+00  0.3000000E+00  0.2777778E-02
    1      -11.163951   1.000000
    2      -10.715418   1.000000
    3      -10.222353   1.000000
    4       -9.138531   1.000000
    5       -8.591477   1.000000
    6       -8.299773   1.000000
    7       -6.897909   1.000000
    8       -6.097764   1.000000
    9       -6.008759   1.000000
   10       -5.286155   1.000000
   11       -4.778709   1.000000
   12       -4.070980   1.000000
   13       -3.544511   1.000000
   14       -3.054626   1.000000
   15       -2.592188   1.000000
   16       -2.554137   1.000000
   17       -2.289233   1.000000
   18       -1.812864   1.000000
   19       -1.515893   1.000000
   20       -1.239546   1.000000
   21       -1.043391   1.000000
   22       -0.647566   1.000000
   23       -0.530287   1.000000
   24       -0.124281   1.000000
   25        0.084511   1.000000
   26        0.418567   1.000000
   27        0.623302   1.000000
   28        0.839537   1.000000
   29        1.099146   1.000000
   30        1.239000   1.000000
   31        1.393868   1.000000
   32        1.520171   1.000000
   33        2.039723   1.000000
   34        2.185106   1.000000
   35        2.450330   1.000000
   36        2.559179   1.000000
   37        2.689877   1.000000
   38        2.827385   1.000000
   39        3.126749   1.000000
   40        3.175841   1.000000
   41        3.600249   1.000000
   42        3.700592   1.000000
   43        3.947916   1.000000
   44        4.152055   1.000000
   45        4.444189   1.000000
   46        4.567744   1.000000
   47        4.788411   1.000000
   48        4.971532   1.000000
   49        6.525943   1.000000
   50        6.927540   0.000000
   51        7.655253   0.000000
   52        8.368814   0.000000
   53        8.876552   0.000000
   54        9.376638   0.000000
   55        9.515915   0.000000
   56        9.699637   0.000000
   57        9.958264   0.000000
   58       10.157420   0.000000
   59       10.436176   0.000000
   60       10.622364   0.000000
   61       11.299536   0.000000
   62       11.611125   0.000000
   63       12.321409   0.000000
   64       12.431747   0.000000
   65       12.943546   0.000000
   66       13.226440   0.000000
   67       13.512724   0.000000
   68       13.732521   0.000000
   69       14.029920   0.000000
   70       14.155311   0.000000
   71       14.310793   0.000000
   72       14.482593   0.000000
 
  0.3333333E+00 -0.3333333E+00  0.3000000E+00  0.2777778E-02
    1      -11.157371   1.000000
    2      -10.734233   1.000000
    3      -10.210240   1.000000
    4       -9.133473   1.000000
    5       -8.594218   1.000000
    6       -8.289699   1.000000
    7       -6.935761   1.000000
    8       -6.103354   1.000000
    9       -5.965308   1.000000
   10       -5.190538   1.000000
   11       -4.857277   1.000000
   12       -4.271656   1.000000
   13       -3.511303   1.000000
   14       -3.092976   1.000000
   15       -2.713111   1.000000
   16       -2.311713   1.000000
   17       -2.067348   1.000000
   18       -1.789713   1.000000
   19       -1.557388   1.000000
   20       -1.054795   1.000000
   21       -0.803409   1.000000
   22       -0.668648   1.000000
   23       -0.483410   1.000000
   24       -0.324987   1.000000
   25       -0.190882   1.000000
   26        0.358044   1.000000
   27        0.519349   1.000000
   28        0.649130   1.000000
   29        0.942112   1.000000
   30        1.192561   1.000000
   31        1.343096   1.000000
   32        1.505834   1.000000
   33        1.954825   1.000000
   34        2.252589   1.000000
   35        2.448811   1.000000
   36        2.693010   1.000000
   37        2.793135   1.000000
   38        2.911999   1.000000
   39        3.081339   1.000000
   40        3.531899   1.000000
   41        3.745051   1.000000
   42        3.781505   1.000000
   43        4.014132   1.000000
   44        4.056745   1.000000
   45        4.337709   1.000000
   46        4.587325   1.000000
   47        4.674310   1.000000
   48        4.940902   1.000000
   49        6.558949   1.000000
   50        6.933994   0.000000
   51        7.587784   0.000000
   52        8.308835   0.000000
   53        9.011957   0.000000
   54        9.372730   0.000000
   55        9.457074   0.000000
   56        9.744595   0.000000
   57       10.014379   0.000000
   58       10.280829   0.000000
   59       10.410484   0.000000
   60       10.504536   0.000000
   61       11.241596   0.000000
   62       11.548338   0.000000
   63       12.079088   0.000000
   64       12.410175   0.000000
   65       12.766666   0.000000
   66       13.214389   0.000000
   67       13.544728   0.000000
   68       13.723209   0.000000
   69       13.898556   0.000000
   70       14.272137   0.000000
   71       14.323657   0.000000
   72       14.506166   0.000000
 
  0.5000000E+00 -0.3333333E+00  0.3000000E+00  0.2777778E-02
    1      -11.155313   1.000000
    2      -10.741003   1.000000
    3      -10.198804   1.000000
    4       -9.159270   1.000000
    5       -8.558303   1.000000
    6       -8.322733   1.000000
    7       -6.863160   1.000000
    8       -6.182356   1.000000
    9       -5.854961   1.000000
   10       -5.262694   1.000000
   11       -4.886599   1.000000
   12       -4.457344   1.000000
   13       -3.375324   1.000000
   14       -3.108878   1.000000
   15       -2.700555   1.000000
   16       -2.122918   1.000000
   17       -1.952478   1.000000
   18       -1.752963   1.000000
   19       -1.327358   1.000000
   20       -1.243322   1.000000
   21       -0.950421   1.000000
   22       -0.778770   1.000000
   23       -0.531582   1.000000
   24       -0.450745   1.000000
   25       -0.115005   1.000000
   26        0.292153   1.000000
   27        0.511973   1.000000
   28        0.690181   1.000000
   29        0.798562   1.000000
   30        1.122441   1.000000
   31        1.282221   1.000000
   32        1.782691   1.000000
   33        1.954761   1.000000
   34        2.261084   1.000000
   35        2.562413   1.000000
   36        2.695754   1.000000
   37        2.811113   1.000000
   38        2.856104   1.000000
   39        2.989357   1.000000
   40        3.507453   1.000000
   41        3.742786   1.000000
   42        3.857974   1.000000
   43        4.091915   1.000000
   44        4.156962   1.000000
   45        4.300160   1.000000
   46        4.569392   1.000000
   47        4.627698   1.000000
   48        4.967074   1.000000
   49        6.607367   1.000000
   50        6.901398   0.000000
   51        7.581867   0.000000
   52        8.152269   0.000000
   53        8.908943   0.000000
   54        9.299858   0.000000
   55        9.540191   0.000000
   56        9.946201   0.000000
   57       10.060611   0.000000
   58       10.139368   0.000000
   59       10.465791   0.000000
   60       10.751018   0.000000
   61       11.091684   0.000000
   62       11.420751   0.000000
   63       12.053216   0.000000
   64       12.253224   0.000000
   65       12.825121   0.000000
   66       13.280922   0.000000
   67       13.439879   0.000000
   68       13.670438   0.000000
   69       13.899561   0.000000
   70       14.381253   0.000000
   71       14.464206   0.000000
   72       14.511640   0.000000
 
 -0.3333333E+00 -0.3333333E+00  0.3000000E+00  0.2777778E-02
    1      -11.160008   1.000000
    2      -10.729487   1.000000
    3      -10.198432   1.000000
    4       -9.189275   1.000000
    5       -8.501710   1.000000
    6       -8.383441   1.000000
    7       -6.741304   1.000000
    8       -6.217838   1.000000
    9       -5.819746   1.000000
   10       -5.490567   1.000000
   11       -4.728323   1.000000
   12       -4.543121   1.000000
   13       -3.320633   1.000000
   14       -2.958927   1.000000
   15       -2.654026   1.000000
   16       -2.057632   1.000000
   17       -1.988574   1.000000
   18       -1.873458   1.000000
   19       -1.635786   1.000000
   20       -1.280586   1.000000
   21       -1.010333   1.000000
   22       -0.813510   1.000000
   23       -0.627559   1.000000
   24       -0.217672   1.000000
   25       -0.010909   1.000000
   26        0.316493   1.000000
   27        0.445450   1.000000
   28        0.737486   1.000000
   29        0.904695   1.000000
   30        1.255853   1.000000
   31        1.398990   1.000000
   32        1.890303   1.000000
   33        1.991575   1.000000
   34        2.254014   1.000000
   35        2.441012   1.000000
   36        2.620221   1.000000
   37        2.762108   1.000000
   38        2.900499   1.000000
   39        3.052146   1.000000
   40        3.311177   1.000000
   41        3.617677   1.000000
   42        3.769934   1.000000
   43        3.931637   1.000000
   44        4.140325   1.000000
   45        4.328729   1.000000
   46        4.562046   1.000000
   47        4.805790   1.000000
   48        5.102413   1.000000
   49        6.624892   1.000000
   50        6.829924   0.000000
   51        7.692282   0.000000
   52        8.018892   0.000000
   53        8.730569   0.000000
   54        9.289563   0.000000
   55        9.603120   0.000000
   56        9.907484   0.000000
   57       10.096760   0.000000
   58       10.186469   0.000000
   59       10.596818   0.000000
   60       10.818543   0.000000
   61       11.007972   0.000000
   62       11.392157   0.000000
   63       12.136939   0.000000
   64       12.328706   0.000000
   65       12.896366   0.000000
   66       13.347822   0.000000
   67       13.520730   0.000000
   68       13.613142   0.000000
   69       13.925776   0.000000
   70       14.207276   0.000000
   71       14.459857   0.000000
   72       14.612748   0.000000
 
 -0.1666667E+00 -0.3333333E+00  0.3000000E+00  0.2777778E-02
    1      -11.166447   1.000000
    2      -10.710824   1.000000
    3      -10.210604   1.000000
    4       -9.194374   1.000000
    5       -8.483238   1.000000
    6       -8.407951   1.000000
    7       -6.706247   1.000000
    8       -6.174584   1.000000
    9       -5.889680   1.000000
   10       -5.583360   1.000000
   11       -4.678815   1.000000
   12       -4.372652   1.000000
   13       -3.358549   1.000000
   14       -2.814441   1.000000
   15       -2.600240   1.000000
   16       -2.381104   1.000000
   17       -2.059819   1.000000
   18       -1.889317   1.000000
   19       -1.713732   1.000000
   20       -1.516973   1.000000
   21       -1.111320   1.000000
   22       -0.761858   1.000000
   23       -0.509415   1.000000
   24       -0.274029   1.000000
   25        0.265435   1.000000
   26        0.461716   1.000000
   27        0.670203   1.000000
   28        0.808226   1.000000
   29        0.958921   1.000000
   30        1.395736   1.000000
   31        1.516803   1.000000
   32        1.735249   1.000000
   33        2.072404   1.000000
   34        2.175464   1.000000
   35        2.446127   1.000000
   36        2.482517   1.000000
   37        2.692362   1.000000
   38        2.816828   1.000000
   39        3.038108   1.000000
   40        3.225409   1.000000
   41        3.519238   1.000000
   42        3.624040   1.000000
   43        3.885265   1.000000
   44        4.087535   1.000000
   45        4.318974   1.000000
   46        4.590710   1.000000
   47        4.957946   1.000000
   48        5.138635   1.000000
   49        6.587557   1.000000
   50        6.815704   0.000000
   51        7.830385   0.000000
   52        7.985213   0.000000
   53        8.671728   0.000000
   54        9.320380   0.000000
   55        9.590742   0.000000
   56        9.807510   0.000000
   57       10.030455   0.000000
   58       10.186902   0.000000
   59       10.701135   0.000000
   60       10.793317   0.000000
   61       10.982228   0.000000
   62       11.569235   0.000000
   63       12.171471   0.000000
   64       12.665506   0.000000
   65       12.910963   0.000000
   66       13.430904   0.000000
   67       13.504596   0.000000
   68       13.670077   0.000000
   69       13.938813   0.000000
   70       14.079353   0.000000
   71       14.320900   0.000000
   72       14.493382   0.000000
 
  0.0000000E+00 -0.2500000E+00  0.3000000E+00  0.2777778E-02
    1      -11.224412   1.000000
    2      -10.704677   1.000000
    3      -10.302174   1.000000
    4       -9.068382   1.000000
    5       -8.607150   1.000000
    6       -8.323794   1.000000
    7       -6.719092   1.000000
    8       -6.095469   1.000000
    9       -5.872889   1.000000
   10       -5.520843   1.000000
   11       -4.572479   1.000000
   12       -4.053813   1.000000
   13       -3.284883   1.000000
   14       -2.854056   1.000000
   15       -2.601490   1.000000
   16       -2.372369   1.000000
   17       -2.128210   1.000000
   18       -1.945674   1.000000
   19       -1.582026   1.000000
   20       -1.375748   1.000000
   21       -1.091690   1.000000
   22       -0.920748   1.000000
   23       -0.812030   1.000000
   24       -0.155012   1.000000
   25        0.138246   1.000000
   26        0.400242   1.000000
   27        0.637567   1.000000
   28        0.786370   1.000000
   29        1.044648   1.000000
   30        1.253203   1.000000
   31        1.458738   1.000000
   32        1.657963   1.000000
   33        1.849385   1.000000
   34        2.133814   1.000000
   35        2.310798   1.000000
   36        2.453446   1.000000
   37        2.569415   1.000000
   38        2.765992   1.000000
   39        2.887135   1.000000
   40        3.136483   1.000000
   41        3.271439   1.000000
   42        3.606391   1.000000
   43        3.991986   1.000000
   44        4.175997   1.000000
   45        4.313681   1.000000
   46        4.586999   1.000000
   47        4.785818   1.000000
   48        5.311069   1.000000
   49        6.596615   1.000000
   50        6.871505   0.000000
   51        7.635341   0.000000
   52        8.127765   0.000000
   53        8.821715   0.000000
   54        9.355829   0.000000
   55        9.601844   0.000000
   56        9.820188   0.000000
   57       10.037833   0.000000
   58       10.302248   0.000000
   59       10.669963   0.000000
   60       10.922754   0.000000
   61       11.425615   0.000000
   62       11.813941   0.000000
   63       12.336785   0.000000
   64       12.751095   0.000000
   65       13.164819   0.000000
   66       13.463103   0.000000
   67       13.592522   0.000000
   68       13.789998   0.000000
   69       13.976369   0.000000
   70       14.236505   0.000000
   71       14.339933   0.000000
   72       14.556234   0.000000
 
  0.1666667E+00 -0.2500000E+00  0.3000000E+00  0.2777778E-02
    1      -11.217384   1.000000
    2      -10.723508   1.000000
    3      -10.299155   1.000000
    4       -9.028247   1.000000
    5       -8.590169   1.000000
    6       -8.362874   1.000000
    7       -6.812755   1.000000
    8       -6.103658   1.000000
    9       -5.826357   1.000000
   10       -5.378571   1.000000
   11       -4.654536   1.000000
   12       -4.029647   1.000000
   13       -3.380947   1.000000
   14       -2.839215   1.000000
   15       -2.640381   1.000000
   16       -2.478791   1.000000
   17       -2.125049   1.000000
   18       -1.775621   1.000000
   19       -1.513523   1.000000
   20       -1.400737   1.000000
   21       -1.041964   1.000000
   22       -0.841229   1.000000
   23       -0.714092   1.000000
   24       -0.200673   1.000000
   25        0.091586   1.000000
   26        0.418216   1.000000
   27        0.589471   1.000000
   28        0.787466   1.000000
   29        0.970441   1.000000
   30        1.140000   1.000000
   31        1.261481   1.000000
   32        1.424286   1.000000
   33        1.979189   1.000000
   34        2.124037   1.000000
   35        2.312705   1.000000
   36        2.479442   1.000000
   37        2.652492   1.000000
   38        2.874568   1.000000
   39        2.941647   1.000000
   40        3.210262   1.000000
   41        3.442628   1.000000
   42        3.737020   1.000000
   43        3.935892   1.000000
   44        4.085313   1.000000
   45        4.321086   1.000000
   46        4.508920   1.000000
   47        4.763967   1.000000
   48        5.237314   1.000000
   49        6.562316   1.000000
   50        6.919334   0.000000
   51        7.611119   0.000000
   52        8.236800   0.000000
   53        9.003950   0.000000
   54        9.406948   0.000000
   55        9.619748   0.000000
   56        9.716012   0.000000
   57       10.028439   0.000000
   58       10.183342   0.000000
   59       10.607164   0.000000
   60       10.887979   0.000000
   61       11.311404   0.000000
   62       11.781315   0.000000
   63       12.498954   0.000000
   64       12.604003   0.000000
   65       13.095216   0.000000
   66       13.276505   0.000000
   67       13.636441   0.000000
   68       13.859164   0.000000
   69       14.093492   0.000000
   70       14.285124   0.000000
   71       14.448662   0.000000
   72       14.619572   0.000000
 
  0.3333333E+00 -0.2500000E+00  0.3000000E+00  0.2777778E-02
    1      -11.203216   1.000000
    2      -10.755318   1.000000
    3      -10.289953   1.000000
    4       -9.004035   1.000000
    5       -8.573834   1.000000
    6       -8.385749   1.000000
    7       -6.864402   1.000000
    8       -6.052272   1.000000
    9       -5.796684   1.000000
   10       -5.244939   1.000000
   11       -4.826288   1.000000
   12       -4.193996   1.000000
   13       -3.425404   1.000000
   14       -2.894463   1.000000
   15       -2.770050   1.000000
   16       -2.241390   1.000000
   17       -1.960162   1.000000
   18       -1.662221   1.000000
   19       -1.424741   1.000000
   20       -1.310005   1.000000
   21       -0.874519   1.000000
   22       -0.696394   1.000000
   23       -0.541685   1.000000
   24       -0.319429   1.000000
   25       -0.147740   1.000000
   26        0.239891   1.000000
   27        0.363585   1.000000
   28        0.672078   1.000000
   29        0.816159   1.000000
   30        1.025175   1.000000
   31        1.152813   1.000000
   32        1.385275   1.000000
   33        1.939802   1.000000
   34        2.099903   1.000000
   35        2.345018   1.000000
   36        2.597538   1.000000
   37        2.702525   1.000000
   38        2.918531   1.000000
   39        3.012866   1.000000
   40        3.335937   1.000000
   41        3.610013   1.000000
   42        3.749784   1.000000
   43        4.055522   1.000000
   44        4.109142   1.000000
   45        4.231024   1.000000
   46        4.540382   1.000000
   47        4.776960   1.000000
   48        5.162252   1.000000
   49        6.590603   1.020153
   50        6.958658   0.000000
   51        7.621844   0.000000
   52        8.200400   0.000000
   53        8.924988   0.000000
   54        9.408034   0.000000
   55        9.590860   0.000000
   56        9.801969   0.000000
   57       10.141223   0.000000
   58       10.318970   0.000000
   59       10.531029   0.000000
   60       10.820597   0.000000
   61       11.199546   0.000000
   62       11.659305   0.000000
   63       12.307947   0.000000
   64       12.578950   0.000000
   65       12.949863   0.000000
   66       13.172677   0.000000
   67       13.616857   0.000000
   68       13.922891   0.000000
   69       14.080886   0.000000
   70       14.337827   0.000000
   71       14.434975   0.000000
   72       14.593602   0.000000
 
  0.5000000E+00 -0.2500000E+00  0.3000000E+00  0.2777778E-02
    1      -11.196181   1.000000
    2      -10.768390   1.000000
    3      -10.283896   1.000000
    4       -9.019341   1.000000
    5       -8.588903   1.000000
    6       -8.356013   1.000000
    7       -6.823067   1.000000
    8       -6.068587   1.000000
    9       -5.722714   1.000000
   10       -5.248861   1.000000
   11       -4.958524   1.000000
   12       -4.322303   1.000000
   13       -3.366085   1.000000
   14       -3.024345   1.000000
   15       -2.755771   1.000000
   16       -2.013286   1.000000
   17       -1.901356   1.000000
   18       -1.645970   1.000000
   19       -1.173441   1.000000
   20       -1.085636   1.000000
   21       -0.897652   1.000000
   22       -0.657248   1.000000
   23       -0.487908   1.000000
   24       -0.449230   1.000000
   25       -0.376637   1.000000
   26        0.010591   1.000000
   27        0.226925   1.000000
   28        0.436544   1.000000
   29        0.865284   1.000000
   30        1.081651   1.000000
   31        1.199713   1.000000
   32        1.436134   1.000000
   33        1.894591   1.000000
   34        2.132241   1.000000
   35        2.424437   1.000000
   36        2.531960   1.000000
   37        2.742732   1.000000
   38        2.877497   1.000000
   39        2.953433   1.000000
   40        3.296399   1.000000
   41        3.542836   1.000000
   42        3.867047   1.000000
   43        4.034543   1.000000
   44        4.243115   1.000000
   45        4.347814   1.000000
   46        4.549939   1.000000
   47        4.792215   1.000000
   48        5.186903   1.000000
   49        6.652330   0.965727
   50        6.978168   0.000000
   51        7.658783   0.000000
   52        8.030515   0.000000
   53        8.700862   0.000000
   54        9.291059   0.000000
   55        9.742347   0.000000
   56        9.888780   0.000000
   57       10.190179   0.000000
   58       10.372888   0.000000
   59       10.756013   0.000000
   60       10.845827   0.000000
   61       11.166790   0.000000
   62       11.524777   0.000000
   63       12.138809   0.000000
   64       12.460676   0.000000
   65       12.952753   0.000000
   66       13.160150   0.000000
   67       13.517583   0.000000
   68       13.692202   0.000000
   69       14.126587   0.000000
   70       14.463137   0.000000
   71       14.574483   0.000000
   72       14.663074   0.000000
 
 -0.3333333E+00 -0.2500000E+00  0.3000000E+00  0.2777778E-02
    1      -11.204319   1.000000
    2      -10.749839   1.000000
    3      -10.285440   1.000000
    4       -9.058630   1.000000
    5       -8.611973   1.000000
    6       -8.311157   1.000000
    7       -6.721375   1.000000
    8       -6.115346   1.000000
    9       -5.714202   1.000000
   10       -5.477124   1.000000
   11       -4.747482   1.000000
   12       -4.402459   1.000000
   13       -3.285538   1.000000
   14       -3.013710   1.000000
   15       -2.707565   1.000000
   16       -2.023632   1.000000
   17       -1.830716   1.000000
   18       -1.643730   1.000000
   19       -1.394162   1.000000
   20       -1.120421   1.000000
   21       -1.051542   1.000000
   22       -0.811339   1.000000
   23       -0.533152   1.000000
   24       -0.304720   1.000000
   25       -0.235601   1.000000
   26        0.027379   1.000000
   27        0.215735   1.000000
   28        0.588071   1.000000
   29        0.844106   1.000000
   30        1.048813   1.000000
   31        1.450461   1.000000
   32        1.562432   1.000000
   33        1.911924   1.000000
   34        2.140038   1.000000
   35        2.411776   1.000000
   36        2.512384   1.000000
   37        2.707606   1.000000
   38        2.774084   1.000000
   39        2.875663   1.000000
   40        3.266016   1.000000
   41        3.432689   1.000000
   42        3.598187   1.000000
   43        4.110669   1.000000
   44        4.268560   1.000000
   45        4.425237   1.000000
   46        4.569822   1.000000
   47        4.833309   1.000000
   48        5.299046   1.000000
   49        6.689286   0.709346
   50        6.928109   0.000000
   51        7.705153   0.000000
   52        7.886436   0.000000
   53        8.606765   0.000000
   54        9.212345   0.000000
   55        9.728015   0.000000
   56        9.941169   0.000000
   57       10.169150   0.000000
   58       10.459221   0.000000
   59       10.870919   0.000000
   60       11.040739   0.000000
   61       11.130317   0.000000
   62       11.488266   0.000000
   63       12.298492   0.000000
   64       12.329542   0.000000
   65       12.972040   0.000000
   66       13.233898   0.000000
   67       13.556901   0.000000
   68       13.704755   0.000000
   69       14.073983   0.000000
   70       14.332329   0.000000
   71       14.556458   0.000000
   72       14.662413   0.000000
 
 -0.1666667E+00 -0.2500000E+00  0.3000000E+00  0.2777778E-02
    1      -11.218304   1.000000
    2      -10.718143   1.000000
    3      -10.294387   1.000000
    4       -9.083394   1.000000
    5       -8.616287   1.000000
    6       -8.299517   1.000000
    7       -6.668388   1.000000
    8       -6.094902   1.000000
    9       -5.835285   1.000000
   10       -5.579749   1.000000
   11       -4.534773   1.000000
   12       -4.329964   1.000000
   13       -3.265262   1.000000
   14       -2.859486   1.000000
   15       -2.669332   1.000000
   16       -2.182025   1.000000
   17       -1.916560   1.000000
   18       -1.781058   1.000000
   19       -1.650798   1.000000
   20       -1.359016   1.000000
   21       -1.104623   1.000000
   22       -0.902971   1.000000
   23       -0.655343   1.000000
   24       -0.242737   1.000000
   25        0.052478   1.000000
   26        0.287186   1.000000
   27        0.579117   1.000000
   28        0.634692   1.000000
   29        0.788306   1.000000
   30        1.177361   1.000000
   31        1.585038   1.000000
   32        1.713660   1.000000
   33        1.920686   1.000000
   34        2.136524   1.000000
   35        2.253948   1.000000
   36        2.488190   1.000000
   37        2.648246   1.000000
   38        2.757993   1.000000
   39        2.876246   1.000000
   40        3.086486   1.000000
   41        3.360823   1.000000
   42        3.508605   1.000000
   43        4.034114   1.000000
   44        4.272284   1.000000
   45        4.346861   1.000000
   46        4.621668   1.000000
   47        4.827791   1.000000
   48        5.349967   1.000000
   49        6.667053   0.938025
   50        6.855310   0.000000
   51        7.673208   0.000000
   52        7.970408   0.000000
   53        8.660623   0.000000
   54        9.228440   0.000000
   55        9.663666   0.000000
   56        9.914581   0.000000
   57       10.132698   0.000000
   58       10.433709   0.000000
   59       10.822543   0.000000
   60       10.920781   0.000000
   61       11.312989   0.000000
   62       11.702249   0.000000
   63       12.260595   0.000000
   64       12.714287   0.000000
   65       12.933704   0.000000
   66       13.332739   0.000000
   67       13.724490   0.000000
   68       13.868282   0.000000
   69       13.966999   0.000000
   70       14.088033   0.000000
   71       14.351486   0.000000
   72       14.641381   0.000000
 
  0.0000000E+00 -0.1666667E+00  0.3000000E+00  0.2777778E-02
    1      -11.324089   1.000000
    2      -10.722062   1.000000
    3      -10.317487   1.000000
    4       -8.939841   1.000000
    5       -8.768158   1.000000
    6       -8.135174   1.000000
    7       -6.665717   1.000000
    8       -6.048817   1.000000
    9       -5.859888   1.000000
   10       -5.436023   1.000000
   11       -4.408740   1.000000
   12       -3.907152   1.000000
   13       -3.269437   1.000000
   14       -3.018198   1.000000
   15       -2.647779   1.000000
   16       -2.377096   1.000000
   17       -2.115934   1.000000
   18       -1.807999   1.000000
   19       -1.686200   1.000000
   20       -1.386051   1.000000
   21       -1.266616   1.000000
   22       -0.925137   1.000000
   23       -0.448698   1.000000
   24       -0.314184   1.000000
   25        0.064262   1.000000
   26        0.309461   1.000000
   27        0.499156   1.000000
   28        0.757285   1.000000
   29        0.869247   1.000000
   30        1.212876   1.000000
   31        1.387493   1.000000
   32        1.568670   1.000000
   33        1.862303   1.000000
   34        1.948217   1.000000
   35        2.180711   1.000000
   36        2.391083   1.000000
   37        2.464424   1.000000
   38        2.713627   1.000000
   39        2.812338   1.000000
   40        3.014041   1.000000
   41        3.314569   1.000000
   42        3.561250   1.000000
   43        3.853609   1.000000
   44        4.133043   1.000000
   45        4.281720   1.000000
   46        4.596751   1.000000
   47        5.019124   1.000000
   48        5.632470   1.000000
   49        6.689505   0.625731
   50        6.913176   0.000000
   51        7.584787   0.000000
   52        8.115395   0.000000
   53        8.843337   0.000000
   54        9.248826   0.000000
   55        9.405640   0.000000
   56        9.962343   0.000000
   57       10.241495   0.000000
   58       10.635910   0.000000
   59       10.883346   0.000000
   60       11.143282   0.000000
   61       11.779185   0.000000
   62       11.859686   0.000000
   63       12.446546   0.000000
   64       12.834486   0.000000
   65       13.148753   0.000000
   66       13.289658   0.000000
   67       13.616940   0.000000
   68       13.868271   0.000000
   69       14.160320   0.000000
   70       14.274659   0.000000
   71       14.459177   0.000000
   72       14.537244   0.000000
 
  0.1666667E+00 -0.1666667E+00  0.3000000E+00  0.2777778E-02
    1      -11.319594   1.000000
    2      -10.738514   1.000000
    3      -10.311332   1.000000
    4       -8.920797   1.000000
    5       -8.716851   1.000000
    6       -8.209968   1.000000
    7       -6.727855   1.000000
    8       -6.055011   1.000000
    9       -5.774070   1.000000
   10       -5.371068   1.000000
   11       -4.541006   1.000000
   12       -3.911654   1.000000
   13       -3.205520   1.000000
   14       -2.897354   1.000000
   15       -2.619771   1.000000
   16       -2.393179   1.000000
   17       -2.130552   1.000000
   18       -1.899204   1.000000
   19       -1.708188   1.000000
   20       -1.416811   1.000000
   21       -1.179053   1.000000
   22       -0.944981   1.000000
   23       -0.514016   1.000000
   24       -0.401046   1.000000
   25        0.005607   1.000000
   26        0.347385   1.000000
   27        0.618175   1.000000
   28        0.715792   1.000000
   29        1.021881   1.000000
   30        1.110846   1.000000
   31        1.235333   1.000000
   32        1.600041   1.000000
   33        1.753267   1.000000
   34        2.026319   1.000000
   35        2.145777   1.000000
   36        2.408320   1.000000
   37        2.551655   1.000000
   38        2.771074   1.000000
   39        2.970938   1.000000
   40        3.072020   1.000000
   41        3.344549   1.000000
   42        3.497754   1.000000
   43        3.894499   1.000000
   44        4.112768   1.000000
   45        4.173814   1.000000
   46        4.603872   1.000000
   47        5.015070   1.000000
   48        5.535710   1.000000
   49        6.609129   1.077616
   50        6.927722   0.000000
   51        7.638617   0.000000
   52        8.152789   0.000000
   53        8.914996   0.000000
   54        9.287059   0.000000
   55        9.622684   0.000000
   56        9.886476   0.000000
   57       10.137851   0.000000
   58       10.458386   0.000000
   59       10.854026   0.000000
   60       11.212289   0.000000
   61       11.401816   0.000000
   62       11.851135   0.000000
   63       12.597817   0.000000
   64       12.864291   0.000000
   65       13.204377   0.000000
   66       13.388857   0.000000
   67       13.596959   0.000000
   68       13.746050   0.000000
   69       14.173240   0.000000
   70       14.473953   0.000000
   71       14.553727   0.000000
   72       14.718859   0.000000
 
  0.3333333E+00 -0.1666667E+00  0.3000000E+00  0.2777778E-02
    1      -11.299145   1.000000
    2      -10.789020   1.000000
    3      -10.294974   1.000000
    4       -8.916857   1.000000
    5       -8.583845   1.000000
    6       -8.336974   1.000000
    7       -6.776119   1.000000
    8       -6.018882   1.000000
    9       -5.702210   1.000000
   10       -5.239189   1.000000
   11       -4.785679   1.000000
   12       -4.015685   1.000000
   13       -3.248068   1.000000
   14       -3.008951   1.000000
   15       -2.688412   1.000000
   16       -2.175388   1.000000
   17       -1.907027   1.000000
   18       -1.789647   1.000000
   19       -1.547525   1.000000
   20       -1.397191   1.000000
   21       -0.995673   1.000000
   22       -0.877652   1.000000
   23       -0.684738   1.000000
   24       -0.377285   1.000000
   25       -0.169060   1.000000
   26        0.273210   1.000000
   27        0.429275   1.000000
   28        0.656183   1.000000
   29        0.846167   1.000000
   30        0.888451   1.000000
   31        1.223353   1.000000
   32        1.578568   1.000000
   33        1.901804   1.000000
   34        2.088426   1.000000
   35        2.139465   1.000000
   36        2.353117   1.000000
   37        2.584124   1.000000
   38        2.833428   1.000000
   39        2.960884   1.000000
   40        3.108676   1.000000
   41        3.411936   1.000000
   42        3.750421   1.000000
   43        3.855710   1.000000
   44        4.127374   1.000000
   45        4.189747   1.000000
   46        4.641220   1.000000
   47        5.004407   1.000000
   48        5.445679   1.000000
   49        6.604428   1.074396
   50        6.966454   0.000000
   51        7.702445   0.000000
   52        8.084555   0.000000
   53        8.752413   0.000000
   54        9.416064   0.000000
   55        9.778870   0.000000
   56        9.963610   0.000000
   57       10.214705   0.000000
   58       10.338849   0.000000
   59       10.890380   0.000000
   60       10.956113   0.000000
   61       11.311640   0.000000
   62       11.743394   0.000000
   63       12.620344   0.000000
   64       12.746434   0.000000
   65       13.069836   0.000000
   66       13.355543   0.000000
   67       13.680635   0.000000
   68       14.056873   0.000000
   69       14.154839   0.000000
   70       14.430517   0.000000
   71       14.560132   0.000000
   72       14.639604   0.000000
 
  0.5000000E+00 -0.1666667E+00  0.3000000E+00  0.2777778E-02
    1      -11.281615   1.000000
    2      -10.823639   1.000000
    3      -10.286130   1.000000
    4       -8.917479   1.000000
    5       -8.544933   1.000000
    6       -8.360827   1.000000
    7       -6.763327   1.000000
    8       -6.018264   1.000000
    9       -5.660591   1.000000
   10       -5.124568   1.000000
   11       -4.978916   1.000000
   12       -4.100972   1.000000
   13       -3.324802   1.000000
   14       -3.119441   1.000000
   15       -2.764686   1.000000
   16       -1.988168   1.000000
   17       -1.906576   1.000000
   18       -1.650036   1.000000
   19       -1.306432   1.000000
   20       -1.059453   1.000000
   21       -0.928666   1.000000
   22       -0.748551   1.000000
   23       -0.655393   1.000000
   24       -0.402649   1.000000
   25       -0.309198   1.000000
   26        0.025018   1.000000
   27        0.101759   1.000000
   28        0.381205   1.000000
   29        0.752264   1.000000
   30        0.930425   1.000000
   31        1.406575   1.000000
   32        1.490724   1.000000
   33        1.804624   1.000000
   34        2.081323   1.000000
   35        2.177071   1.000000
   36        2.429631   1.000000
   37        2.654992   1.000000
   38        2.862231   1.000000
   39        2.954706   1.000000
   40        3.017648   1.000000
   41        3.406322   1.000000
   42        3.699171   1.000000
   43        3.816430   1.000000
   44        4.239620   1.000000
   45        4.469357   1.000000
   46        4.578273   1.000000
   47        5.028190   1.000000
   48        5.458617   1.000000
   49        6.669974   0.715335
   50        7.019530   0.000000
   51        7.719191   0.000000
   52        7.947065   0.000000
   53        8.629128   0.000000
   54        9.291162   0.000000
   55        9.873331   0.000000
   56        9.957503   0.000000
   57       10.296464   0.000000
   58       10.512506   0.000000
   59       10.881560   0.000000
   60       11.016811   0.000000
   61       11.366419   0.000000
   62       11.649853   0.000000
   63       12.405306   0.000000
   64       12.701027   0.000000
   65       13.036720   0.000000
   66       13.258731   0.000000
   67       13.614519   0.000000
   68       13.882654   0.000000
   69       14.257483   0.000000
   70       14.482101   0.000000
   71       14.635503   0.000000
   72       14.732308   0.000000
 
 -0.3333333E+00 -0.1666667E+00  0.3000000E+00  0.2777778E-02
    1      -11.287453   1.000000
    2      -10.808193   1.000000
    3      -10.290025   1.000000
    4       -8.930347   1.000000
    5       -8.662458   1.000000
    6       -8.225396   1.000000
    7       -6.698601   1.000000
    8       -6.066277   1.000000
    9       -5.690267   1.000000
   10       -5.324801   1.000000
   11       -4.692764   1.000000
   12       -4.168810   1.000000
   13       -3.380433   1.000000
   14       -3.105053   1.000000
   15       -2.796972   1.000000
   16       -2.078810   1.000000
   17       -1.821980   1.000000
   18       -1.739908   1.000000
   19       -1.231723   1.000000
   20       -1.051310   1.000000
   21       -0.887524   1.000000
   22       -0.659684   1.000000
   23       -0.493288   1.000000
   24       -0.468001   1.000000
   25       -0.272318   1.000000
   26       -0.078580   1.000000
   27        0.079871   1.000000
   28        0.360686   1.000000
   29        0.813756   1.000000
   30        0.943081   1.000000
   31        1.277283   1.000000
   32        1.561781   1.000000
   33        1.809328   1.000000
   34        2.032249   1.000000
   35        2.199783   1.000000
   36        2.413854   1.000000
   37        2.715329   1.000000
   38        2.806449   1.000000
   39        2.913100   1.000000
   40        3.127755   1.000000
   41        3.361202   1.000000
   42        3.448089   1.000000
   43        3.858348   1.000000
   44        4.161508   1.000000
   45        4.437755   1.000000
   46        4.717157   1.000000
   47        5.074560   1.000000
   48        5.575045   1.000000
   49        6.751780  -0.024941
   50        7.019559   0.000000
   51        7.595512   0.000000
   52        7.965424   0.000000
   53        8.604361   0.000000
   54        9.126944   0.000000
   55        9.725617   0.000000
   56       10.010444   0.000000
   57       10.308036   0.000000
   58       10.692209   0.000000
   59       10.985384   0.000000
   60       11.183577   0.000000
   61       11.483577   0.000000
   62       11.666752   0.000000
   63       12.416803   0.000000
   64       12.595699   0.000000
   65       13.040231   0.000000
   66       13.177638   0.000000
   67       13.530960   0.000000
   68       13.668485   0.000000
   69       14.284253   0.000000
   70       14.457802   0.000000
   71       14.618435   0.000000
   72       14.793419   0.000000
 
 -0.1666667E+00 -0.1666667E+00  0.3000000E+00  0.2777778E-02
    1      -11.309271   1.000000
    2      -10.757680   1.000000
    3      -10.304645   1.000000
    4       -8.948628   1.000000
    5       -8.740183   1.000000
    6       -8.139346   1.000000
    7       -6.648339   1.000000
    8       -6.071485   1.000000
    9       -5.809047   1.000000
   10       -5.427728   1.000000
   11       -4.402595   1.000000
   12       -4.135756   1.000000
   13       -3.361425   1.000000
   14       -3.055040   1.000000
   15       -2.763944   1.000000
   16       -2.223236   1.000000
   17       -1.938316   1.000000
   18       -1.774737   1.000000
   19       -1.396479   1.000000
   20       -1.294205   1.000000
   21       -1.119065   1.000000
   22       -0.846153   1.000000
   23       -0.479473   1.000000
   24       -0.266002   1.000000
   25       -0.063370   1.000000
   26        0.090668   1.000000
   27        0.407088   1.000000
   28        0.611431   1.000000
   29        0.838997   1.000000
   30        0.953105   1.000000
   31        1.190595   1.000000
   32        1.694627   1.000000
   33        1.818855   1.000000
   34        2.049022   1.000000
   35        2.235861   1.000000
   36        2.373596   1.000000
   37        2.578688   1.000000
   38        2.685008   1.000000
   39        2.867947   1.000000
   40        3.001176   1.000000
   41        3.289700   1.000000
   42        3.577285   1.000000
   43        3.924874   1.000000
   44        4.120119   1.000000
   45        4.262843   1.000000
   46        4.716617   1.000000
   47        5.061162   1.000000
   48        5.657574   1.000000
   49        6.774785  -0.112196
   50        6.943049   0.000000
   51        7.548261   0.000000
   52        8.041073   0.000000
   53        8.684967   0.000000
   54        9.109982   0.000000
   55        9.546861   0.000000
   56       10.023788   0.000000
   57       10.307888   0.000000
   58       10.736474   0.000000
   59       11.010679   0.000000
   60       11.077396   0.000000
   61       11.730967   0.000000
   62       11.818222   0.000000
   63       12.458768   0.000000
   64       12.695502   0.000000
   65       12.961995   0.000000
   66       13.231413   0.000000
   67       13.588190   0.000000
   68       13.792787   0.000000
   69       14.137233   0.000000
   70       14.322508   0.000000
   71       14.514740   0.000000
   72       14.544181   0.000000
 
  0.0000000E+00 -0.8333333E-01  0.3000000E+00  0.2777778E-02
    1      -11.427688   1.000000
    2      -10.763821   1.000000
    3      -10.267585   1.000000
    4       -8.957376   1.000000
    5       -8.702398   1.000000
    6       -7.980672   1.000000
    7       -6.682172   1.000000
    8       -6.000585   1.000000
    9       -5.879048   1.000000
   10       -5.263882   1.000000
   11       -4.275199   1.000000
   12       -3.721817   1.000000
   13       -3.336879   1.000000
   14       -3.137517   1.000000
   15       -2.914009   1.000000
   16       -2.450150   1.000000
   17       -2.153161   1.000000
   18       -1.974202   1.000000
   19       -1.593831   1.000000
   20       -1.386687   1.000000
   21       -1.182490   1.000000
   22       -0.860524   1.000000
   23       -0.491838   1.000000
   24       -0.369005   1.000000
   25       -0.010265   1.000000
   26        0.376618   1.000000
   27        0.540458   1.000000
   28        0.715702   1.000000
   29        0.811023   1.000000
   30        0.947750   1.000000
   31        1.238317   1.000000
   32        1.486256   1.000000
   33        1.808405   1.000000
   34        1.980591   1.000000
   35        2.127505   1.000000
   36        2.321288   1.000000
   37        2.418319   1.000000
   38        2.818659   1.000000
   39        2.939175   1.000000
   40        3.018572   1.000000
   41        3.127277   1.000000
   42        3.333671   1.000000
   43        3.810823   1.000000
   44        4.151790   1.000000
   45        4.347455   1.000000
   46        4.809703   1.000000
   47        5.149237   1.000000
   48        5.827870   1.000000
   49        6.828874  -0.037867
   50        6.990964   0.000000
   51        7.609818   0.000000
   52        8.115671   0.000000
   53        8.818334   0.000000
   54        9.178761   0.000000
   55        9.299774   0.000000
   56       10.090163   0.000000
   57       10.396387   0.000000
   58       10.878930   0.000000
   59       11.056626   0.000000
   60       11.345675   0.000000
   61       11.773444   0.000000
   62       12.097449   0.000000
   63       12.632141   0.000000
   64       12.798588   0.000000
   65       13.011888   0.000000
   66       13.225282   0.000000
   67       13.582841   0.000000
   68       13.895602   0.000000
   69       14.122929   0.000000
   70       14.221366   0.000000
   71       14.298333   0.000000
   72       14.543729   0.000000
 
  0.1666667E+00 -0.8333333E-01  0.3000000E+00  0.2777778E-02
    1      -11.429744   1.000000
    2      -10.763025   1.000000
    3      -10.266507   1.000000
    4       -8.910151   1.000000
    5       -8.728212   1.000000
    6       -8.021465   1.000000
    7       -6.704926   1.000000
    8       -5.963239   1.000000
    9       -5.868224   1.000000
   10       -5.212419   1.000000
   11       -4.460309   1.000000
   12       -3.757246   1.000000
   13       -3.136586   1.000000
   14       -3.038978   1.000000
   15       -2.694328   1.000000
   16       -2.532240   1.000000
   17       -2.132157   1.000000
   18       -1.993221   1.000000
   19       -1.815593   1.000000
   20       -1.390950   1.000000
   21       -1.252011   1.000000
   22       -0.962591   1.000000
   23       -0.566058   1.000000
   24       -0.439093   1.000000
   25       -0.082648   1.000000
   26        0.341231   1.000000
   27        0.556703   1.000000
   28        0.742320   1.000000
   29        1.064437   1.000000
   30        1.163038   1.000000
   31        1.253014   1.000000
   32        1.394594   1.000000
   33        1.758641   1.000000
   34        1.985404   1.000000
   35        2.072302   1.000000
   36        2.368440   1.000000
   37        2.455844   1.000000
   38        2.794786   1.000000
   39        2.913021   1.000000
   40        3.110954   1.000000
   41        3.200463   1.000000
   42        3.325729   1.000000
   43        3.870535   1.000000
   44        4.041134   1.000000
   45        4.391577   1.000000
   46        4.796576   1.000000
   47        5.104171   1.000000
   48        5.731261   1.000000
   49        6.724742   0.190317
   50        6.971347   0.000000
   51        7.725387   0.000000
   52        8.081045   0.000000
   53        8.785885   0.000000
   54        9.242547   0.000000
   55        9.549026   0.000000
   56       10.057582   0.000000
   57       10.324842   0.000000
   58       10.704018   0.000000
   59       10.995119   0.000000
   60       11.427545   0.000000
   61       11.561068   0.000000
   62       11.811069   0.000000
   63       12.736851   0.000000
   64       12.889275   0.000000
   65       13.256573   0.000000
   66       13.362277   0.000000
   67       13.605296   0.000000
   68       13.700911   0.000000
   69       14.126529   0.000000
   70       14.337920   0.000000
   71       14.532736   0.000000
   72       14.653670   0.000000
 
  0.3333333E+00 -0.8333333E-01  0.3000000E+00  0.2777778E-02
    1      -11.408302   1.000000
    2      -10.823591   1.000000
    3      -10.240676   1.000000
    4       -8.889884   1.000000
    5       -8.627440   1.000000
    6       -8.146910   1.000000
    7       -6.729753   1.000000
    8       -5.952823   1.000000
    9       -5.798522   1.000000
   10       -5.101409   1.000000
   11       -4.716826   1.000000
   12       -3.793064   1.000000
   13       -3.196038   1.000000
   14       -3.052702   1.000000
   15       -2.691742   1.000000
   16       -2.226231   1.000000
   17       -2.025950   1.000000
   18       -1.949967   1.000000
   19       -1.790456   1.000000
   20       -1.397484   1.000000
   21       -1.094699   1.000000
   22       -0.974545   1.000000
   23       -0.679917   1.000000
   24       -0.497208   1.000000
   25       -0.353487   1.000000
   26        0.318501   1.000000
   27        0.528270   1.000000
   28        0.654760   1.000000
   29        0.820248   1.000000
   30        1.023248   1.000000
   31        1.395054   1.000000
   32        1.616717   1.000000
   33        1.823416   1.000000
   34        1.890797   1.000000
   35        2.173020   1.000000
   36        2.349128   1.000000
   37        2.535091   1.000000
   38        2.727248   1.000000
   39        2.884085   1.000000
   40        3.197413   1.000000
   41        3.355153   1.000000
   42        3.564560   1.000000
   43        3.716103   1.000000
   44        4.108910   1.000000
   45        4.333743   1.000000
   46        4.719114   1.000000
   47        5.085335   1.000000
   48        5.638405   1.000000
   49        6.665166   0.718857
   50        6.967712   0.000000
   51        7.789022   0.000000
   52        8.036982   0.000000
   53        8.731740   0.000000
   54        9.414403   0.000000
   55        9.827103   0.000000
   56       10.084909   0.000000
   57       10.263738   0.000000
   58       10.520887   0.000000
   59       10.871839   0.000000
   60       11.225910   0.000000
   61       11.478147   0.000000
   62       11.789727   0.000000
   63       12.808038   0.000000
   64       12.914778   0.000000
   65       13.098516   0.000000
   66       13.593830   0.000000
   67       13.746523   0.000000
   68       13.845315   0.000000
   69       14.076557   0.000000
   70       14.442933   0.000000
   71       14.523480   0.000000
   72       14.691906   0.000000
 
  0.5000000E+00 -0.8333333E-01  0.3000000E+00  0.2777778E-02
    1      -11.381015   1.000000
    2      -10.883692   1.000000
    3      -10.221515   1.000000
    4       -8.897980   1.000000
    5       -8.469461   1.000000
    6       -8.280986   1.000000
    7       -6.732280   1.000000
    8       -5.964471   1.000000
    9       -5.758131   1.000000
   10       -5.044562   1.000000
   11       -4.803347   1.000000
   12       -3.830419   1.000000
   13       -3.387334   1.000000
   14       -3.078345   1.000000
   15       -2.788985   1.000000
   16       -2.189701   1.000000
   17       -2.012253   1.000000
   18       -1.637851   1.000000
   19       -1.497273   1.000000
   20       -1.310054   1.000000
   21       -1.046649   1.000000
   22       -0.968451   1.000000
   23       -0.676899   1.000000
   24       -0.552963   1.000000
   25       -0.229007   1.000000
   26        0.118502   1.000000
   27        0.369484   1.000000
   28        0.499467   1.000000
   29        0.594269   1.000000
   30        0.821567   1.000000
   31        1.472012   1.000000
   32        1.670413   1.000000
   33        1.860288   1.000000
   34        1.965690   1.000000
   35        2.225099   1.000000
   36        2.419585   1.000000
   37        2.611150   1.000000
   38        2.690082   1.000000
   39        2.910981   1.000000
   40        3.009869   1.000000
   41        3.361974   1.000000
   42        3.660268   1.000000
   43        3.839052   1.000000
   44        4.142148   1.000000
   45        4.368991   1.000000
   46        4.555907   1.000000
   47        5.141913   1.000000
   48        5.621746   1.000000
   49        6.681268   0.540627
   50        7.011346   0.000000
   51        7.686667   0.000000
   52        8.103145   0.000000
   53        8.715748   0.000000
   54        9.370596   0.000000
   55        9.902758   0.000000
   56       10.001745   0.000000
   57       10.381857   0.000000
   58       10.490617   0.000000
   59       10.911377   0.000000
   60       11.266257   0.000000
   61       11.463928   0.000000
   62       11.831799   0.000000
   63       12.688421   0.000000
   64       12.852961   0.000000
   65       13.040091   0.000000
   66       13.544463   0.000000
   67       13.778485   0.000000
   68       13.920604   0.000000
   69       14.123177   0.000000
   70       14.415469   0.000000
   71       14.632588   0.000000
   72       14.734778   0.000000
 
 -0.3333333E+00 -0.8333333E-01  0.3000000E+00  0.2777778E-02
    1      -11.378412   1.000000
    2      -10.885360   1.000000
    3      -10.222390   1.000000
    4       -8.925863   1.000000
    5       -8.511879   1.000000
    6       -8.190855   1.000000
    7       -6.709040   1.000000
    8       -6.016182   1.000000
    9       -5.756768   1.000000
   10       -5.176860   1.000000
   11       -4.543632   1.000000
   12       -3.870896   1.000000
   13       -3.489676   1.000000
   14       -3.113307   1.000000
   15       -2.917297   1.000000
   16       -2.250399   1.000000
   17       -1.981564   1.000000
   18       -1.770090   1.000000
   19       -1.449796   1.000000
   20       -1.106510   1.000000
   21       -0.944059   1.000000
   22       -0.788236   1.000000
   23       -0.505287   1.000000
   24       -0.359697   1.000000
   25       -0.214410   1.000000
   26       -0.101562   1.000000
   27        0.213959   1.000000
   28        0.400187   1.000000
   29        0.621789   1.000000
   30        0.800463   1.000000
   31        1.416774   1.000000
   32        1.567231   1.000000
   33        1.752804   1.000000
   34        1.968049   1.000000
   35        2.273368   1.000000
   36        2.436314   1.000000
   37        2.640767   1.000000
   38        2.727792   1.000000
   39        2.941887   1.000000
   40        3.031961   1.000000
   41        3.405523   1.000000
   42        3.595270   1.000000
   43        3.745177   1.000000
   44        3.992140   1.000000
   45        4.319254   1.000000
   46        4.679234   1.000000
   47        5.227483   1.000000
   48        5.717568   1.000000
   49        6.770247  -0.044098
   50        7.060422   0.000000
   51        7.573497   0.000000
   52        8.164414   0.000000
   53        8.715554   0.000000
   54        9.188047   0.000000
   55        9.621700   0.000000
   56       10.061359   0.000000
   57       10.408193   0.000000
   58       10.758709   0.000000
   59       11.093923   0.000000
   60       11.245440   0.000000
   61       11.666642   0.000000
   62       11.930283   0.000000
   63       12.611739   0.000000
   64       12.804581   0.000000
   65       13.023428   0.000000
   66       13.352947   0.000000
   67       13.571155   0.000000
   68       13.727309   0.000000
   69       14.208953   0.000000
   70       14.426460   0.000000
   71       14.653194   0.000000
   72       14.803455   0.000000
 
 -0.1666667E+00 -0.8333333E-01  0.3000000E+00  0.2777778E-02
    1      -11.403748   1.000000
    2      -10.826014   1.000000
    3      -10.242579   1.000000
    4       -8.960435   1.000000
    5       -8.619552   1.000000
    6       -8.045029   1.000000
    7       -6.683586   1.000000
    8       -6.041097   1.000000
    9       -5.809360   1.000000
   10       -5.255182   1.000000
   11       -4.286830   1.000000
   12       -3.832660   1.000000
   13       -3.474135   1.000000
   14       -3.186541   1.000000
   15       -2.954782   1.000000
   16       -2.358431   1.000000
   17       -2.029483   1.000000
   18       -1.916531   1.000000
   19       -1.558148   1.000000
   20       -1.170885   1.000000
   21       -0.944105   1.000000
   22       -0.723207   1.000000
   23       -0.499227   1.000000
   24       -0.272783   1.000000
   25       -0.184707   1.000000
   26        0.072564   1.000000
   27        0.345961   1.000000
   28        0.509062   1.000000
   29        0.765660   1.000000
   30        0.896865   1.000000
   31        1.271850   1.000000
   32        1.536928   1.000000
   33        1.671175   1.000000
   34        1.878993   1.000000
   35        2.258329   1.000000
   36        2.410793   1.000000
   37        2.559433   1.000000
   38        2.798086   1.000000
   39        2.934946   1.000000
   40        3.043646   1.000000
   41        3.239874   1.000000
   42        3.580532   1.000000
   43        3.683310   1.000000
   44        4.055052   1.000000
   45        4.201403   1.000000
   46        4.832542   1.000000
   47        5.217322   1.000000
   48        5.828280   1.000000
   49        6.858480   0.000000
   50        7.037081   0.000000
   51        7.542445   0.000000
   52        8.147147   0.000000
   53        8.754447   0.000000
   54        9.144348   0.000000
   55        9.369700   0.000000
   56       10.104948   0.000000
   57       10.424546   0.000000
   58       10.916919   0.000000
   59       11.120464   0.000000
   60       11.250604   0.000000
   61       11.765277   0.000000
   62       12.173125   0.000000
   63       12.643591   0.000000
   64       12.775516   0.000000
   65       12.929554   0.000000
   66       13.220948   0.000000
   67       13.509017   0.000000
   68       13.719411   0.000000
   69       14.205917   0.000000
   70       14.315234   0.000000
   71       14.401784   0.000000
   72       14.589343   0.000000
 
  0.0000000E+00  0.0000000E+00  0.4000000E+00  0.2777778E-02
    1      -11.373364   1.000000
    2      -10.766010   1.000000
    3      -10.370736   1.000000
    4       -9.030281   1.000000
    5       -8.654355   1.000000
    6       -7.891157   1.000000
    7       -6.769035   1.000000
    8       -6.033900   1.000000
    9       -5.905377   1.000000
   10       -5.172011   1.000000
   11       -4.143758   1.000000
   12       -3.645950   1.000000
   13       -3.485633   1.000000
   14       -3.195864   1.000000
   15       -3.047517   1.000000
   16       -2.356879   1.000000
   17       -2.164959   1.000000
   18       -1.787590   1.000000
   19       -1.350450   1.000000
   20       -1.155148   1.000000
   21       -0.874936   1.000000
   22       -0.762963   1.000000
   23       -0.455999   1.000000
   24       -0.230857   1.000000
   25       -0.060012   1.000000
   26        0.153691   1.000000
   27        0.319023   1.000000
   28        0.485026   1.000000
   29        0.776557   1.000000
   30        0.918791   1.000000
   31        1.248338   1.000000
   32        1.346384   1.000000
   33        1.663298   1.000000
   34        1.839873   1.000000
   35        1.974742   1.000000
   36        2.245679   1.000000
   37        2.505756   1.000000
   38        2.636189   1.000000
   39        2.727122   1.000000
   40        2.930541   1.000000
   41        3.208593   1.000000
   42        3.307027   1.000000
   43        3.721610   1.000000
   44        4.226854   1.000000
   45        4.365321   1.000000
   46        4.862613   1.000000
   47        5.180542   1.000000
   48        5.889532   1.000000
   49        6.808181   0.000000
   50        7.106195   0.000000
   51        7.579741   0.000000
   52        8.206047   0.000000
   53        8.550424   0.000000
   54        8.856905   0.000000
   55        9.077137   0.000000
   56       10.082143   0.000000
   57       10.732678   0.000000
   58       10.936439   0.000000
   59       11.417239   0.000000
   60       11.860196   0.000000
   61       12.101167   0.000000
   62       12.527816   0.000000
   63       12.631332   0.000000
   64       12.785116   0.000000
   65       13.048902   0.000000
   66       13.426715   0.000000
   67       13.621100   0.000000
   68       13.725075   0.000000
   69       13.963039   0.000000
   70       14.024288   0.000000
   71       14.229985   0.000000
   72       14.404585   0.000000
 
  0.1666667E+00  0.6938894E-17  0.4000000E+00  0.2777778E-02
    1      -11.383529   1.000000
    2      -10.744097   1.000000
    3      -10.376477   1.000000
    4       -8.983312   1.000000
    5       -8.717699   1.000000
    6       -7.911765   1.000000
    7       -6.767059   1.000000
    8       -6.012946   1.000000
    9       -5.877188   1.000000
   10       -5.115815   1.000000
   11       -4.387622   1.000000
   12       -3.610451   1.000000
   13       -3.342969   1.000000
   14       -3.139276   1.000000
   15       -2.799355   1.000000
   16       -2.465335   1.000000
   17       -2.204153   1.000000
   18       -1.876564   1.000000
   19       -1.455328   1.000000
   20       -1.159029   1.000000
   21       -0.995893   1.000000
   22       -0.881964   1.000000
   23       -0.494225   1.000000
   24       -0.332948   1.000000
   25        0.087241   1.000000
   26        0.311887   1.000000
   27        0.400144   1.000000
   28        0.578699   1.000000
   29        0.724322   1.000000
   30        0.979536   1.000000
   31        1.184702   1.000000
   32        1.302585   1.000000
   33        1.700934   1.000000
   34        1.770373   1.000000
   35        2.011670   1.000000
   36        2.280766   1.000000
   37        2.406718   1.000000
   38        2.720665   1.000000
   39        2.792677   1.000000
   40        2.996367   1.000000
   41        3.151153   1.000000
   42        3.247164   1.000000
   43        3.787310   1.000000
   44        4.186791   1.000000
   45        4.511292   1.000000
   46        4.818608   1.000000
   47        5.144086   1.000000
   48        5.819443   1.000000
   49        6.775323  -0.042040
   50        6.980332   0.000000
   51        7.695377   0.000000
   52        8.126472   0.000000
   53        8.512375   0.000000
   54        8.890075   0.000000
   55        9.263586   0.000000
   56       10.146654   0.000000
   57       10.710747   0.000000
   58       10.828320   0.000000
   59       11.481418   0.000000
   60       11.766677   0.000000
   61       11.950399   0.000000
   62       12.302291   0.000000
   63       12.602120   0.000000
   64       12.842167   0.000000
   65       13.105827   0.000000
   66       13.395692   0.000000
   67       13.681478   0.000000
   68       13.806821   0.000000
   69       13.989494   0.000000
   70       14.140879   0.000000
   71       14.260691   0.000000
   72       14.386396   0.000000
 
  0.3333333E+00  0.0000000E+00  0.4000000E+00  0.2777778E-02
    1      -11.374198   1.000000
    2      -10.779686   1.000000
    3      -10.357138   1.000000
    4       -8.945751   1.000000
    5       -8.668125   1.000000
    6       -8.039181   1.000000
    7       -6.757478   1.000000
    8       -6.009769   1.000000
    9       -5.816093   1.000000
   10       -5.026235   1.000000
   11       -4.651898   1.000000
   12       -3.587437   1.000000
   13       -3.164287   1.000000
   14       -3.048886   1.000000
   15       -2.806577   1.000000
   16       -2.348586   1.000000
   17       -2.194183   1.000000
   18       -1.902263   1.000000
   19       -1.649257   1.000000
   20       -1.127249   1.000000
   21       -0.982845   1.000000
   22       -0.908689   1.000000
   23       -0.555079   1.000000
   24       -0.420286   1.000000
   25       -0.178321   1.000000
   26        0.307368   1.000000
   27        0.350266   1.000000
   28        0.664110   1.000000
   29        0.867915   1.000000
   30        1.035982   1.000000
   31        1.138352   1.000000
   32        1.351749   1.000000
   33        1.595806   1.000000
   34        1.823980   1.000000
   35        2.130304   1.000000
   36        2.293408   1.000000
   37        2.367238   1.000000
   38        2.673972   1.000000
   39        2.863987   1.000000
   40        3.071048   1.000000
   41        3.399471   1.000000
   42        3.465927   1.000000
   43        3.684143   1.000000
   44        4.136220   1.000000
   45        4.375574   1.000000
   46        4.761644   1.000000
   47        5.097119   1.000000
   48        5.698636   1.000000
   49        6.673309   0.697798
   50        6.865531   0.000000
   51        7.807408   0.000000
   52        8.081318   0.000000
   53        8.509003   0.000000
   54        8.987194   0.000000
   55        9.606736   0.000000
   56       10.186023   0.000000
   57       10.540123   0.000000
   58       10.785628   0.000000
   59       11.265122   0.000000
   60       11.632228   0.000000
   61       11.739639   0.000000
   62       12.317461   0.000000
   63       12.697663   0.000000
   64       12.986563   0.000000
   65       13.248487   0.000000
   66       13.368693   0.000000
   67       13.524185   0.000000
   68       13.824074   0.000000
   69       14.079200   0.000000
   70       14.300139   0.000000
   71       14.396631   0.000000
   72       14.569139   0.000000
 
  0.5000000E+00  0.0000000E+00  0.4000000E+00  0.2777778E-02
    1      -11.352753   1.000000
    2      -10.833200   1.000000
    3      -10.338368   1.000000
    4       -8.958424   1.000000
    5       -8.501461   1.000000
    6       -8.195349   1.000000
    7       -6.751284   1.000000
    8       -6.005359   1.000000
    9       -5.810911   1.000000
   10       -5.027537   1.000000
   11       -4.676932   1.000000
   12       -3.594439   1.000000
   13       -3.207239   1.000000
   14       -3.105634   1.000000
   15       -2.726746   1.000000
   16       -2.305559   1.000000
   17       -2.033843   1.000000
   18       -1.912515   1.000000
   19       -1.614647   1.000000
   20       -1.212728   1.000000
   21       -0.989063   1.000000
   22       -0.818539   1.000000
   23       -0.619344   1.000000
   24       -0.469678   1.000000
   25       -0.144169   1.000000
   26        0.161547   1.000000
   27        0.369943   1.000000
   28        0.521115   1.000000
   29        0.773408   1.000000
   30        0.937345   1.000000
   31        1.222469   1.000000
   32        1.390908   1.000000
   33        1.623119   1.000000
   34        1.928478   1.000000
   35        2.124475   1.000000
   36        2.317619   1.000000
   37        2.497133   1.000000
   38        2.710609   1.000000
   39        2.940397   1.000000
   40        3.136366   1.000000
   41        3.303431   1.000000
   42        3.543897   1.000000
   43        3.731908   1.000000
   44        4.117970   1.000000
   45        4.374163   1.000000
   46        4.535930   1.000000
   47        5.103660   1.000000
   48        5.647586   1.000000
   49        6.606556   1.053881
   50        6.840526   0.000000
   51        7.739124   0.000000
   52        8.208391   0.000000
   53        8.531863   0.000000
   54        9.040784   0.000000
   55        9.839376   0.000000
   56       10.161364   0.000000
   57       10.269339   0.000000
   58       10.927852   0.000000
   59       11.081088   0.000000
   60       11.528198   0.000000
   61       11.790923   0.000000
   62       12.329000   0.000000
   63       12.764793   0.000000
   64       13.060954   0.000000
   65       13.224987   0.000000
   66       13.346821   0.000000
   67       13.540367   0.000000
   68       13.888720   0.000000
   69       14.167776   0.000000
   70       14.349243   0.000000
   71       14.629933   0.000000
   72       14.734741   0.000000
 
 -0.3333333E+00  0.0000000E+00  0.4000000E+00  0.2777778E-02
    1      -11.340498   1.000000
    2      -10.853987   1.000000
    3      -10.336525   1.000000
    4       -8.985711   1.000000
    5       -8.464561   1.000000
    6       -8.167666   1.000000
    7       -6.754394   1.000000
    8       -6.007861   1.000000
    9       -5.866331   1.000000
   10       -5.112328   1.000000
   11       -4.455325   1.000000
   12       -3.645036   1.000000
   13       -3.394933   1.000000
   14       -3.114170   1.000000
   15       -2.789185   1.000000
   16       -2.256612   1.000000
   17       -2.143768   1.000000
   18       -1.747177   1.000000
   19       -1.459567   1.000000
   20       -1.200132   1.000000
   21       -0.998919   1.000000
   22       -0.740796   1.000000
   23       -0.579027   1.000000
   24       -0.346742   1.000000
   25       -0.078280   1.000000
   26        0.018591   1.000000
   27        0.344925   1.000000
   28        0.490411   1.000000
   29        0.599611   1.000000
   30        0.862169   1.000000
   31        1.291026   1.000000
   32        1.397539   1.000000
   33        1.657091   1.000000
   34        1.852210   1.000000
   35        2.201390   1.000000
   36        2.311714   1.000000
   37        2.508407   1.000000
   38        2.693340   1.000000
   39        2.900831   1.000000
   40        3.009071   1.000000
   41        3.385806   1.000000
   42        3.620860   1.000000
   43        3.760198   1.000000
   44        4.005850   1.000000
   45        4.294194   1.000000
   46        4.492912   1.000000
   47        5.215529   1.000000
   48        5.699804   1.000000
   49        6.638825   0.967584
   50        6.938799   0.000000
   51        7.637716   0.000000
   52        8.344808   0.000000
   53        8.555576   0.000000
   54        8.953795   0.000000
   55        9.503827   0.000000
   56       10.008278   0.000000
   57       10.558187   0.000000
   58       10.979409   0.000000
   59       11.293870   0.000000
   60       11.529778   0.000000
   61       11.866442   0.000000
   62       12.381757   0.000000
   63       12.735065   0.000000
   64       12.994686   0.000000
   65       13.132845   0.000000
   66       13.417053   0.000000
   67       13.610178   0.000000
   68       13.930877   0.000000
   69       14.141637   0.000000
   70       14.308967   0.000000
   71       14.502862   0.000000
   72       14.670282   0.000000
 
 -0.1666667E+00  0.0000000E+00  0.4000000E+00  0.2777778E-02
    1      -11.352027   1.000000
    2      -10.821514   1.000000
    3      -10.350221   1.000000
    4       -9.021938   1.000000
    5       -8.563006   1.000000
    6       -7.993807   1.000000
    7       -6.762580   1.000000
    8       -6.035492   1.000000
    9       -5.896452   1.000000
   10       -5.168851   1.000000
   11       -4.194200   1.000000
   12       -3.688528   1.000000
   13       -3.471162   1.000000
   14       -3.180999   1.000000
   15       -2.999576   1.000000
   16       -2.321474   1.000000
   17       -2.126607   1.000000
   18       -1.754727   1.000000
   19       -1.345923   1.000000
   20       -1.079728   1.000000
   21       -0.877557   1.000000
   22       -0.646442   1.000000
   23       -0.506974   1.000000
   24       -0.338439   1.000000
   25       -0.170760   1.000000
   26       -0.021391   1.000000
   27        0.331338   1.000000
   28        0.489494   1.000000
   29        0.679355   1.000000
   30        0.943635   1.000000
   31        1.236001   1.000000
   32        1.436980   1.000000
   33        1.620021   1.000000
   34        1.821049   1.000000
   35        2.134048   1.000000
   36        2.201407   1.000000
   37        2.482585   1.000000
   38        2.633994   1.000000
   39        2.773333   1.000000
   40        3.013679   1.000000
   41        3.412143   1.000000
   42        3.535751   1.000000
   43        3.680059   1.000000
   44        4.005407   1.000000
   45        4.248135   1.000000
   46        4.742389   1.000000
   47        5.225861   1.000000
   48        5.830512   1.000000
   49        6.739572   0.007949
   50        7.083393   0.000000
   51        7.569365   0.000000
   52        8.331769   0.000000
   53        8.583579   0.000000
   54        8.846327   0.000000
   55        9.145138   0.000000
   56       10.035904   0.000000
   57       10.808282   0.000000
   58       10.867708   0.000000
   59       11.348786   0.000000
   60       11.854229   0.000000
   61       11.928506   0.000000
   62       12.496424   0.000000
   63       12.724295   0.000000
   64       12.908566   0.000000
   65       13.064138   0.000000
   66       13.501346   0.000000
   67       13.580477   0.000000
   68       13.745466   0.000000
   69       13.979959   0.000000
   70       14.131592   0.000000
   71       14.330870   0.000000
   72       14.572456   0.000000
 
  0.0000000E+00  0.8333333E-01  0.4000000E+00  0.2777778E-02
    1      -11.415853   1.000000
    2      -10.797362   1.000000
    3      -10.268738   1.000000
    4       -9.108100   1.000000
    5       -8.437882   1.000000
    6       -7.926521   1.000000
    7       -6.885425   1.000000
    8       -6.059294   1.000000
    9       -5.852696   1.000000
   10       -5.189031   1.000000
   11       -4.165343   1.000000
   12       -3.887302   1.000000
   13       -3.301562   1.000000
   14       -3.194609   1.000000
   15       -2.732770   1.000000
   16       -2.603481   1.000000
   17       -2.184880   1.000000
   18       -1.787651   1.000000
   19       -1.496271   1.000000
   20       -1.290963   1.000000
   21       -1.061415   1.000000
   22       -0.948090   1.000000
   23       -0.590799   1.000000
   24       -0.401308   1.000000
   25        0.011215   1.000000
   26        0.188239   1.000000
   27        0.402852   1.000000
   28        0.554662   1.000000
   29        0.928436   1.000000
   30        1.040615   1.000000
   31        1.344265   1.000000
   32        1.450824   1.000000
   33        1.558000   1.000000
   34        1.925366   1.000000
   35        2.042829   1.000000
   36        2.323047   1.000000
   37        2.603825   1.000000
   38        2.726652   1.000000
   39        2.908892   1.000000
   40        3.018143   1.000000
   41        3.181318   1.000000
   42        3.415951   1.000000
   43        3.857147   1.000000
   44        4.257236   1.000000
   45        4.463811   1.000000
   46        4.797406   1.000000
   47        5.071660   1.000000
   48        5.786170   1.000000
   49        6.780582  -0.062222
   50        7.121316   0.000000
   51        7.711038   0.000000
   52        8.127373   0.000000
   53        8.580348   0.000000
   54        8.921960   0.000000
   55        9.221932   0.000000
   56       10.068577   0.000000
   57       10.728370   0.000000
   58       10.906000   0.000000
   59       11.414978   0.000000
   60       11.718632   0.000000
   61       11.946764   0.000000
   62       12.189055   0.000000
   63       12.555581   0.000000
   64       12.713942   0.000000
   65       13.055529   0.000000
   66       13.295058   0.000000
   67       13.609416   0.000000
   68       13.694833   0.000000
   69       13.740909   0.000000
   70       14.077868   0.000000
   71       14.258069   0.000000
   72       14.461115   0.000000
 
  0.1666667E+00  0.8333333E-01  0.4000000E+00  0.2777778E-02
    1      -11.433421   1.000000
    2      -10.753082   1.000000
    3      -10.285191   1.000000
    4       -9.079627   1.000000
    5       -8.553212   1.000000
    6       -7.865151   1.000000
    7       -6.905311   1.000000
    8       -6.051443   1.000000
    9       -5.771051   1.000000
   10       -5.081958   1.000000
   11       -4.492022   1.000000
   12       -3.819365   1.000000
   13       -3.243663   1.000000
   14       -3.130182   1.000000
   15       -2.717024   1.000000
   16       -2.528826   1.000000
   17       -2.190791   1.000000
   18       -1.921621   1.000000
   19       -1.567065   1.000000
   20       -1.253321   1.000000
   21       -1.196540   1.000000
   22       -0.929269   1.000000
   23       -0.318157   1.000000
   24       -0.182700   1.000000
   25       -0.024557   1.000000
   26        0.238663   1.000000
   27        0.383325   1.000000
   28        0.455606   1.000000
   29        0.591841   1.000000
   30        0.996821   1.000000
   31        1.263971   1.000000
   32        1.486861   1.000000
   33        1.651164   1.000000
   34        1.853551   1.000000
   35        2.116695   1.000000
   36        2.320074   1.000000
   37        2.548708   1.000000
   38        2.704685   1.000000
   39        2.868956   1.000000
   40        3.036411   1.000000
   41        3.273793   1.000000
   42        3.483646   1.000000
   43        3.900197   1.000000
   44        4.248004   1.000000
   45        4.616883   1.000000
   46        4.843019   1.000000
   47        5.010672   1.000000
   48        5.752310   1.000000
   49        6.816297  -0.073502
   50        7.103392   0.000000
   51        7.774895   0.000000
   52        8.003206   0.000000
   53        8.602629   0.000000
   54        8.963351   0.000000
   55        9.233526   0.000000
   56       10.103354   0.000000
   57       10.733608   0.000000
   58       10.877351   0.000000
   59       11.397283   0.000000
   60       11.553158   0.000000
   61       11.891963   0.000000
   62       12.169894   0.000000
   63       12.344104   0.000000
   64       12.738635   0.000000
   65       13.023406   0.000000
   66       13.281648   0.000000
   67       13.588893   0.000000
   68       13.715697   0.000000
   69       13.839010   0.000000
   70       13.911134   0.000000
   71       14.184152   0.000000
   72       14.361864   0.000000
 
  0.3333333E+00  0.8333333E-01  0.4000000E+00  0.2777778E-02
    1      -11.429100   1.000000
    2      -10.776933   1.000000
    3      -10.266875   1.000000
    4       -9.002308   1.000000
    5       -8.626708   1.000000
    6       -7.904565   1.000000
    7       -6.898973   1.000000
    8       -6.045475   1.000000
    9       -5.714826   1.000000
   10       -4.887871   1.000000
   11       -4.834590   1.000000
   12       -3.733264   1.000000
   13       -3.270269   1.000000
   14       -2.928189   1.000000
   15       -2.819413   1.000000
   16       -2.354769   1.000000
   17       -2.207487   1.000000
   18       -2.044851   1.000000
   19       -1.586403   1.000000
   20       -1.257577   1.000000
   21       -1.171415   1.000000
   22       -0.877386   1.000000
   23       -0.503106   1.000000
   24       -0.224214   1.000000
   25       -0.043232   1.000000
   26        0.182649   1.000000
   27        0.231412   1.000000
   28        0.503945   1.000000
   29        0.652898   1.000000
   30        0.980969   1.000000
   31        1.231594   1.000000
   32        1.519275   1.000000
   33        1.702399   1.000000
   34        1.880070   1.000000
   35        2.224321   1.000000
   36        2.298411   1.000000
   37        2.508634   1.000000
   38        2.736308   1.000000
   39        2.903450   1.000000
   40        3.135792   1.000000
   41        3.555572   1.000000
   42        3.656941   1.000000
   43        3.778122   1.000000
   44        4.201476   1.000000
   45        4.511857   1.000000
   46        4.765601   1.000000
   47        4.910134   1.000000
   48        5.633419   1.000000
   49        6.771525   0.020205
   50        6.978111   0.000000
   51        7.713705   0.000000
   52        8.183459   0.000000
   53        8.666294   0.000000
   54        9.108093   0.000000
   55        9.411998   0.000000
   56       10.117144   0.000000
   57       10.634594   0.000000
   58       10.743140   0.000000
   59       11.164835   0.000000
   60       11.497465   0.000000
   61       11.632622   0.000000
   62       12.167513   0.000000
   63       12.459364   0.000000
   64       12.878814   0.000000
   65       13.082765   0.000000
   66       13.350035   0.000000
   67       13.536286   0.000000
   68       13.691751   0.000000
   69       13.890139   0.000000
   70       14.069112   0.000000
   71       14.231057   0.000000
   72       14.414433   0.000000
 
  0.5000000E+00  0.8333333E-01  0.4000000E+00  0.2777778E-02
    1      -11.405934   1.000000
    2      -10.840653   1.000000
    3      -10.238115   1.000000
    4       -8.966024   1.000000
    5       -8.573599   1.000000
    6       -8.002094   1.000000
    7       -6.873761   1.000000
    8       -6.052074   1.000000
    9       -5.740206   1.000000
   10       -5.067990   1.000000
   11       -4.634240   1.000000
   12       -3.690738   1.000000
   13       -3.287723   1.000000
   14       -3.027299   1.000000
   15       -2.699759   1.000000
   16       -2.335029   1.000000
   17       -2.108761   1.000000
   18       -1.959601   1.000000
   19       -1.678632   1.000000
   20       -1.313764   1.000000
   21       -1.126802   1.000000
   22       -0.925801   1.000000
   23       -0.579300   1.000000
   24       -0.542530   1.000000
   25       -0.047534   1.000000
   26        0.183651   1.000000
   27        0.283773   1.000000
   28        0.509086   1.000000
   29        0.693874   1.000000
   30        0.945902   1.000000
   31        1.286841   1.000000
   32        1.457689   1.000000
   33        1.833361   1.000000
   34        2.007727   1.000000
   35        2.268672   1.000000
   36        2.354940   1.000000
   37        2.629189   1.000000
   38        2.806904   1.000000
   39        3.046114   1.000000
   40        3.150527   1.000000
   41        3.375673   1.000000
   42        3.677258   1.000000
   43        3.857886   1.000000
   44        4.215163   1.000000
   45        4.316383   1.000000
   46        4.512165   1.000000
   47        4.939413   1.000000
   48        5.551697   1.000000
   49        6.690543   0.518707
   50        6.872602   0.000000
   51        7.653246   0.000000
   52        8.383926   0.000000
   53        8.705000   0.000000
   54        9.206390   0.000000
   55        9.715768   0.000000
   56       10.066183   0.000000
   57       10.288323   0.000000
   58       10.839570   0.000000
   59       11.022535   0.000000
   60       11.387171   0.000000
   61       11.687275   0.000000
   62       12.200332   0.000000
   63       12.546280   0.000000
   64       13.016489   0.000000
   65       13.098022   0.000000
   66       13.348187   0.000000
   67       13.474958   0.000000
   68       13.827210   0.000000
   69       14.083741   0.000000
   70       14.194589   0.000000
   71       14.438426   0.000000
   72       14.583518   0.000000
 
 -0.3333333E+00  0.8333333E-01  0.4000000E+00  0.2777778E-02
    1      -11.384967   1.000000
    2      -10.882506   1.000000
    3      -10.228079   1.000000
    4       -9.009598   1.000000
    5       -8.413555   1.000000
    6       -8.091149   1.000000
    7       -6.853319   1.000000
    8       -6.060646   1.000000
    9       -5.833357   1.000000
   10       -5.175998   1.000000
   11       -4.365883   1.000000
   12       -3.742491   1.000000
   13       -3.268503   1.000000
   14       -3.139389   1.000000
   15       -2.666262   1.000000
   16       -2.340586   1.000000
   17       -2.190045   1.000000
   18       -1.773038   1.000000
   19       -1.655933   1.000000
   20       -1.455048   1.000000
   21       -1.075761   1.000000
   22       -0.839676   1.000000
   23       -0.768777   1.000000
   24       -0.490367   1.000000
   25       -0.173354   1.000000
   26        0.088702   1.000000
   27        0.363185   1.000000
   28        0.586518   1.000000
   29        0.792879   1.000000
   30        1.074584   1.000000
   31        1.250633   1.000000
   32        1.466635   1.000000
   33        1.769748   1.000000
   34        2.114197   1.000000
   35        2.292568   1.000000
   36        2.518128   1.000000
   37        2.630358   1.000000
   38        2.772245   1.000000
   39        2.878409   1.000000
   40        3.131503   1.000000
   41        3.369563   1.000000
   42        3.660921   1.000000
   43        3.888933   1.000000
   44        4.090283   1.000000
   45        4.203881   1.000000
   46        4.407587   1.000000
   47        5.071420   1.000000
   48        5.579024   1.000000
   49        6.655099   0.809064
   50        6.877610   0.000000
   51        7.642744   0.000000
   52        8.466505   0.000000
   53        8.683843   0.000000
   54        9.138493   0.000000
   55        9.681358   0.000000
   56        9.927691   0.000000
   57       10.359338   0.000000
   58       10.952746   0.000000
   59       11.236372   0.000000
   60       11.360208   0.000000
   61       11.747463   0.000000
   62       12.274512   0.000000
   63       12.532674   0.000000
   64       13.048956   0.000000
   65       13.149270   0.000000
   66       13.294044   0.000000
   67       13.470196   0.000000
   68       13.952090   0.000000
   69       14.162847   0.000000
   70       14.324198   0.000000
   71       14.518621   0.000000
   72       14.546643   0.000000
 
 -0.1666667E+00  0.8333333E-01  0.4000000E+00  0.2777778E-02
    1      -11.390824   1.000000
    2      -10.861978   1.000000
    3      -10.241241   1.000000
    4       -9.073851   1.000000
    5       -8.348987   1.000000
    6       -8.057709   1.000000
    7       -6.858673   1.000000
    8       -6.061036   1.000000
    9       -5.889177   1.000000
   10       -5.212965   1.000000
   11       -4.150623   1.000000
   12       -3.827929   1.000000
   13       -3.317503   1.000000
   14       -3.149795   1.000000
   15       -2.742579   1.000000
   16       -2.520938   1.000000
   17       -2.208169   1.000000
   18       -1.708944   1.000000
   19       -1.563136   1.000000
   20       -1.294785   1.000000
   21       -1.085190   1.000000
   22       -0.883374   1.000000
   23       -0.691051   1.000000
   24       -0.480392   1.000000
   25       -0.281259   1.000000
   26        0.138170   1.000000
   27        0.370238   1.000000
   28        0.648795   1.000000
   29        1.082978   1.000000
   30        1.121395   1.000000
   31        1.306197   1.000000
   32        1.406287   1.000000
   33        1.608579   1.000000
   34        1.997893   1.000000
   35        2.239543   1.000000
   36        2.299079   1.000000
   37        2.649188   1.000000
   38        2.709396   1.000000
   39        2.918057   1.000000
   40        3.099044   1.000000
   41        3.265602   1.000000
   42        3.597582   1.000000
   43        3.839835   1.000000
   44        4.078970   1.000000
   45        4.266601   1.000000
   46        4.615552   1.000000
   47        5.095558   1.000000
   48        5.700699   1.000000
   49        6.700608   0.383173
   50        6.999059   0.000000
   51        7.661717   0.000000
   52        8.381344   0.000000
   53        8.620309   0.000000
   54        8.995918   0.000000
   55        9.349500   0.000000
   56       10.011289   0.000000
   57       10.635625   0.000000
   58       10.872126   0.000000
   59       11.385617   0.000000
   60       11.648879   0.000000
   61       11.804769   0.000000
   62       12.280606   0.000000
   63       12.501363   0.000000
   64       13.000971   0.000000
   65       13.169498   0.000000
   66       13.274860   0.000000
   67       13.541076   0.000000
   68       13.793896   0.000000
   69       13.944749   0.000000
   70       14.207976   0.000000
   71       14.387010   0.000000
   72       14.560294   0.000000
 
  0.0000000E+00  0.1666667E+00  0.4000000E+00  0.2777778E-02
    1      -11.432654   1.000000
    2      -10.807190   1.000000
    3      -10.167041   1.000000
    4       -9.142714   1.000000
    5       -8.221349   1.000000
    6       -8.008624   1.000000
    7       -7.022356   1.000000
    8       -6.148160   1.000000
    9       -5.787528   1.000000
   10       -5.288963   1.000000
   11       -4.198943   1.000000
   12       -4.080312   1.000000
   13       -3.373219   1.000000
   14       -3.008272   1.000000
   15       -2.774800   1.000000
   16       -2.510263   1.000000
   17       -2.095943   1.000000
   18       -1.994759   1.000000
   19       -1.614957   1.000000
   20       -1.370809   1.000000
   21       -1.211387   1.000000
   22       -0.878399   1.000000
   23       -0.795168   1.000000
   24       -0.714917   1.000000
   25       -0.043658   1.000000
   26        0.268179   1.000000
   27        0.415084   1.000000
   28        0.807984   1.000000
   29        1.045721   1.000000
   30        1.164535   1.000000
   31        1.406172   1.000000
   32        1.535447   1.000000
   33        1.786484   1.000000
   34        2.046658   1.000000
   35        2.198804   1.000000
   36        2.434219   1.000000
   37        2.618641   1.000000
   38        2.836744   1.000000
   39        3.104050   1.000000
   40        3.250665   1.000000
   41        3.431762   1.000000
   42        3.564059   1.000000
   43        4.114897   1.000000
   44        4.174943   1.000000
   45        4.416235   1.000000
   46        4.638198   1.000000
   47        5.000856   1.000000
   48        5.545171   1.000000
   49        6.704043   0.378360
   50        7.019058   0.000000
   51        7.833120   0.000000
   52        8.053678   0.000000
   53        8.743089   0.000000
   54        9.114215   0.000000
   55        9.364868   0.000000
   56        9.978111   0.000000
   57       10.494570   0.000000
   58       10.798205   0.000000
   59       11.262276   0.000000
   60       11.487787   0.000000
   61       11.585803   0.000000
   62       11.802232   0.000000
   63       12.413469   0.000000
   64       12.871829   0.000000
   65       13.019134   0.000000
   66       13.156041   0.000000
   67       13.409533   0.000000
   68       13.616192   0.000000
   69       13.654734   0.000000
   70       14.042545   0.000000
   71       14.520172   0.000000
   72       14.594642   0.000000
 
  0.1666667E+00  0.1666667E+00  0.4000000E+00  0.2777778E-02
    1      -11.454198   1.000000
    2      -10.750507   1.000000
    3      -10.191441   1.000000
    4       -9.144145   1.000000
    5       -8.340234   1.000000
    6       -7.904602   1.000000
    7       -7.062408   1.000000
    8       -6.124232   1.000000
    9       -5.725429   1.000000
   10       -5.174315   1.000000
   11       -4.408776   1.000000
   12       -4.114248   1.000000
   13       -3.384002   1.000000
   14       -2.926673   1.000000
   15       -2.787320   1.000000
   16       -2.478732   1.000000
   17       -2.155832   1.000000
   18       -1.995014   1.000000
   19       -1.626118   1.000000
   20       -1.328216   1.000000
   21       -1.244726   1.000000
   22       -0.839281   1.000000
   23       -0.673844   1.000000
   24       -0.453150   1.000000
   25        0.037733   1.000000
   26        0.210012   1.000000
   27        0.364673   1.000000
   28        0.521813   1.000000
   29        0.709414   1.000000
   30        1.107440   1.000000
   31        1.391795   1.000000
   32        1.645171   1.000000
   33        1.821815   1.000000
   34        2.017781   1.000000
   35        2.118289   1.000000
   36        2.428631   1.000000
   37        2.702958   1.000000
   38        2.904022   1.000000
   39        3.082470   1.000000
   40        3.182352   1.000000
   41        3.508632   1.000000
   42        3.723090   1.000000
   43        4.170895   1.000000
   44        4.285061   1.000000
   45        4.434491   1.000000
   46        4.624615   1.000000
   47        4.957787   1.000000
   48        5.521021   1.000000
   49        6.762542   0.038653
   50        7.121139   0.000000
   51        7.671041   0.000000
   52        8.178461   0.000000
   53        8.788885   0.000000
   54        9.097021   0.000000
   55        9.287869   0.000000
   56        9.927678   0.000000
   57       10.563902   0.000000
   58       10.828641   0.000000
   59       11.143485   0.000000
   60       11.420375   0.000000
   61       11.489248   0.000000
   62       11.814738   0.000000
   63       12.259290   0.000000
   64       12.764669   0.000000
   65       12.941809   0.000000
   66       13.174052   0.000000
   67       13.445004   0.000000
   68       13.498141   0.000000
   69       13.649546   0.000000
   70       13.929832   0.000000
   71       14.292748   0.000000
   72       14.424023   0.000000
 
  0.3333333E+00  0.1666667E+00  0.4000000E+00  0.2777778E-02
    1      -11.455418   1.000000
    2      -10.761795   1.000000
    3      -10.169239   1.000000
    4       -9.089112   1.000000
    5       -8.491044   1.000000
    6       -7.835573   1.000000
    7       -7.079986   1.000000
    8       -6.092079   1.000000
    9       -5.678886   1.000000
   10       -5.059469   1.000000
   11       -4.665682   1.000000
   12       -4.042687   1.000000
   13       -3.429937   1.000000
   14       -2.856929   1.000000
   15       -2.777920   1.000000
   16       -2.432187   1.000000
   17       -2.228911   1.000000
   18       -1.937921   1.000000
   19       -1.648221   1.000000
   20       -1.302210   1.000000
   21       -1.259587   1.000000
   22       -0.831900   1.000000
   23       -0.523721   1.000000
   24       -0.239211   1.000000
   25       -0.095781   1.000000
   26        0.054923   1.000000
   27        0.180329   1.000000
   28        0.475969   1.000000
   29        0.606946   1.000000
   30        1.009708   1.000000
   31        1.415314   1.000000
   32        1.665036   1.000000
   33        1.833349   1.000000
   34        2.076236   1.000000
   35        2.229973   1.000000
   36        2.395470   1.000000
   37        2.658213   1.000000
   38        2.926711   1.000000
   39        3.109880   1.000000
   40        3.441816   1.000000
   41        3.702198   1.000000
   42        3.872769   1.000000
   43        4.025710   1.000000
   44        4.225321   1.000000
   45        4.342523   1.000000
   46        4.630384   1.000000
   47        4.842657   1.000000
   48        5.387899   1.000000
   49        6.790931  -0.013630
   50        7.090756   0.000000
   51        7.598475   0.000000
   52        8.362377   0.000000
   53        8.889276   0.000000
   54        9.186985   0.000000
   55        9.402527   0.000000
   56        9.865881   0.000000
   57       10.530254   0.000000
   58       10.693281   0.000000
   59       10.960599   0.000000
   60       11.173961   0.000000
   61       11.461688   0.000000
   62       11.910710   0.000000
   63       12.214054   0.000000
   64       12.774100   0.000000
   65       12.904344   0.000000
   66       13.325167   0.000000
   67       13.435872   0.000000
   68       13.589819   0.000000
   69       13.682649   0.000000
   70       13.788381   0.000000
   71       14.232890   0.000000
   72       14.389590   0.000000
 
  0.5000000E+00  0.1666667E+00  0.4000000E+00  0.2777778E-02
    1      -11.435152   1.000000
    2      -10.825233   1.000000
    3      -10.127756   1.000000
    4       -9.015196   1.000000
    5       -8.578785   1.000000
    6       -7.831024   1.000000
    7       -7.060666   1.000000
    8       -6.084717   1.000000
    9       -5.684974   1.000000
   10       -5.176241   1.000000
   11       -4.571843   1.000000
   12       -3.974027   1.000000
   13       -3.492671   1.000000
   14       -2.941229   1.000000
   15       -2.652920   1.000000
   16       -2.393739   1.000000
   17       -2.269439   1.000000
   18       -1.806493   1.000000
   19       -1.667245   1.000000
   20       -1.323083   1.000000
   21       -1.197039   1.000000
   22       -1.009117   1.000000
   23       -0.715471   1.000000
   24       -0.284242   1.000000
   25       -0.159578   1.000000
   26       -0.027393   1.000000
   27        0.335931   1.000000
   28        0.538604   1.000000
   29        0.760382   1.000000
   30        0.942989   1.000000
   31        1.449117   1.000000
   32        1.542723   1.000000
   33        1.922484   1.000000
   34        2.194556   1.000000
   35        2.350541   1.000000
   36        2.423927   1.000000
   37        2.737809   1.000000
   38        2.983542   1.000000
   39        3.148479   1.000000
   40        3.383094   1.000000
   41        3.694041   1.000000
   42        3.806177   1.000000
   43        3.985142   1.000000
   44        4.153943   1.000000
   45        4.357917   1.000000
   46        4.536340   1.000000
   47        4.772839   1.000000
   48        5.289755   1.000000
   49        6.765564   0.082828
   50        6.970265   0.000000
   51        7.607439   0.000000
   52        8.452357   0.000000
   53        8.931638   0.000000
   54        9.408760   0.000000
   55        9.513260   0.000000
   56        9.864640   0.000000
   57       10.407849   0.000000
   58       10.570461   0.000000
   59       10.880691   0.000000
   60       11.054363   0.000000
   61       11.542959   0.000000
   62       12.005154   0.000000
   63       12.243949   0.000000
   64       12.817419   0.000000
   65       12.889885   0.000000
   66       13.349634   0.000000
   67       13.483025   0.000000
   68       13.690066   0.000000
   69       13.851296   0.000000
   70       13.919178   0.000000
   71       14.220876   0.000000
   72       14.502364   0.000000
 
 -0.3333333E+00  0.1666667E+00  0.4000000E+00  0.2777778E-02
    1      -11.410692   1.000000
    2      -10.878070   1.000000
    3      -10.111085   1.000000
    4       -9.020140   1.000000
    5       -8.509794   1.000000
    6       -7.875978   1.000000
    7       -7.021666   1.000000
    8       -6.113476   1.000000
    9       -5.751023   1.000000
   10       -5.294319   1.000000
   11       -4.367317   1.000000
   12       -3.950412   1.000000
   13       -3.479874   1.000000
   14       -2.997900   1.000000
   15       -2.646303   1.000000
   16       -2.398216   1.000000
   17       -2.153221   1.000000
   18       -1.865279   1.000000
   19       -1.607937   1.000000
   20       -1.527766   1.000000
   21       -1.211877   1.000000
   22       -0.974499   1.000000
   23       -0.877058   1.000000
   24       -0.414883   1.000000
   25       -0.159635   1.000000
   26        0.139710   1.000000
   27        0.242307   1.000000
   28        0.663023   1.000000
   29        0.912665   1.000000
   30        1.121511   1.000000
   31        1.403173   1.000000
   32        1.588605   1.000000
   33        1.996054   1.000000
   34        2.279641   1.000000
   35        2.418425   1.000000
   36        2.531344   1.000000
   37        2.789744   1.000000
   38        2.930796   1.000000
   39        3.016756   1.000000
   40        3.125667   1.000000
   41        3.401754   1.000000
   42        3.766960   1.000000
   43        4.003456   1.000000
   44        4.199333   1.000000
   45        4.371897   1.000000
   46        4.527271   1.000000
   47        4.813058   1.000000
   48        5.324471   1.000000
   49        6.714890   0.366660
   50        6.875360   0.000000
   51        7.675945   0.000000
   52        8.381756   0.000000
   53        8.866538   0.000000
   54        9.354500   0.000000
   55        9.721607   0.000000
   56        9.892579   0.000000
   57       10.205454   0.000000
   58       10.746282   0.000000
   59       10.978527   0.000000
   60       11.106883   0.000000
   61       11.595585   0.000000
   62       12.062874   0.000000
   63       12.302200   0.000000
   64       12.861080   0.000000
   65       12.974342   0.000000
   66       13.237590   0.000000
   67       13.529415   0.000000
   68       13.831761   0.000000
   69       13.957381   0.000000
   70       14.147440   0.000000
   71       14.368349   0.000000
   72       14.576007   0.000000
 
 -0.1666667E+00  0.1666667E+00  0.4000000E+00  0.2777778E-02
    1      -11.409417   1.000000
    2      -10.870605   1.000000
    3      -10.128893   1.000000
    4       -9.089610   1.000000
    5       -8.329210   1.000000
    6       -7.961508   1.000000
    7       -7.000717   1.000000
    8       -6.144421   1.000000
    9       -5.806877   1.000000
   10       -5.325885   1.000000
   11       -4.245080   1.000000
   12       -3.960643   1.000000
   13       -3.404521   1.000000
   14       -3.023074   1.000000
   15       -2.684888   1.000000
   16       -2.513553   1.000000
   17       -2.069235   1.000000
   18       -1.955959   1.000000
   19       -1.673098   1.000000
   20       -1.469002   1.000000
   21       -1.173533   1.000000
   22       -0.991691   1.000000
   23       -0.858889   1.000000
   24       -0.494336   1.000000
   25       -0.279953   1.000000
   26        0.239948   1.000000
   27        0.411820   1.000000
   28        0.758037   1.000000
   29        1.030059   1.000000
   30        1.266289   1.000000
   31        1.428912   1.000000
   32        1.591838   1.000000
   33        1.868733   1.000000
   34        2.190170   1.000000
   35        2.378289   1.000000
   36        2.476856   1.000000
   37        2.687405   1.000000
   38        2.731473   1.000000
   39        3.090314   1.000000
   40        3.154177   1.000000
   41        3.344314   1.000000
   42        3.771954   1.000000
   43        3.956070   1.000000
   44        4.096657   1.000000
   45        4.388150   1.000000
   46        4.627816   1.000000
   47        4.922982   1.000000
   48        5.447539   1.000000
   49        6.678043   0.628054
   50        6.902847   0.000000
   51        7.782865   0.000000
   52        8.205597   0.000000
   53        8.780432   0.000000
   54        9.206904   0.000000
   55        9.593451   0.000000
   56        9.958631   0.000000
   57       10.324380   0.000000
   58       10.752685   0.000000
   59       11.185048   0.000000
   60       11.343999   0.000000
   61       11.592844   0.000000
   62       11.959879   0.000000
   63       12.397931   0.000000
   64       12.948638   0.000000
   65       13.046781   0.000000
   66       13.218901   0.000000
   67       13.492683   0.000000
   68       13.748399   0.000000
   69       13.858176   0.000000
   70       14.086133   0.000000
   71       14.530318   0.000000
   72       14.687796   0.000000
 
  0.0000000E+00  0.2500000E+00  0.4000000E+00  0.2777778E-02
    1      -11.421169   1.000000
    2      -10.791667   1.000000
    3      -10.099179   1.000000
    4       -9.129640   1.000000
    5       -8.278463   1.000000
    6       -7.864975   1.000000
    7       -7.142143   1.000000
    8       -6.225277   1.000000
    9       -5.867427   1.000000
   10       -5.256782   1.000000
   11       -4.485256   1.000000
   12       -3.956508   1.000000
   13       -3.602497   1.000000
   14       -3.214489   1.000000
   15       -2.694027   1.000000
   16       -2.541084   1.000000
   17       -2.261550   1.000000
   18       -1.953065   1.000000
   19       -1.643906   1.000000
   20       -1.393250   1.000000
   21       -1.113993   1.000000
   22       -1.030962   1.000000
   23       -0.792927   1.000000
   24       -0.447395   1.000000
   25       -0.026792   1.000000
   26        0.246017   1.000000
   27        0.516516   1.000000
   28        0.880966   1.000000
   29        0.999982   1.000000
   30        1.208255   1.000000
   31        1.444355   1.000000
   32        1.703274   1.000000
   33        1.998252   1.000000
   34        2.141553   1.000000
   35        2.480929   1.000000
   36        2.643090   1.000000
   37        2.773211   1.000000
   38        2.904091   1.000000
   39        3.094233   1.000000
   40        3.425235   1.000000
   41        3.639805   1.000000
   42        3.821501   1.000000
   43        4.001869   1.000000
   44        4.168084   1.000000
   45        4.475924   1.000000
   46        4.612748   1.000000
   47        4.889120   1.000000
   48        5.359374   1.000000
   49        6.649889   0.791963
   50        6.872508   0.000000
   51        7.757950   0.000000
   52        8.211517   0.000000
   53        8.800596   0.000000
   54        9.193656   0.000000
   55        9.542739   0.000000
   56        9.968397   0.000000
   57       10.158918   0.000000
   58       10.502490   0.000000
   59       10.906161   0.000000
   60       11.090146   0.000000
   61       11.489047   0.000000
   62       11.678016   0.000000
   63       12.305036   0.000000
   64       12.876681   0.000000
   65       13.005351   0.000000
   66       13.212523   0.000000
   67       13.306635   0.000000
   68       13.495856   0.000000
   69       13.619004   0.000000
   70       13.993438   0.000000
   71       14.441335   0.000000
   72       14.590085   0.000000
 
  0.1666667E+00  0.2500000E+00  0.4000000E+00  0.2777778E-02
    1      -11.442432   1.000000
    2      -10.734925   1.000000
    3      -10.124847   1.000000
    4       -9.167543   1.000000
    5       -8.170918   1.000000
    6       -7.953299   1.000000
    7       -7.177752   1.000000
    8       -6.224064   1.000000
    9       -5.846960   1.000000
   10       -5.161986   1.000000
   11       -4.431403   1.000000
   12       -4.181991   1.000000
   13       -3.590451   1.000000
   14       -3.107941   1.000000
   15       -2.766385   1.000000
   16       -2.429008   1.000000
   17       -2.237368   1.000000
   18       -1.913969   1.000000
   19       -1.525344   1.000000
   20       -1.416921   1.000000
   21       -1.223694   1.000000
   22       -1.010408   1.000000
   23       -0.753433   1.000000
   24       -0.594284   1.000000
   25       -0.053615   1.000000
   26        0.206729   1.000000
   27        0.513748   1.000000
   28        0.627802   1.000000
   29        0.943777   1.000000
   30        1.238184   1.000000
   31        1.575096   1.000000
   32        1.748899   1.000000
   33        1.991665   1.000000
   34        2.135854   1.000000
   35        2.399099   1.000000
   36        2.691183   1.000000
   37        2.930844   1.000000
   38        2.981703   1.000000
   39        3.134843   1.000000
   40        3.248661   1.000000
   41        3.724460   1.000000
   42        3.937170   1.000000
   43        3.974301   1.000000
   44        4.284453   1.000000
   45        4.473324   1.000000
   46        4.568326   1.000000
   47        4.846087   1.000000
   48        5.296799   1.000000
   49        6.676071   0.591845
   50        6.989017   0.000000
   51        7.619048   0.000000
   52        8.379863   0.000000
   53        8.870460   0.000000
   54        9.219351   0.000000
   55        9.357580   0.000000
   56        9.853705   0.000000
   57       10.281470   0.000000
   58       10.550131   0.000000
   59       10.842067   0.000000
   60       11.139530   0.000000
   61       11.318982   0.000000
   62       11.576479   0.000000
   63       12.231895   0.000000
   64       12.747697   0.000000
   65       12.882719   0.000000
   66       13.151098   0.000000
   67       13.336184   0.000000
   68       13.464591   0.000000
   69       13.568629   0.000000
   70       13.946086   0.000000
   71       14.405027   0.000000
   72       14.536441   0.000000
 
  0.3333333E+00  0.2500000E+00  0.4000000E+00  0.2777778E-02
    1      -11.447579   1.000000
    2      -10.739050   1.000000
    3      -10.090233   1.000000
    4       -9.164533   1.000000
    5       -8.330282   1.000000
    6       -7.827207   1.000000
    7       -7.209807   1.000000
    8       -6.184463   1.000000
    9       -5.822291   1.000000
   10       -5.078123   1.000000
   11       -4.454588   1.000000
   12       -4.339334   1.000000
   13       -3.617551   1.000000
   14       -2.915847   1.000000
   15       -2.833923   1.000000
   16       -2.462515   1.000000
   17       -2.347842   1.000000
   18       -1.781861   1.000000
   19       -1.411364   1.000000
   20       -1.374192   1.000000
   21       -1.234322   1.000000
   22       -0.924627   1.000000
   23       -0.795917   1.000000
   24       -0.608315   1.000000
   25       -0.140794   1.000000
   26        0.054383   1.000000
   27        0.471510   1.000000
   28        0.654678   1.000000
   29        0.804214   1.000000
   30        1.140334   1.000000
   31        1.542597   1.000000
   32        1.808864   1.000000
   33        2.113636   1.000000
   34        2.182690   1.000000
   35        2.390909   1.000000
   36        2.524578   1.000000
   37        2.921319   1.000000
   38        3.101331   1.000000
   39        3.233415   1.000000
   40        3.505605   1.000000
   41        3.864599   1.000000
   42        3.928227   1.000000
   43        4.060243   1.000000
   44        4.190906   1.000000
   45        4.369402   1.000000
   46        4.548338   1.000000
   47        4.777534   1.000000
   48        5.100097   1.000000
   49        6.734975   0.222087
   50        7.086066   0.000000
   51        7.588499   0.000000
   52        8.450526   0.000000
   53        8.997767   0.000000
   54        9.172372   0.000000
   55        9.485554   0.000000
   56        9.732136   0.000000
   57       10.298064   0.000000
   58       10.589531   0.000000
   59       10.711036   0.000000
   60       10.930601   0.000000
   61       11.294973   0.000000
   62       11.583944   0.000000
   63       12.164276   0.000000
   64       12.698314   0.000000
   65       12.806809   0.000000
   66       13.109640   0.000000
   67       13.341993   0.000000
   68       13.498193   0.000000
   69       13.671067   0.000000
   70       13.733956   0.000000
   71       14.344192   0.000000
   72       14.415413   0.000000
 
  0.5000000E+00  0.2500000E+00  0.4000000E+00  0.2777778E-02
    1      -11.432331   1.000000
    2      -10.795117   1.000000
    3      -10.033831   1.000000
    4       -9.112575   1.000000
    5       -8.502983   1.000000
    6       -7.718645   1.000000
    7       -7.209011   1.000000
    8       -6.139495   1.000000
    9       -5.817629   1.000000
   10       -5.121742   1.000000
   11       -4.567104   1.000000
   12       -4.203998   1.000000
   13       -3.681722   1.000000
   14       -2.975767   1.000000
   15       -2.762665   1.000000
   16       -2.532980   1.000000
   17       -2.331691   1.000000
   18       -1.743178   1.000000
   19       -1.496122   1.000000
   20       -1.376363   1.000000
   21       -1.203173   1.000000
   22       -0.879277   1.000000
   23       -0.674345   1.000000
   24       -0.518943   1.000000
   25       -0.077065   1.000000
   26        0.006737   1.000000
   27        0.251451   1.000000
   28        0.680059   1.000000
   29        0.817157   1.000000
   30        1.185049   1.000000
   31        1.499374   1.000000
   32        1.674039   1.000000
   33        2.111247   1.000000
   34        2.225317   1.000000
   35        2.461672   1.000000
   36        2.549341   1.000000
   37        3.007682   1.000000
   38        3.118298   1.000000
   39        3.310005   1.000000
   40        3.523286   1.000000
   41        3.787423   1.000000
   42        3.840797   1.000000
   43        4.082798   1.000000
   44        4.243236   1.000000
   45        4.361754   1.000000
   46        4.552201   1.000000
   47        4.699001   1.000000
   48        4.966352   1.000000
   49        6.759716   0.155189
   50        7.065187   0.000000
   51        7.657009   0.000000
   52        8.392607   0.000000
   53        8.986174   0.000000
   54        9.253952   0.000000
   55        9.608623   0.000000
   56        9.756303   0.000000
   57       10.294739   0.000000
   58       10.559634   0.000000
   59       10.666311   0.000000
   60       10.746851   0.000000
   61       11.424666   0.000000
   62       11.717796   0.000000
   63       12.094770   0.000000
   64       12.662311   0.000000
   65       12.810090   0.000000
   66       13.194869   0.000000
   67       13.347457   0.000000
   68       13.486578   0.000000
   69       13.579286   0.000000
   70       13.837210   0.000000
   71       14.212433   0.000000
   72       14.446764   0.000000
 
 -0.3333333E+00  0.2500000E+00  0.4000000E+00  0.2777778E-02
    1      -11.409437   1.000000
    2      -10.846964   1.000000
    3      -10.016642   1.000000
    4       -9.052320   1.000000
    5       -8.577843   1.000000
    6       -7.682700   1.000000
    7       -7.175805   1.000000
    8       -6.136749   1.000000
    9       -5.841350   1.000000
   10       -5.240360   1.000000
   11       -4.533737   1.000000
   12       -4.044690   1.000000
   13       -3.725171   1.000000
   14       -3.114631   1.000000
   15       -2.759589   1.000000
   16       -2.494805   1.000000
   17       -2.217224   1.000000
   18       -1.942750   1.000000
   19       -1.624579   1.000000
   20       -1.382162   1.000000
   21       -1.085689   1.000000
   22       -0.912496   1.000000
   23       -0.677221   1.000000
   24       -0.251041   1.000000
   25       -0.078107   1.000000
   26        0.019244   1.000000
   27        0.229280   1.000000
   28        0.724771   1.000000
   29        0.877538   1.000000
   30        1.235568   1.000000
   31        1.474864   1.000000
   32        1.671934   1.000000
   33        2.093206   1.000000
   34        2.227685   1.000000
   35        2.518880   1.000000
   36        2.600597   1.000000
   37        3.018469   1.000000
   38        3.109767   1.000000
   39        3.160248   1.000000
   40        3.312133   1.000000
   41        3.544488   1.000000
   42        3.800325   1.000000
   43        4.130011   1.000000
   44        4.297106   1.000000
   45        4.473126   1.000000
   46        4.568950   1.000000
   47        4.746482   1.000000
   48        5.006685   1.000000
   49        6.730309   0.334396
   50        6.954653   0.000000
   51        7.780442   0.000000
   52        8.216103   0.000000
   53        8.890476   0.000000
   54        9.361801   0.000000
   55        9.590723   0.000000
   56        9.837707   0.000000
   57       10.343447   0.000000
   58       10.468980   0.000000
   59       10.697927   0.000000
   60       10.877692   0.000000
   61       11.547958   0.000000
   62       11.772556   0.000000
   63       12.168833   0.000000
   64       12.689649   0.000000
   65       12.880338   0.000000
   66       13.146015   0.000000
   67       13.430261   0.000000
   68       13.581612   0.000000
   69       13.695745   0.000000
   70       13.881765   0.000000
   71       14.275621   0.000000
   72       14.564565   0.000000
 
 -0.1666667E+00  0.2500000E+00  0.4000000E+00  0.2777778E-02
    1      -11.403290   1.000000
    2      -10.847137   1.000000
    3      -10.047870   1.000000
    4       -9.071613   1.000000
    5       -8.475658   1.000000
    6       -7.734876   1.000000
    7       -7.141102   1.000000
    8       -6.182904   1.000000
    9       -5.866819   1.000000
   10       -5.291731   1.000000
   11       -4.508675   1.000000
   12       -3.920824   1.000000
   13       -3.677008   1.000000
   14       -3.199786   1.000000
   15       -2.750042   1.000000
   16       -2.435105   1.000000
   17       -2.318312   1.000000
   18       -2.038475   1.000000
   19       -1.619501   1.000000
   20       -1.374609   1.000000
   21       -1.057044   1.000000
   22       -0.943152   1.000000
   23       -0.796098   1.000000
   24       -0.325549   1.000000
   25       -0.095285   1.000000
   26        0.302397   1.000000
   27        0.474591   1.000000
   28        0.645173   1.000000
   29        0.932990   1.000000
   30        1.295695   1.000000
   31        1.501461   1.000000
   32        1.703263   1.000000
   33        2.045144   1.000000
   34        2.203281   1.000000
   35        2.472021   1.000000
   36        2.641014   1.000000
   37        2.735160   1.000000
   38        2.921946   1.000000
   39        3.142711   1.000000
   40        3.397724   1.000000
   41        3.600380   1.000000
   42        3.842109   1.000000
   43        4.012939   1.000000
   44        4.257193   1.000000
   45        4.356493   1.000000
   46        4.633415   1.000000
   47        4.867874   1.000000
   48        5.223219   1.000000
   49        6.681455   0.627751
   50        6.856513   0.000000
   51        7.894789   0.000000
   52        8.064496   0.000000
   53        8.819157   0.000000
   54        9.267760   0.000000
   55        9.663576   0.000000
   56        9.945549   0.000000
   57       10.166547   0.000000
   58       10.458881   0.000000
   59       10.854577   0.000000
   60       11.018691   0.000000
   61       11.572351   0.000000
   62       11.718046   0.000000
   63       12.312714   0.000000
   64       12.827741   0.000000
   65       12.990610   0.000000
   66       13.175655   0.000000
   67       13.390604   0.000000
   68       13.583677   0.000000
   69       13.837709   0.000000
   70       13.956500   0.000000
   71       14.302217   0.000000
   72       14.557708   0.000000
 
  0.0000000E+00  0.3333333E+00  0.4000000E+00  0.2777778E-02
    1      -11.385511   1.000000
    2      -10.756205   1.000000
    3      -10.076665   1.000000
    4       -9.094051   1.000000
    5       -8.449962   1.000000
    6       -7.669859   1.000000
    7       -7.214522   1.000000
    8       -6.249495   1.000000
    9       -6.036574   1.000000
   10       -5.107024   1.000000
   11       -4.702137   1.000000
   12       -3.931614   1.000000
   13       -3.773753   1.000000
   14       -3.451398   1.000000
   15       -3.040507   1.000000
   16       -2.549260   1.000000
   17       -2.313404   1.000000
   18       -2.015380   1.000000
   19       -1.646725   1.000000
   20       -1.316550   1.000000
   21       -1.061393   1.000000
   22       -0.754081   1.000000
   23       -0.493208   1.000000
   24       -0.243218   1.000000
   25        0.093504   1.000000
   26        0.305282   1.000000
   27        0.678717   1.000000
   28        0.898096   1.000000
   29        0.980369   1.000000
   30        1.186621   1.000000
   31        1.392856   1.000000
   32        1.818419   1.000000
   33        2.080619   1.000000
   34        2.244749   1.000000
   35        2.583424   1.000000
   36        2.738029   1.000000
   37        2.825411   1.000000
   38        2.905636   1.000000
   39        3.309986   1.000000
   40        3.417016   1.000000
   41        3.587579   1.000000
   42        3.850566   1.000000
   43        4.021375   1.000000
   44        4.163493   1.000000
   45        4.507993   1.000000
   46        4.692933   1.000000
   47        4.994709   1.000000
   48        5.289088   1.000000
   49        6.577137   1.006776
   50        6.856170   0.000000
   51        7.639211   0.000000
   52        8.337907   0.000000
   53        8.686233   0.000000
   54        9.157078   0.000000
   55        9.510114   0.000000
   56        9.927120   0.000000
   57       10.084597   0.000000
   58       10.248574   0.000000
   59       10.566579   0.000000
   60       10.885162   0.000000
   61       11.416080   0.000000
   62       11.702514   0.000000
   63       12.172319   0.000000
   64       12.839330   0.000000
   65       13.079596   0.000000
   66       13.239208   0.000000
   67       13.278238   0.000000
   68       13.448401   0.000000
   69       13.651361   0.000000
   70       13.921668   0.000000
   71       14.192063   0.000000
   72       14.332666   0.000000
 
  0.1666667E+00  0.3333333E+00  0.4000000E+00  0.2777778E-02
    1      -11.402670   1.000000
    2      -10.711830   1.000000
    3      -10.093361   1.000000
    4       -9.171675   1.000000
    5       -8.234486   1.000000
    6       -7.838558   1.000000
    7       -7.225116   1.000000
    8       -6.301120   1.000000
    9       -6.025084   1.000000
   10       -5.092636   1.000000
   11       -4.646457   1.000000
   12       -4.015898   1.000000
   13       -3.786040   1.000000
   14       -3.291377   1.000000
   15       -2.775853   1.000000
   16       -2.654968   1.000000
   17       -2.122364   1.000000
   18       -1.930682   1.000000
   19       -1.750842   1.000000
   20       -1.471435   1.000000
   21       -1.193158   1.000000
   22       -0.909070   1.000000
   23       -0.740260   1.000000
   24       -0.491536   1.000000
   25        0.134330   1.000000
   26        0.384928   1.000000
   27        0.695173   1.000000
   28        0.819894   1.000000
   29        1.098472   1.000000
   30        1.296418   1.000000
   31        1.534932   1.000000
   32        1.837718   1.000000
   33        2.186705   1.000000
   34        2.383261   1.000000
   35        2.670571   1.000000
   36        2.752512   1.000000
   37        2.835046   1.000000
   38        3.010048   1.000000
   39        3.208987   1.000000
   40        3.341875   1.000000
   41        3.605240   1.000000
   42        3.707571   1.000000
   43        4.064955   1.000000
   44        4.229312   1.000000
   45        4.506512   1.000000
   46        4.631132   1.000000
   47        4.972142   1.000000
   48        5.186890   1.000000
   49        6.628165   0.935219
   50        6.848087   0.000000
   51        7.618840   0.000000
   52        8.449461   0.000000
   53        8.718174   0.000000
   54        9.188152   0.000000
   55        9.537246   0.000000
   56        9.843014   0.000000
   57        9.992171   0.000000
   58       10.284776   0.000000
   59       10.621054   0.000000
   60       10.873855   0.000000
   61       11.336412   0.000000
   62       11.493158   0.000000
   63       12.152472   0.000000
   64       12.651830   0.000000
   65       12.977197   0.000000
   66       13.118969   0.000000
   67       13.344278   0.000000
   68       13.518655   0.000000
   69       13.610296   0.000000
   70       13.970820   0.000000
   71       14.313877   0.000000
   72       14.479831   0.000000
 
  0.3333333E+00  0.3333333E+00  0.4000000E+00  0.2777778E-02
    1      -11.408969   1.000000
    2      -10.717412   1.000000
    3      -10.040245   1.000000
    4       -9.227623   1.000000
    5       -8.208760   1.000000
    6       -7.860591   1.000000
    7       -7.243346   1.000000
    8       -6.297032   1.000000
    9       -6.016078   1.000000
   10       -5.062792   1.000000
   11       -4.600342   1.000000
   12       -4.181392   1.000000
   13       -3.785180   1.000000
   14       -3.048395   1.000000
   15       -2.836475   1.000000
   16       -2.515919   1.000000
   17       -2.297129   1.000000
   18       -1.789761   1.000000
   19       -1.632843   1.000000
   20       -1.491472   1.000000
   21       -1.212294   1.000000
   22       -1.026770   1.000000
   23       -0.934814   1.000000
   24       -0.578628   1.000000
   25        0.106347   1.000000
   26        0.230681   1.000000
   27        0.680694   1.000000
   28        0.842923   1.000000
   29        1.158999   1.000000
   30        1.290009   1.000000
   31        1.649742   1.000000
   32        1.871775   1.000000
   33        2.194513   1.000000
   34        2.419745   1.000000
   35        2.595972   1.000000
   36        2.762183   1.000000
   37        2.892130   1.000000
   38        3.112201   1.000000
   39        3.278376   1.000000
   40        3.393655   1.000000
   41        3.689250   1.000000
   42        3.904608   1.000000
   43        4.043192   1.000000
   44        4.276576   1.000000
   45        4.328629   1.000000
   46        4.569230   1.000000
   47        4.860411   1.000000
   48        4.979145   1.000000
   49        6.677413   0.674765
   50        6.947702   0.000000
   51        7.686869   0.000000
   52        8.376676   0.000000
   53        8.831021   0.000000
   54        9.251510   0.000000
   55        9.468887   0.000000
   56        9.707978   0.000000
   57       10.192442   0.000000
   58       10.286378   0.000000
   59       10.647194   0.000000
   60       10.888253   0.000000
   61       11.053264   0.000000
   62       11.426813   0.000000
   63       12.131796   0.000000
   64       12.572530   0.000000
   65       12.884304   0.000000
   66       12.996481   0.000000
   67       13.332529   0.000000
   68       13.480215   0.000000
   69       13.711303   0.000000
   70       13.857035   0.000000
   71       14.356881   0.000000
   72       14.522990   0.000000
 
  0.5000000E+00  0.3333333E+00  0.4000000E+00  0.2777778E-02
    1      -11.398921   1.000000
    2      -10.762253   1.000000
    3       -9.971950   1.000000
    4       -9.221592   1.000000
    5       -8.401070   1.000000
    6       -7.700999   1.000000
    7       -7.249895   1.000000
    8       -6.243270   1.000000
    9       -6.014872   1.000000
   10       -5.024088   1.000000
   11       -4.677630   1.000000
   12       -4.194791   1.000000
   13       -3.826516   1.000000
   14       -3.063280   1.000000
   15       -2.858359   1.000000
   16       -2.632367   1.000000
   17       -2.308454   1.000000
   18       -1.931916   1.000000
   19       -1.447342   1.000000
   20       -1.412998   1.000000
   21       -1.106927   1.000000
   22       -0.990038   1.000000
   23       -0.684581   1.000000
   24       -0.531743   1.000000
   25       -0.024779   1.000000
   26        0.264076   1.000000
   27        0.505743   1.000000
   28        0.792687   1.000000
   29        1.018024   1.000000
   30        1.431444   1.000000
   31        1.541414   1.000000
   32        1.839549   1.000000
   33        2.204478   1.000000
   34        2.369717   1.000000
   35        2.446395   1.000000
   36        2.699106   1.000000
   37        3.023407   1.000000
   38        3.221411   1.000000
   39        3.313829   1.000000
   40        3.500266   1.000000
   41        3.813172   1.000000
   42        3.974558   1.000000
   43        4.088544   1.000000
   44        4.206752   1.000000
   45        4.320870   1.000000
   46        4.493246   1.000000
   47        4.708995   1.000000
   48        4.940337   1.000000
   49        6.693485   0.544258
   50        7.040625   0.000000
   51        7.791334   0.000000
   52        8.213336   0.000000
   53        8.842315   0.000000
   54        9.137348   0.000000
   55        9.594643   0.000000
   56        9.703531   0.000000
   57       10.249929   0.000000
   58       10.477598   0.000000
   59       10.555785   0.000000
   60       10.681691   0.000000
   61       11.236278   0.000000
   62       11.462807   0.000000
   63       12.079816   0.000000
   64       12.569431   0.000000
   65       12.849362   0.000000
   66       13.010241   0.000000
   67       13.264545   0.000000
   68       13.426124   0.000000
   69       13.577533   0.000000
   70       13.830301   0.000000
   71       14.334021   0.000000
   72       14.475938   0.000000
 
 -0.3333333E+00  0.3333333E+00  0.4000000E+00  0.2777778E-02
    1      -11.381106   1.000000
    2      -10.802094   1.000000
    3       -9.964471   1.000000
    4       -9.132382   1.000000
    5       -8.571437   1.000000
    6       -7.586222   1.000000
    7       -7.239078   1.000000
    8       -6.175539   1.000000
    9       -6.040998   1.000000
   10       -5.028706   1.000000
   11       -4.757195   1.000000
   12       -4.064576   1.000000
   13       -3.876992   1.000000
   14       -3.271909   1.000000
   15       -3.093753   1.000000
   16       -2.569315   1.000000
   17       -2.174834   1.000000
   18       -2.091197   1.000000
   19       -1.517582   1.000000
   20       -1.359412   1.000000
   21       -0.947936   1.000000
   22       -0.624093   1.000000
   23       -0.559932   1.000000
   24       -0.348153   1.000000
   25        0.091139   1.000000
   26        0.301871   1.000000
   27        0.359909   1.000000
   28        0.739522   1.000000
   29        0.895526   1.000000
   30        1.186175   1.000000
   31        1.564670   1.000000
   32        1.799201   1.000000
   33        2.023321   1.000000
   34        2.294213   1.000000
   35        2.604023   1.000000
   36        2.626608   1.000000
   37        3.093194   1.000000
   38        3.183807   1.000000
   39        3.335557   1.000000
   40        3.467498   1.000000
   41        3.716710   1.000000
   42        3.783618   1.000000
   43        4.038710   1.000000
   44        4.270391   1.000000
   45        4.395115   1.000000
   46        4.655932   1.000000
   47        4.827174   1.000000
   48        4.983787   1.000000
   49        6.655923   0.695346
   50        7.042014   0.000000
   51        7.912261   0.000000
   52        8.001493   0.000000
   53        8.739079   0.000000
   54        9.178094   0.000000
   55        9.479155   0.000000
   56        9.861925   0.000000
   57       10.253044   0.000000
   58       10.417558   0.000000
   59       10.585369   0.000000
   60       10.778609   0.000000
   61       11.385023   0.000000
   62       11.607194   0.000000
   63       12.100882   0.000000
   64       12.623765   0.000000
   65       12.891332   0.000000
   66       13.055539   0.000000
   67       13.227343   0.000000
   68       13.401426   0.000000
   69       13.608640   0.000000
   70       13.829623   0.000000
   71       14.262758   0.000000
   72       14.512179   0.000000
 
 -0.1666667E+00  0.3333333E+00  0.4000000E+00  0.2777778E-02
    1      -11.373910   1.000000
    2      -10.801102   1.000000
    3      -10.016004   1.000000
    4       -9.053674   1.000000
    5       -8.608629   1.000000
    6       -7.570734   1.000000
    7       -7.222103   1.000000
    8       -6.174796   1.000000
    9       -6.056806   1.000000
   10       -5.084147   1.000000
   11       -4.741964   1.000000
   12       -3.940414   1.000000
   13       -3.845371   1.000000
   14       -3.419069   1.000000
   15       -3.212142   1.000000
   16       -2.526205   1.000000
   17       -2.280991   1.000000
   18       -2.058796   1.000000
   19       -1.566112   1.000000
   20       -1.308242   1.000000
   21       -0.890924   1.000000
   22       -0.697394   1.000000
   23       -0.400262   1.000000
   24       -0.058345   1.000000
   25        0.056399   1.000000
   26        0.231188   1.000000
   27        0.610605   1.000000
   28        0.709062   1.000000
   29        0.853303   1.000000
   30        1.111993   1.000000
   31        1.511343   1.000000
   32        1.777167   1.000000
   33        1.905505   1.000000
   34        2.311266   1.000000
   35        2.580212   1.000000
   36        2.671932   1.000000
   37        2.935513   1.000000
   38        2.963365   1.000000
   39        3.350319   1.000000
   40        3.468100   1.000000
   41        3.625374   1.000000
   42        3.839266   1.000000
   43        4.116744   1.000000
   44        4.209972   1.000000
   45        4.352779   1.000000
   46        4.732269   1.000000
   47        4.949610   1.000000
   48        5.186077   1.000000
   49        6.593344   0.914250
   50        6.953077   0.000000
   51        7.766553   0.000000
   52        8.124062   0.000000
   53        8.701968   0.000000
   54        9.197882   0.000000
   55        9.427764   0.000000
   56        9.925065   0.000000
   57       10.184716   0.000000
   58       10.351337   0.000000
   59       10.564533   0.000000
   60       10.874697   0.000000
   61       11.408710   0.000000
   62       11.741712   0.000000
   63       12.184241   0.000000
   64       12.782661   0.000000
   65       13.015543   0.000000
   66       13.160840   0.000000
   67       13.258317   0.000000
   68       13.402449   0.000000
   69       13.734473   0.000000
   70       13.894013   0.000000
   71       14.122897   0.000000
   72       14.350089   0.000000
 
  0.0000000E+00  0.4166667E+00  0.4000000E+00  0.2777778E-02
    1      -11.334953   1.000000
    2      -10.716023   1.000000
    3      -10.083605   1.000000
    4       -9.078317   1.000000
    5       -8.603196   1.000000
    6       -7.601316   1.000000
    7       -7.195412   1.000000
    8       -6.258804   1.000000
    9       -6.125301   1.000000
   10       -5.038124   1.000000
   11       -4.795690   1.000000
   12       -4.028175   1.000000
   13       -3.815797   1.000000
   14       -3.542903   1.000000
   15       -3.315159   1.000000
   16       -2.688236   1.000000
   17       -2.366076   1.000000
   18       -1.944605   1.000000
   19       -1.614082   1.000000
   20       -1.377140   1.000000
   21       -0.826427   1.000000
   22       -0.527838   1.000000
   23       -0.404281   1.000000
   24        0.151803   1.000000
   25        0.218709   1.000000
   26        0.367191   1.000000
   27        0.742587   1.000000
   28        1.010329   1.000000
   29        1.085005   1.000000
   30        1.208970   1.000000
   31        1.377803   1.000000
   32        1.861309   1.000000
   33        1.910949   1.000000
   34        2.319668   1.000000
   35        2.454660   1.000000
   36        2.676205   1.000000
   37        2.755286   1.000000
   38        3.031637   1.000000
   39        3.212084   1.000000
   40        3.369456   1.000000
   41        3.515496   1.000000
   42        3.772867   1.000000
   43        4.091351   1.000000
   44        4.316313   1.000000
   45        4.548989   1.000000
   46        4.841344   1.000000
   47        5.070423   1.000000
   48        5.300626   1.000000
   49        6.453390   1.052826
   50        6.968297   0.000000
   51        7.570960   0.000000
   52        8.256716   0.000000
   53        8.653895   0.000000
   54        9.088734   0.000000
   55        9.246715   0.000000
   56        9.842082   0.000000
   57       10.063559   0.000000
   58       10.268667   0.000000
   59       10.474147   0.000000
   60       10.742871   0.000000
   61       11.293716   0.000000
   62       11.810238   0.000000
   63       12.159690   0.000000
   64       12.829865   0.000000
   65       13.119751   0.000000
   66       13.190410   0.000000
   67       13.278952   0.000000
   68       13.455720   0.000000
   69       13.691473   0.000000
   70       13.810396   0.000000
   71       13.996196   0.000000
   72       14.149478   0.000000
 
  0.1666667E+00  0.4166667E+00  0.4000000E+00  0.2777778E-02
    1      -11.345841   1.000000
    2      -10.692806   1.000000
    3      -10.082805   1.000000
    4       -9.181989   1.000000
    5       -8.386088   1.000000
    6       -7.737947   1.000000
    7       -7.209387   1.000000
    8       -6.321719   1.000000
    9       -6.127351   1.000000
   10       -5.087120   1.000000
   11       -4.776202   1.000000
   12       -3.990552   1.000000
   13       -3.857286   1.000000
   14       -3.329725   1.000000
   15       -2.928388   1.000000
   16       -2.621474   1.000000
   17       -2.420167   1.000000
   18       -2.009337   1.000000
   19       -1.658065   1.000000
   20       -1.461731   1.000000
   21       -1.212585   1.000000
   22       -0.874587   1.000000
   23       -0.682808   1.000000
   24       -0.018139   1.000000
   25        0.370725   1.000000
   26        0.570634   1.000000
   27        0.853073   1.000000
   28        1.098199   1.000000
   29        1.177330   1.000000
   30        1.326707   1.000000
   31        1.433543   1.000000
   32        1.890928   1.000000
   33        2.130589   1.000000
   34        2.411156   1.000000
   35        2.493130   1.000000
   36        2.731443   1.000000
   37        2.793970   1.000000
   38        3.026563   1.000000
   39        3.152732   1.000000
   40        3.281293   1.000000
   41        3.538882   1.000000
   42        3.910456   1.000000
   43        3.978743   1.000000
   44        4.252590   1.000000
   45        4.436787   1.000000
   46        4.764571   1.000000
   47        4.979728   1.000000
   48        5.253380   1.000000
   49        6.533003   1.048651
   50        6.879370   0.000000
   51        7.676608   0.000000
   52        8.361227   0.000000
   53        8.543785   0.000000
   54        9.171161   0.000000
   55        9.367547   0.000000
   56        9.795739   0.000000
   57        9.983486   0.000000
   58       10.215550   0.000000
   59       10.490792   0.000000
   60       10.755065   0.000000
   61       11.272259   0.000000
   62       11.579453   0.000000
   63       12.151761   0.000000
   64       12.628270   0.000000
   65       13.029644   0.000000
   66       13.163757   0.000000
   67       13.309314   0.000000
   68       13.530089   0.000000
   69       13.673807   0.000000
   70       13.976080   0.000000
   71       14.200280   0.000000
   72       14.339658   0.000000
 
  0.3333333E+00  0.4166667E+00  0.4000000E+00  0.2777778E-02
    1      -11.350659   1.000000
    2      -10.705718   1.000000
    3      -10.015491   1.000000
    4       -9.279680   1.000000
    5       -8.217467   1.000000
    6       -7.877070   1.000000
    7       -7.206111   1.000000
    8       -6.366259   1.000000
    9       -6.136827   1.000000
   10       -5.103903   1.000000
   11       -4.723224   1.000000
   12       -4.057403   1.000000
   13       -3.846552   1.000000
   14       -3.074489   1.000000
   15       -2.785149   1.000000
   16       -2.507788   1.000000
   17       -2.257211   1.000000
   18       -2.111153   1.000000
   19       -1.791434   1.000000
   20       -1.608677   1.000000
   21       -1.271459   1.000000
   22       -1.072179   1.000000
   23       -0.940046   1.000000
   24       -0.243359   1.000000
   25        0.457117   1.000000
   26        0.556479   1.000000
   27        0.786345   1.000000
   28        1.107422   1.000000
   29        1.349996   1.000000
   30        1.443757   1.000000
   31        1.624623   1.000000
   32        1.881068   1.000000
   33        2.182557   1.000000
   34        2.411889   1.000000
   35        2.613041   1.000000
   36        2.668758   1.000000
   37        2.876266   1.000000
   38        3.088303   1.000000
   39        3.165329   1.000000
   40        3.453831   1.000000
   41        3.649941   1.000000
   42        3.862549   1.000000
   43        4.046526   1.000000
   44        4.178066   1.000000
   45        4.329117   1.000000
   46        4.638015   1.000000
   47        4.751809   1.000000
   48        5.159754   1.000000
   49        6.638220   0.985394
   50        6.827920   0.000000
   51        7.813415   0.000000
   52        8.217812   0.000000
   53        8.637771   0.000000
   54        9.310890   0.000000
   55        9.449356   0.000000
   56        9.646121   0.000000
   57        9.951354   0.000000
   58       10.252097   0.000000
   59       10.612362   0.000000
   60       10.788738   0.000000
   61       11.062531   0.000000
   62       11.334517   0.000000
   63       12.110936   0.000000
   64       12.587747   0.000000
   65       12.927074   0.000000
   66       13.066139   0.000000
   67       13.324638   0.000000
   68       13.511472   0.000000
   69       13.779496   0.000000
   70       13.952479   0.000000
   71       14.263147   0.000000
   72       14.592233   0.000000
 
  0.5000000E+00  0.4166667E+00  0.4000000E+00  0.2777778E-02
    1      -11.344921   1.000000
    2      -10.737590   1.000000
    3       -9.948077   1.000000
    4       -9.309766   1.000000
    5       -8.328280   1.000000
    6       -7.785383   1.000000
    7       -7.189797   1.000000
    8       -6.353719   1.000000
    9       -6.142982   1.000000
   10       -5.057357   1.000000
   11       -4.705523   1.000000
   12       -4.141627   1.000000
   13       -3.868739   1.000000
   14       -3.110253   1.000000
   15       -2.869770   1.000000
   16       -2.590863   1.000000
   17       -2.241491   1.000000
   18       -2.082735   1.000000
   19       -1.605101   1.000000
   20       -1.465409   1.000000
   21       -1.352027   1.000000
   22       -1.007310   1.000000
   23       -0.791338   1.000000
   24       -0.370190   1.000000
   25        0.377907   1.000000
   26        0.497096   1.000000
   27        0.779470   1.000000
   28        1.025298   1.000000
   29        1.291174   1.000000
   30        1.461961   1.000000
   31        1.610056   1.000000
   32        1.893093   1.000000
   33        2.178190   1.000000
   34        2.342793   1.000000
   35        2.544643   1.000000
   36        2.753410   1.000000
   37        2.867481   1.000000
   38        3.105496   1.000000
   39        3.284592   1.000000
   40        3.476692   1.000000
   41        3.818462   1.000000
   42        3.900808   1.000000
   43        4.099849   1.000000
   44        4.203001   1.000000
   45        4.381975   1.000000
   46        4.456365   1.000000
   47        4.638526   1.000000
   48        5.116097   1.000000
   49        6.637771   0.930690
   50        6.896487   0.000000
   51        7.905517   0.000000
   52        8.007845   0.000000
   53        8.744560   0.000000
   54        9.165417   0.000000
   55        9.439461   0.000000
   56        9.759468   0.000000
   57       10.082321   0.000000
   58       10.368537   0.000000
   59       10.512169   0.000000
   60       10.680129   0.000000
   61       11.087924   0.000000
   62       11.341439   0.000000
   63       12.071186   0.000000
   64       12.612588   0.000000
   65       12.896966   0.000000
   66       13.026484   0.000000
   67       13.198742   0.000000
   68       13.485619   0.000000
   69       13.792085   0.000000
   70       13.906529   0.000000
   71       14.294728   0.000000
   72       14.556161   0.000000
 
 -0.3333333E+00  0.4166667E+00  0.4000000E+00  0.2777778E-02
    1      -11.333788   1.000000
    2      -10.758561   1.000000
    3       -9.958145   1.000000
    4       -9.223938   1.000000
    5       -8.531188   1.000000
    6       -7.642619   1.000000
    7       -7.172372   1.000000
    8       -6.295190   1.000000
    9       -6.137604   1.000000
   10       -4.964219   1.000000
   11       -4.797865   1.000000
   12       -4.059402   1.000000
   13       -3.947497   1.000000
   14       -3.353565   1.000000
   15       -3.261501   1.000000
   16       -2.639501   1.000000
   17       -2.177653   1.000000
   18       -2.019313   1.000000
   19       -1.490744   1.000000
   20       -1.326954   1.000000
   21       -1.126994   1.000000
   22       -0.789475   1.000000
   23       -0.475597   1.000000
   24       -0.188034   1.000000
   25        0.298301   1.000000
   26        0.475956   1.000000
   27        0.697967   1.000000
   28        0.887206   1.000000
   29        1.071206   1.000000
   30        1.290042   1.000000
   31        1.525264   1.000000
   32        1.862969   1.000000
   33        2.038960   1.000000
   34        2.357785   1.000000
   35        2.500820   1.000000
   36        2.681409   1.000000
   37        2.964999   1.000000
   38        3.136170   1.000000
   39        3.251545   1.000000
   40        3.452599   1.000000
   41        3.688915   1.000000
   42        3.926758   1.000000
   43        4.073067   1.000000
   44        4.187312   1.000000
   45        4.402099   1.000000
   46        4.717157   1.000000
   47        4.827361   1.000000
   48        5.141944   1.000000
   49        6.565270   1.016749
   50        6.992864   0.000000
   51        7.766255   0.000000
   52        8.007616   0.000000
   53        8.738305   0.000000
   54        9.028279   0.000000
   55        9.380024   0.000000
   56        9.880503   0.000000
   57       10.159290   0.000000
   58       10.292847   0.000000
   59       10.541491   0.000000
   60       10.670499   0.000000
   61       11.270720   0.000000
   62       11.522147   0.000000
   63       12.046278   0.000000
   64       12.663994   0.000000
   65       12.916702   0.000000
   66       13.072522   0.000000
   67       13.176509   0.000000
   68       13.328680   0.000000
   69       13.795170   0.000000
   70       13.902819   0.000000
   71       14.225343   0.000000
   72       14.494800   0.000000
 
 -0.1666667E+00  0.4166667E+00  0.4000000E+00  0.2777778E-02
    1      -11.328617   1.000000
    2      -10.749577   1.000000
    3      -10.025164   1.000000
    4       -9.085652   1.000000
    5       -8.671190   1.000000
    6       -7.570725   1.000000
    7       -7.174005   1.000000
    8       -6.244854   1.000000
    9       -6.129246   1.000000
   10       -4.965318   1.000000
   11       -4.825882   1.000000
   12       -4.003720   1.000000
   13       -3.882654   1.000000
   14       -3.570237   1.000000
   15       -3.467847   1.000000
   16       -2.712061   1.000000
   17       -2.237198   1.000000
   18       -1.928396   1.000000
   19       -1.551099   1.000000
   20       -1.323614   1.000000
   21       -0.828861   1.000000
   22       -0.422333   1.000000
   23       -0.289790   1.000000
   24        0.006740   1.000000
   25        0.251796   1.000000
   26        0.457841   1.000000
   27        0.540705   1.000000
   28        0.794997   1.000000
   29        1.049315   1.000000
   30        1.162952   1.000000
   31        1.487678   1.000000
   32        1.816215   1.000000
   33        1.871582   1.000000
   34        2.301180   1.000000
   35        2.487135   1.000000
   36        2.700349   1.000000
   37        2.810213   1.000000
   38        3.097883   1.000000
   39        3.269710   1.000000
   40        3.380679   1.000000
   41        3.652548   1.000000
   42        3.705258   1.000000
   43        4.121822   1.000000
   44        4.351353   1.000000
   45        4.450597   1.000000
   46        4.859121   1.000000
   47        5.022916   1.000000
   48        5.236449   1.000000
   49        6.477860   1.070993
   50        7.022807   0.000000
   51        7.600343   0.000000
   52        8.113095   0.000000
   53        8.720358   0.000000
   54        9.003333   0.000000
   55        9.303915   0.000000
   56        9.877038   0.000000
   57       10.048315   0.000000
   58       10.348153   0.000000
   59       10.524298   0.000000
   60       10.730929   0.000000
   61       11.289978   0.000000
   62       11.822739   0.000000
   63       12.076892   0.000000
   64       12.756815   0.000000
   65       13.072667   0.000000
   66       13.137439   0.000000
   67       13.183150   0.000000
   68       13.417108   0.000000
   69       13.679657   0.000000
   70       13.821409   0.000000
   71       14.145784   0.000000
   72       14.225390   0.000000
 
  0.0000000E+00  0.5000000E+00  0.4000000E+00  0.2777778E-02
    1      -11.281945   1.000000
    2      -10.691091   1.000000
    3      -10.101397   1.000000
    4       -9.107466   1.000000
    5       -8.693947   1.000000
    6       -7.680342   1.000000
    7       -7.101181   1.000000
    8       -6.265432   1.000000
    9       -6.114310   1.000000
   10       -5.081377   1.000000
   11       -4.869458   1.000000
   12       -4.020869   1.000000
   13       -3.836004   1.000000
   14       -3.430792   1.000000
   15       -3.337464   1.000000
   16       -2.825313   1.000000
   17       -2.267766   1.000000
   18       -1.914678   1.000000
   19       -1.667555   1.000000
   20       -1.296801   1.000000
   21       -0.995646   1.000000
   22       -0.371173   1.000000
   23       -0.203053   1.000000
   24        0.126286   1.000000
   25        0.383986   1.000000
   26        0.538681   1.000000
   27        0.697462   1.000000
   28        0.970497   1.000000
   29        1.146652   1.000000
   30        1.222278   1.000000
   31        1.603999   1.000000
   32        1.802538   1.000000
   33        1.890868   1.000000
   34        2.270577   1.000000
   35        2.360653   1.000000
   36        2.639546   1.000000
   37        2.697602   1.000000
   38        2.893948   1.000000
   39        3.132897   1.000000
   40        3.230844   1.000000
   41        3.477703   1.000000
   42        3.744189   1.000000
   43        4.225294   1.000000
   44        4.356262   1.000000
   45        4.492052   1.000000
   46        4.912364   1.000000
   47        5.074456   1.000000
   48        5.295306   1.000000
   49        6.356266   1.000000
   50        7.029837   0.000000
   51        7.655721   0.000000
   52        8.140539   0.000000
   53        8.579149   0.000000
   54        9.044372   0.000000
   55        9.182035   0.000000
   56        9.769344   0.000000
   57       10.045807   0.000000
   58       10.313070   0.000000
   59       10.457351   0.000000
   60       10.722049   0.000000
   61       11.177320   0.000000
   62       11.891906   0.000000
   63       12.280566   0.000000
   64       12.764415   0.000000
   65       13.088257   0.000000
   66       13.154389   0.000000
   67       13.268874   0.000000
   68       13.460752   0.000000
   69       13.684805   0.000000
   70       13.786602   0.000000
   71       13.980261   0.000000
   72       14.191697   0.000000
 
  0.1666667E+00  0.5000000E+00  0.4000000E+00  0.2777778E-02
    1      -11.286693   1.000000
    2      -10.689425   1.000000
    3      -10.083237   1.000000
    4       -9.196818   1.000000
    5       -8.537568   1.000000
    6       -7.746760   1.000000
    7       -7.154592   1.000000
    8       -6.292798   1.000000
    9       -6.117596   1.000000
   10       -5.095663   1.000000
   11       -4.905837   1.000000
   12       -3.983445   1.000000
   13       -3.852503   1.000000
   14       -3.232803   1.000000
   15       -3.024329   1.000000
   16       -2.704266   1.000000
   17       -2.373551   1.000000
   18       -2.051563   1.000000
   19       -1.748340   1.000000
   20       -1.423340   1.000000
   21       -1.214101   1.000000
   22       -0.635633   1.000000
   23       -0.409741   1.000000
   24        0.180718   1.000000
   25        0.278003   1.000000
   26        0.668249   1.000000
   27        0.946069   1.000000
   28        1.123109   1.000000
   29        1.208515   1.000000
   30        1.281298   1.000000
   31        1.547053   1.000000
   32        1.856940   1.000000
   33        1.939415   1.000000
   34        2.395516   1.000000
   35        2.468289   1.000000
   36        2.610376   1.000000
   37        2.745286   1.000000
   38        2.883635   1.000000
   39        3.079680   1.000000
   40        3.203306   1.000000
   41        3.543853   1.000000
   42        3.835203   1.000000
   43        4.214551   1.000000
   44        4.292484   1.000000
   45        4.343071   1.000000
   46        4.809767   1.000000
   47        4.958084   1.000000
   48        5.261911   1.000000
   49        6.407654   1.000000
   50        7.009444   0.000000
   51        7.857134   0.000000
   52        8.150098   0.000000
   53        8.457108   0.000000
   54        9.142101   0.000000
   55        9.210252   0.000000
   56        9.705943   0.000000
   57       10.094492   0.000000
   58       10.239442   0.000000
   59       10.451896   0.000000
   60       10.740235   0.000000
   61       11.169109   0.000000
   62       11.756342   0.000000
   63       12.261847   0.000000
   64       12.649569   0.000000
   65       13.017986   0.000000
   66       13.149783   0.000000
   67       13.252066   0.000000
   68       13.531845   0.000000
   69       13.687979   0.000000
   70       13.815817   0.000000
   71       14.093177   0.000000
   72       14.205751   0.000000
 
  0.3333333E+00  0.5000000E+00  0.4000000E+00  0.2777778E-02
    1      -11.289195   1.000000
    2      -10.707190   1.000000
    3      -10.017969   1.000000
    4       -9.304453   1.000000
    5       -8.349455   1.000000
    6       -7.878273   1.000000
    7       -7.165060   1.000000
    8       -6.359809   1.000000
    9       -6.133307   1.000000
   10       -5.110837   1.000000
   11       -4.835611   1.000000
   12       -4.088118   1.000000
   13       -3.775862   1.000000
   14       -3.010457   1.000000
   15       -2.787128   1.000000
   16       -2.506699   1.000000
   17       -2.281733   1.000000
   18       -2.189958   1.000000
   19       -1.920114   1.000000
   20       -1.555644   1.000000
   21       -1.262819   1.000000
   22       -0.977915   1.000000
   23       -0.768577   1.000000
   24       -0.059616   1.000000
   25        0.467419   1.000000
   26        0.690315   1.000000
   27        0.939613   1.000000
   28        1.163340   1.000000
   29        1.320098   1.000000
   30        1.502517   1.000000
   31        1.656628   1.000000
   32        1.883471   1.000000
   33        2.035556   1.000000
   34        2.402064   1.000000
   35        2.459086   1.000000
   36        2.637642   1.000000
   37        2.750696   1.000000
   38        2.997209   1.000000
   39        3.090912   1.000000
   40        3.515493   1.000000
   41        3.611066   1.000000
   42        3.823806   1.000000
   43        4.108743   1.000000
   44        4.199714   1.000000
   45        4.340015   1.000000
   46        4.611728   1.000000
   47        4.754002   1.000000
   48        5.198403   1.000000
   49        6.521597   1.000353
   50        6.903289   0.000000
   51        7.962922   0.000000
   52        8.013063   0.000000
   53        8.583965   0.000000
   54        9.304432   0.000000
   55        9.333197   0.000000
   56        9.608625   0.000000
   57        9.959103   0.000000
   58       10.204088   0.000000
   59       10.592363   0.000000
   60       10.707333   0.000000
   61       11.138360   0.000000
   62       11.388016   0.000000
   63       12.138163   0.000000
   64       12.684643   0.000000
   65       12.911737   0.000000
   66       13.083085   0.000000
   67       13.380594   0.000000
   68       13.470324   0.000000
   69       13.783284   0.000000
   70       13.865848   0.000000
   71       14.302710   0.000000
   72       14.486052   0.000000
 
  0.5000000E+00  0.5000000E+00  0.4000000E+00  0.2777778E-02
    1      -11.286997   1.000000
    2      -10.725044   1.000000
    3       -9.969289   1.000000
    4       -9.350187   1.000000
    5       -8.319864   1.000000
    6       -7.914288   1.000000
    7       -7.121955   1.000000
    8       -6.396287   1.000000
    9       -6.157312   1.000000
   10       -5.085105   1.000000
   11       -4.725414   1.000000
   12       -4.241241   1.000000
   13       -3.748560   1.000000
   14       -3.061294   1.000000
   15       -2.815415   1.000000
   16       -2.419908   1.000000
   17       -2.352482   1.000000
   18       -2.025312   1.000000
   19       -1.701211   1.000000
   20       -1.645374   1.000000
   21       -1.277155   1.000000
   22       -0.987820   1.000000
   23       -0.897137   1.000000
   24       -0.217445   1.000000
   25        0.460957   1.000000
   26        0.666888   1.000000
   27        0.869315   1.000000
   28        1.129825   1.000000
   29        1.379893   1.000000
   30        1.483190   1.000000
   31        1.641040   1.000000
   32        1.910543   1.000000
   33        2.130555   1.000000
   34        2.351230   1.000000
   35        2.556936   1.000000
   36        2.644070   1.000000
   37        2.836208   1.000000
   38        3.031657   1.000000
   39        3.129068   1.000000
   40        3.498547   1.000000
   41        3.687197   1.000000
   42        3.866330   1.000000
   43        3.990121   1.000000
   44        4.254755   1.000000
   45        4.420298   1.000000
   46        4.518296   1.000000
   47        4.672848   1.000000
   48        5.155841   1.000000
   49        6.608321   1.021751
   50        6.798973   0.000000
   51        7.801781   0.000000
   52        7.994042   0.000000
   53        8.764528   0.000000
   54        9.255422   0.000000
   55        9.426857   0.000000
   56        9.750364   0.000000
   57        9.892054   0.000000
   58       10.251567   0.000000
   59       10.463317   0.000000
   60       10.707936   0.000000
   61       11.043035   0.000000
   62       11.328775   0.000000
   63       12.068020   0.000000
   64       12.728498   0.000000
   65       12.861160   0.000000
   66       13.046650   0.000000
   67       13.266595   0.000000
   68       13.517839   0.000000
   69       13.941584   0.000000
   70       14.063304   0.000000
   71       14.283071   0.000000
   72       14.655334   0.000000
 
 -0.3333333E+00  0.5000000E+00  0.4000000E+00  0.2777778E-02
    1      -11.282190   1.000000
    2      -10.727244   1.000000
    3       -9.993395   1.000000
    4       -9.287956   1.000000
    5       -8.487857   1.000000
    6       -7.802116   1.000000
    7       -7.065302   1.000000
    8       -6.375719   1.000000
    9       -6.155078   1.000000
   10       -5.046748   1.000000
   11       -4.739875   1.000000
   12       -4.180649   1.000000
   13       -3.837966   1.000000
   14       -3.285269   1.000000
   15       -3.176679   1.000000
   16       -2.555164   1.000000
   17       -2.156017   1.000000
   18       -1.941546   1.000000
   19       -1.608218   1.000000
   20       -1.453933   1.000000
   21       -1.149988   1.000000
   22       -0.893270   1.000000
   23       -0.495044   1.000000
   24       -0.155879   1.000000
   25        0.344503   1.000000
   26        0.580234   1.000000
   27        0.799502   1.000000
   28        0.984022   1.000000
   29        1.292898   1.000000
   30        1.335383   1.000000
   31        1.610625   1.000000
   32        1.916755   1.000000
   33        2.101576   1.000000
   34        2.351016   1.000000
   35        2.467311   1.000000
   36        2.738419   1.000000
   37        2.839093   1.000000
   38        2.928244   1.000000
   39        3.175509   1.000000
   40        3.386295   1.000000
   41        3.652241   1.000000
   42        3.819392   1.000000
   43        4.040689   1.000000
   44        4.166693   1.000000
   45        4.443181   1.000000
   46        4.764922   1.000000
   47        4.898544   1.000000
   48        5.169088   1.000000
   49        6.538528   1.034544
   50        6.844939   0.000000
   51        7.631414   0.000000
   52        8.020302   0.000000
   53        8.834072   0.000000
   54        9.095223   0.000000
   55        9.307125   0.000000
   56        9.910024   0.000000
   57       10.041093   0.000000
   58       10.203671   0.000000
   59       10.451006   0.000000
   60       10.583507   0.000000
   61       11.248106   0.000000
   62       11.438192   0.000000
   63       12.002260   0.000000
   64       12.682459   0.000000
   65       12.939647   0.000000
   66       13.099261   0.000000
   67       13.276608   0.000000
   68       13.444309   0.000000
   69       13.938740   0.000000
   70       14.131366   0.000000
   71       14.285371   0.000000
   72       14.415858   0.000000
 
 -0.1666667E+00  0.5000000E+00  0.4000000E+00  0.2777778E-02
    1      -11.279643   1.000000
    2      -10.711122   1.000000
    3      -10.058879   1.000000
    4       -9.161716   1.000000
    5       -8.659721   1.000000
    6       -7.705970   1.000000
    7       -7.055688   1.000000
    8       -6.313181   1.000000
    9       -6.125721   1.000000
   10       -5.060466   1.000000
   11       -4.802490   1.000000
   12       -3.999496   1.000000
   13       -3.914891   1.000000
   14       -3.479476   1.000000
   15       -3.399303   1.000000
   16       -2.752712   1.000000
   17       -2.174088   1.000000
   18       -1.829007   1.000000
   19       -1.568925   1.000000
   20       -1.336181   1.000000
   21       -1.114844   1.000000
   22       -0.387966   1.000000
   23       -0.145955   1.000000
   24        0.016950   1.000000
   25        0.222842   1.000000
   26        0.433483   1.000000
   27        0.687747   1.000000
   28        1.004378   1.000000
   29        1.103434   1.000000
   30        1.270814   1.000000
   31        1.636474   1.000000
   32        1.874799   1.000000
   33        1.926069   1.000000
   34        2.236939   1.000000
   35        2.421712   1.000000
   36        2.642452   1.000000
   37        2.812660   1.000000
   38        2.907440   1.000000
   39        3.133813   1.000000
   40        3.253068   1.000000
   41        3.562993   1.000000
   42        3.847616   1.000000
   43        4.059149   1.000000
   44        4.301736   1.000000
   45        4.510863   1.000000
   46        4.913849   1.000000
   47        5.054227   1.000000
   48        5.252913   1.000000
   49        6.416265   1.007217
   50        6.955036   0.000000
   51        7.560327   0.000000
   52        8.076985   0.000000
   53        8.762861   0.000000
   54        9.020774   0.000000
   55        9.203860   0.000000
   56        9.847661   0.000000
   57       10.044185   0.000000
   58       10.262210   0.000000
   59       10.471475   0.000000
   60       10.668442   0.000000
   61       11.218792   0.000000
   62       11.838433   0.000000
   63       12.028936   0.000000
   64       12.680731   0.000000
   65       13.074544   0.000000
   66       13.144805   0.000000
   67       13.245416   0.000000
   68       13.508837   0.000000
   69       13.787374   0.000000
   70       13.930831   0.000000
   71       14.141976   0.000000
   72       14.349008   0.000000
 
  0.0000000E+00 -0.4166667E+00  0.4000000E+00  0.2777778E-02
    1      -11.239257   1.000000
    2      -10.690714   1.000000
    3      -10.135799   1.000000
    4       -9.170512   1.000000
    5       -8.675009   1.000000
    6       -7.854532   1.000000
    7       -7.000567   1.000000
    8       -6.209127   1.000000
    9       -6.080543   1.000000
   10       -5.274940   1.000000
   11       -4.814972   1.000000
   12       -3.934571   1.000000
   13       -3.840465   1.000000
   14       -3.216071   1.000000
   15       -3.066423   1.000000
   16       -2.739106   1.000000
   17       -2.237837   1.000000
   18       -1.863306   1.000000
   19       -1.717017   1.000000
   20       -1.306172   1.000000
   21       -1.182593   1.000000
   22       -0.532642   1.000000
   23       -0.094904   1.000000
   24        0.027778   1.000000
   25        0.348959   1.000000
   26        0.473249   1.000000
   27        0.817313   1.000000
   28        0.938437   1.000000
   29        1.045917   1.000000
   30        1.293540   1.000000
   31        1.388481   1.000000
   32        1.920587   1.000000
   33        2.020847   1.000000
   34        2.234788   1.000000
   35        2.392911   1.000000
   36        2.585108   1.000000
   37        2.713650   1.000000
   38        2.863286   1.000000
   39        2.962217   1.000000
   40        3.211783   1.000000
   41        3.393398   1.000000
   42        3.863481   1.000000
   43        4.153952   1.000000
   44        4.198970   1.000000
   45        4.417621   1.000000
   46        4.799196   1.000000
   47        5.072086   1.000000
   48        5.215859   1.000000
   49        6.372216   1.000000
   50        6.948860   0.000000
   51        7.845939   0.000000
   52        8.122677   0.000000
   53        8.483749   0.000000
   54        9.109348   0.000000
   55        9.216887   0.000000
   56        9.695386   0.000000
   57       10.146012   0.000000
   58       10.232810   0.000000
   59       10.506244   0.000000
   60       10.776685   0.000000
   61       11.149986   0.000000
   62       11.958434   0.000000
   63       12.378827   0.000000
   64       12.751099   0.000000
   65       13.082688   0.000000
   66       13.192344   0.000000
   67       13.275424   0.000000
   68       13.556307   0.000000
   69       13.700337   0.000000
   70       13.883719   0.000000
   71       14.087082   0.000000
   72       14.367977   0.000000
 
  0.1666667E+00 -0.4166667E+00  0.4000000E+00  0.2777778E-02
    1      -11.239417   1.000000
    2      -10.702761   1.000000
    3      -10.113025   1.000000
    4       -9.192352   1.000000
    5       -8.634987   1.000000
    6       -7.858660   1.000000
    7       -7.089290   1.000000
    8       -6.190694   1.000000
    9       -6.069231   1.000000
   10       -5.213942   1.000000
   11       -4.888825   1.000000
   12       -3.919959   1.000000
   13       -3.823218   1.000000
   14       -3.069867   1.000000
   15       -3.037330   1.000000
   16       -2.584108   1.000000
   17       -2.268796   1.000000
   18       -2.033875   1.000000
   19       -1.820521   1.000000
   20       -1.474033   1.000000
   21       -1.092717   1.000000
   22       -0.439521   1.000000
   23       -0.157392   1.000000
   24       -0.029852   1.000000
   25        0.177392   1.000000
   26        0.446584   1.000000
   27        0.733618   1.000000
   28        0.996805   1.000000
   29        1.190594   1.000000
   30        1.297137   1.000000
   31        1.569513   1.000000
   32        1.929136   1.000000
   33        2.084024   1.000000
   34        2.261120   1.000000
   35        2.369010   1.000000
   36        2.520737   1.000000
   37        2.729350   1.000000
   38        2.871435   1.000000
   39        2.974333   1.000000
   40        3.234130   1.000000
   41        3.455737   1.000000
   42        3.893923   1.000000
   43        4.020662   1.000000
   44        4.255573   1.000000
   45        4.494173   1.000000
   46        4.758080   1.000000
   47        4.922646   1.000000
   48        5.140115   1.000000
   49        6.381641   1.000000
   50        7.042397   0.000000
   51        7.946644   0.000000
   52        8.127840   0.000000
   53        8.486001   0.000000
   54        9.099826   0.000000
   55        9.227156   0.000000
   56        9.617678   0.000000
   57       10.175545   0.000000
   58       10.304241   0.000000
   59       10.449643   0.000000
   60       10.718317   0.000000
   61       11.210267   0.000000
   62       11.897143   0.000000
   63       12.396713   0.000000
   64       12.746072   0.000000
   65       12.982365   0.000000
   66       13.110073   0.000000
   67       13.295093   0.000000
   68       13.513706   0.000000
   69       13.625137   0.000000
   70       13.846562   0.000000
   71       14.100071   0.000000
   72       14.232326   0.000000
 
  0.3333333E+00 -0.4166667E+00  0.4000000E+00  0.2777778E-02
    1      -11.241080   1.000000
    2      -10.717948   1.000000
    3      -10.067755   1.000000
    4       -9.271907   1.000000
    5       -8.497580   1.000000
    6       -7.934172   1.000000
    7       -7.136448   1.000000
    8       -6.260261   1.000000
    9       -6.044475   1.000000
   10       -5.154038   1.000000
   11       -4.860873   1.000000
   12       -4.124071   1.000000
   13       -3.685246   1.000000
   14       -2.958914   1.000000
   15       -2.863100   1.000000
   16       -2.404965   1.000000
   17       -2.287028   1.000000
   18       -2.059211   1.000000
   19       -1.874542   1.000000
   20       -1.553167   1.000000
   21       -1.056764   1.000000
   22       -0.780949   1.000000
   23       -0.453597   1.000000
   24       -0.161400   1.000000
   25        0.141726   1.000000
   26        0.570643   1.000000
   27        0.779792   1.000000
   28        0.942869   1.000000
   29        1.168312   1.000000
   30        1.531147   1.000000
   31        1.722364   1.000000
   32        1.825145   1.000000
   33        2.140329   1.000000
   34        2.200052   1.000000
   35        2.415297   1.000000
   36        2.494090   1.000000
   37        2.806195   1.000000
   38        2.921909   1.000000
   39        3.175809   1.000000
   40        3.377297   1.000000
   41        3.622297   1.000000
   42        3.759214   1.000000
   43        4.101284   1.000000
   44        4.230904   1.000000
   45        4.445811   1.000000
   46        4.604039   1.000000
   47        4.748170   1.000000
   48        5.060711   1.000000
   49        6.457302   1.000000
   50        7.026495   0.000000
   51        7.773726   0.000000
   52        8.191075   0.000000
   53        8.682396   0.000000
   54        9.164891   0.000000
   55        9.365781   0.000000
   56        9.545968   0.000000
   57       10.101893   0.000000
   58       10.237595   0.000000
   59       10.498423   0.000000
   60       10.666789   0.000000
   61       11.235467   0.000000
   62       11.545609   0.000000
   63       12.212498   0.000000
   64       12.738235   0.000000
   65       12.897535   0.000000
   66       13.072850   0.000000
   67       13.404946   0.000000
   68       13.564848   0.000000
   69       13.746767   0.000000
   70       13.811644   0.000000
   71       14.263330   0.000000
   72       14.395665   0.000000
 
  0.5000000E+00 -0.4166667E+00  0.4000000E+00  0.2777778E-02
    1      -11.242585   1.000000
    2      -10.721663   1.000000
    3      -10.043394   1.000000
    4       -9.325187   1.000000
    5       -8.383052   1.000000
    6       -8.029108   1.000000
    7       -7.097182   1.000000
    8       -6.329835   1.000000
    9       -6.054514   1.000000
   10       -5.131377   1.000000
   11       -4.706321   1.000000
   12       -4.372791   1.000000
   13       -3.611499   1.000000
   14       -2.961624   1.000000
   15       -2.736468   1.000000
   16       -2.466704   1.000000
   17       -2.204339   1.000000
   18       -2.049776   1.000000
   19       -1.602261   1.000000
   20       -1.503367   1.000000
   21       -1.182879   1.000000
   22       -0.955657   1.000000
   23       -0.773776   1.000000
   24       -0.196118   1.000000
   25        0.194478   1.000000
   26        0.540453   1.000000
   27        0.762491   1.000000
   28        0.956654   1.000000
   29        1.225817   1.000000
   30        1.467573   1.000000
   31        1.644825   1.000000
   32        1.873160   1.000000
   33        2.098824   1.000000
   34        2.325850   1.000000
   35        2.496610   1.000000
   36        2.596308   1.000000
   37        2.796928   1.000000
   38        3.035832   1.000000
   39        3.212149   1.000000
   40        3.363366   1.000000
   41        3.679856   1.000000
   42        3.923607   1.000000
   43        3.994221   1.000000
   44        4.166046   1.000000
   45        4.356780   1.000000
   46        4.593352   1.000000
   47        4.736504   1.000000
   48        5.025289   1.000000
   49        6.534769   1.000000
   50        6.901848   0.000000
   51        7.646040   0.000000
   52        8.116404   0.000000
   53        8.862205   0.000000
   54        9.286725   0.000000
   55        9.393155   0.000000
   56        9.722547   0.000000
   57        9.935422   0.000000
   58       10.184773   0.000000
   59       10.375884   0.000000
   60       10.814303   0.000000
   61       11.094217   0.000000
   62       11.337729   0.000000
   63       12.128723   0.000000
   64       12.679696   0.000000
   65       12.918118   0.000000
   66       13.085397   0.000000
   67       13.339692   0.000000
   68       13.618493   0.000000
   69       13.950022   0.000000
   70       14.039176   0.000000
   71       14.408179   0.000000
   72       14.642603   0.000000
 
 -0.3333333E+00 -0.4166667E+00  0.4000000E+00  0.2777778E-02
    1      -11.242418   1.000000
    2      -10.711065   1.000000
    3      -10.066802   1.000000
    4       -9.309285   1.000000
    5       -8.431301   1.000000
    6       -8.009789   1.000000
    7       -7.001343   1.000000
    8       -6.347831   1.000000
    9       -6.078488   1.000000
   10       -5.178412   1.000000
   11       -4.638452   1.000000
   12       -4.369901   1.000000
   13       -3.669385   1.000000
   14       -3.109548   1.000000
   15       -2.855750   1.000000
   16       -2.428653   1.000000
   17       -2.163635   1.000000
   18       -1.927125   1.000000
   19       -1.770424   1.000000
   20       -1.343264   1.000000
   21       -1.078072   1.000000
   22       -0.969661   1.000000
   23       -0.600853   1.000000
   24       -0.069369   1.000000
   25        0.263017   1.000000
   26        0.398252   1.000000
   27        0.648701   1.000000
   28        1.009145   1.000000
   29        1.076098   1.000000
   30        1.429356   1.000000
   31        1.538194   1.000000
   32        1.891270   1.000000
   33        2.068727   1.000000
   34        2.378604   1.000000
   35        2.561699   1.000000
   36        2.634381   1.000000
   37        2.914555   1.000000
   38        3.053030   1.000000
   39        3.176231   1.000000
   40        3.334148   1.000000
   41        3.543266   1.000000
   42        3.674780   1.000000
   43        4.014111   1.000000
   44        4.097014   1.000000
   45        4.388958   1.000000
   46        4.749253   1.000000
   47        4.926230   1.000000
   48        5.081133   1.000000
   49        6.557834   1.000000
   50        6.781883   0.000000
   51        7.595270   0.000000
   52        8.070266   0.000000
   53        8.866125   0.000000
   54        9.179260   0.000000
   55        9.429318   0.000000
   56        9.853190   0.000000
   57        9.896456   0.000000
   58       10.211135   0.000000
   59       10.419312   0.000000
   60       10.665133   0.000000
   61       11.223866   0.000000
   62       11.410857   0.000000
   63       12.036307   0.000000
   64       12.649597   0.000000
   65       12.989704   0.000000
   66       13.144708   0.000000
   67       13.319525   0.000000
   68       13.682653   0.000000
   69       13.977606   0.000000
   70       14.227480   0.000000
   71       14.409622   0.000000
   72       14.445841   0.000000
 
 -0.1666667E+00 -0.4166667E+00  0.4000000E+00  0.2777778E-02
    1      -11.240753   1.000000
    2      -10.695389   1.000000
    3      -10.113580   1.000000
    4       -9.237028   1.000000
    5       -8.576337   1.000000
    6       -7.917701   1.000000
    7       -6.950939   1.000000
    8       -6.296187   1.000000
    9       -6.080746   1.000000
   10       -5.265999   1.000000
   11       -4.718125   1.000000
   12       -4.117562   1.000000
   13       -3.776170   1.000000
   14       -3.215781   1.000000
   15       -3.033531   1.000000
   16       -2.621330   1.000000
   17       -2.176706   1.000000
   18       -1.752765   1.000000
   19       -1.630304   1.000000
   20       -1.543868   1.000000
   21       -1.149220   1.000000
   22       -0.558387   1.000000
   23       -0.248743   1.000000
   24       -0.079169   1.000000
   25        0.251206   1.000000
   26        0.466292   1.000000
   27        0.781253   1.000000
   28        0.900432   1.000000
   29        1.065453   1.000000
   30        1.292844   1.000000
   31        1.422959   1.000000
   32        1.899365   1.000000
   33        2.058437   1.000000
   34        2.277404   1.000000
   35        2.544908   1.000000
   36        2.600593   1.000000
   37        2.822743   1.000000
   38        2.892434   1.000000
   39        3.123575   1.000000
   40        3.296307   1.000000
   41        3.378471   1.000000
   42        3.871891   1.000000
   43        3.943466   1.000000
   44        4.124093   1.000000
   45        4.451680   1.000000
   46        4.779146   1.000000
   47        5.074471   1.000000
   48        5.201749   1.000000
   49        6.461660   1.000000
   50        6.822617   0.000000
   51        7.657561   0.000000
   52        8.095938   0.000000
   53        8.690434   0.000000
   54        9.111952   0.000000
   55        9.312679   0.000000
   56        9.790563   0.000000
   57       10.042602   0.000000
   58       10.202890   0.000000
   59       10.521531   0.000000
   60       10.697380   0.000000
   61       11.166751   0.000000
   62       11.829967   0.000000
   63       12.050365   0.000000
   64       12.663616   0.000000
   65       13.098697   0.000000
   66       13.192688   0.000000
   67       13.298315   0.000000
   68       13.712824   0.000000
   69       13.838842   0.000000
   70       14.107140   0.000000
   71       14.301397   0.000000
   72       14.392194   0.000000
 
  0.0000000E+00 -0.3333333E+00  0.4000000E+00  0.2777778E-02
    1      -11.217389   1.000000
    2      -10.704795   1.000000
    3      -10.208400   1.000000
    4       -9.209503   1.000000
    5       -8.547578   1.000000
    6       -8.084457   1.000000
    7       -6.908046   1.000000
    8       -6.161207   1.000000
    9       -5.975162   1.000000
   10       -5.490103   1.000000
   11       -4.633647   1.000000
   12       -4.012017   1.000000
   13       -3.610687   1.000000
   14       -2.959537   1.000000
   15       -2.762607   1.000000
   16       -2.507863   1.000000
   17       -2.170265   1.000000
   18       -1.851195   1.000000
   19       -1.713970   1.000000
   20       -1.561363   1.000000
   21       -1.137490   1.000000
   22       -0.685952   1.000000
   23       -0.423595   1.000000
   24       -0.236048   1.000000
   25        0.409983   1.000000
   26        0.530105   1.000000
   27        0.674602   1.000000
   28        0.867357   1.000000
   29        0.988626   1.000000
   30        1.276958   1.000000
   31        1.372995   1.000000
   32        1.817895   1.000000
   33        1.948242   1.000000
   34        2.325665   1.000000
   35        2.374799   1.000000
   36        2.559426   1.000000
   37        2.617085   1.000000
   38        2.742894   1.000000
   39        2.929756   1.000000
   40        3.216410   1.000000
   41        3.664402   1.000000
   42        3.707117   1.000000
   43        3.903906   1.000000
   44        4.172084   1.000000
   45        4.412206   1.000000
   46        4.633057   1.000000
   47        4.970535   1.000000
   48        5.140052   1.000000
   49        6.472495   1.000000
   50        6.835445   0.000000
   51        7.900604   0.000000
   52        8.091284   0.000000
   53        8.468913   0.000000
   54        9.291856   0.000000
   55        9.400244   0.000000
   56        9.655895   0.000000
   57        9.990265   0.000000
   58       10.296372   0.000000
   59       10.700541   0.000000
   60       10.812666   0.000000
   61       11.330450   0.000000
   62       12.020321   0.000000
   63       12.462200   0.000000
   64       12.853346   0.000000
   65       13.091571   0.000000
   66       13.262474   0.000000
   67       13.469513   0.000000
   68       13.640603   0.000000
   69       13.833294   0.000000
   70       13.957135   0.000000
   71       14.304324   0.000000
   72       14.467448   0.000000
 
  0.1666667E+00 -0.3333333E+00  0.4000000E+00  0.2777778E-02
    1      -11.214194   1.000000
    2      -10.722923   1.000000
    3      -10.193281   1.000000
    4       -9.162547   1.000000
    5       -8.622243   1.000000
    6       -8.039439   1.000000
    7       -7.010859   1.000000
    8       -6.106884   1.000000
    9       -5.967694   1.000000
   10       -5.388152   1.000000
   11       -4.719065   1.000000
   12       -3.956593   1.000000
   13       -3.631191   1.000000
   14       -2.977886   1.000000
   15       -2.819973   1.000000
   16       -2.400133   1.000000
   17       -2.205568   1.000000
   18       -1.985086   1.000000
   19       -1.725572   1.000000
   20       -1.476987   1.000000
   21       -1.080936   1.000000
   22       -0.599338   1.000000
   23       -0.424237   1.000000
   24       -0.098975   1.000000
   25        0.134082   1.000000
   26        0.433459   1.000000
   27        0.613246   1.000000
   28        0.794411   1.000000
   29        1.066327   1.000000
   30        1.332507   1.000000
   31        1.523996   1.000000
   32        1.831480   1.000000
   33        1.926970   1.000000
   34        2.217729   1.000000
   35        2.374875   1.000000
   36        2.535128   1.000000
   37        2.652201   1.000000
   38        2.800676   1.000000
   39        2.953221   1.000000
   40        3.187260   1.000000
   41        3.616141   1.000000
   42        3.778183   1.000000
   43        3.932784   1.000000
   44        4.253066   1.000000
   45        4.530568   1.000000
   46        4.626307   1.000000
   47        4.834180   1.000000
   48        4.983161   1.000000
   49        6.448030   1.000000
   50        6.959016   0.000000
   51        7.801879   0.000000
   52        8.271168   0.000000
   53        8.592484   0.000000
   54        9.263987   0.000000
   55        9.337967   0.000000
   56        9.561574   0.000000
   57       10.124877   0.000000
   58       10.296955   0.000000
   59       10.600524   0.000000
   60       10.712732   0.000000
   61       11.420103   0.000000
   62       11.981619   0.000000
   63       12.541024   0.000000
   64       12.827370   0.000000
   65       13.014444   0.000000
   66       13.181507   0.000000
   67       13.518311   0.000000
   68       13.604396   0.000000
   69       13.655515   0.000000
   70       13.945685   0.000000
   71       14.284222   0.000000
   72       14.427318   0.000000
 
  0.3333333E+00 -0.3333333E+00  0.4000000E+00  0.2777778E-02
    1      -11.215962   1.000000
    2      -10.732701   1.000000
    3      -10.170701   1.000000
    4       -9.177851   1.000000
    5       -8.592928   1.000000
    6       -8.048912   1.000000
    7       -7.086394   1.000000
    8       -6.092342   1.000000
    9       -5.955974   1.000000
   10       -5.276680   1.000000
   11       -4.756146   1.000000
   12       -4.145977   1.000000
   13       -3.547402   1.000000
   14       -2.990982   1.000000
   15       -2.714910   1.000000
   16       -2.349551   1.000000
   17       -2.139359   1.000000
   18       -2.043968   1.000000
   19       -1.744362   1.000000
   20       -1.348174   1.000000
   21       -0.920601   1.000000
   22       -0.596662   1.000000
   23       -0.509990   1.000000
   24       -0.207214   1.000000
   25       -0.098132   1.000000
   26        0.349619   1.000000
   27        0.511806   1.000000
   28        0.781311   1.000000
   29        1.086107   1.000000
   30        1.342794   1.000000
   31        1.627175   1.000000
   32        1.648213   1.000000
   33        1.846855   1.000000
   34        2.190424   1.000000
   35        2.346827   1.000000
   36        2.539803   1.000000
   37        2.709420   1.000000
   38        2.899250   1.000000
   39        3.207318   1.000000
   40        3.393969   1.000000
   41        3.704525   1.000000
   42        3.837109   1.000000
   43        3.998482   1.000000
   44        4.200758   1.000000
   45        4.426709   1.000000
   46        4.593819   1.000000
   47        4.739285   1.000000
   48        4.882528   1.000000
   49        6.484058   1.000000
   50        7.044435   0.000000
   51        7.666136   0.000000
   52        8.322665   0.000000
   53        8.825047   0.000000
   54        9.171385   0.000000
   55        9.428767   0.000000
   56        9.519886   0.000000
   57       10.156850   0.000000
   58       10.375195   0.000000
   59       10.437921   0.000000
   60       10.679316   0.000000
   61       11.390402   0.000000
   62       11.703363   0.000000
   63       12.357603   0.000000
   64       12.637953   0.000000
   65       12.988054   0.000000
   66       13.209265   0.000000
   67       13.532153   0.000000
   68       13.659170   0.000000
   69       13.820480   0.000000
   70       13.896135   0.000000
   71       14.294596   0.000000
   72       14.422925   0.000000
 
  0.5000000E+00 -0.3333333E+00  0.4000000E+00  0.2777778E-02
    1      -11.220902   1.000000
    2      -10.725421   1.000000
    3      -10.161689   1.000000
    4       -9.235060   1.000000
    5       -8.487991   1.000000
    6       -8.109693   1.000000
    7       -7.070415   1.000000
    8       -6.165881   1.000000
    9       -5.916118   1.000000
   10       -5.222802   1.000000
   11       -4.727824   1.000000
   12       -4.368833   1.000000
   13       -3.461902   1.000000
   14       -2.916154   1.000000
   15       -2.693669   1.000000
   16       -2.313407   1.000000
   17       -2.241672   1.000000
   18       -1.909033   1.000000
   19       -1.534524   1.000000
   20       -1.193490   1.000000
   21       -1.012484   1.000000
   22       -0.807655   1.000000
   23       -0.601023   1.000000
   24       -0.433943   1.000000
   25       -0.073267   1.000000
   26        0.459216   1.000000
   27        0.553973   1.000000
   28        0.731842   1.000000
   29        0.961514   1.000000
   30        1.249561   1.000000
   31        1.542079   1.000000
   32        1.719730   1.000000
   33        1.809861   1.000000
   34        2.230168   1.000000
   35        2.460768   1.000000
   36        2.555881   1.000000
   37        2.661742   1.000000
   38        2.987531   1.000000
   39        3.203818   1.000000
   40        3.564854   1.000000
   41        3.803807   1.000000
   42        3.901959   1.000000
   43        4.089365   1.000000
   44        4.111796   1.000000
   45        4.294224   1.000000
   46        4.582599   1.000000
   47        4.716165   1.000000
   48        4.889094   1.000000
   49        6.527002   1.000000
   50        7.025915   0.000000
   51        7.590978   0.000000
   52        8.222891   0.000000
   53        8.924140   0.000000
   54        9.202182   0.000000
   55        9.394986   0.000000
   56        9.696511   0.000000
   57       10.038896   0.000000
   58       10.310190   0.000000
   59       10.483072   0.000000
   60       10.864886   0.000000
   61       11.226081   0.000000
   62       11.391633   0.000000
   63       12.278116   0.000000
   64       12.543384   0.000000
   65       13.020339   0.000000
   66       13.187814   0.000000
   67       13.450958   0.000000
   68       13.766817   0.000000
   69       13.954607   0.000000
   70       14.009950   0.000000
   71       14.272774   0.000000
   72       14.593371   0.000000
 
 -0.3333333E+00 -0.3333333E+00  0.4000000E+00  0.2777778E-02
    1      -11.223940   1.000000
    2      -10.708395   1.000000
    3      -10.175618   1.000000
    4       -9.272802   1.000000
    5       -8.389670   1.000000
    6       -8.188683   1.000000
    7       -6.970411   1.000000
    8       -6.225466   1.000000
    9       -5.927060   1.000000
   10       -5.323702   1.000000
   11       -4.587021   1.000000
   12       -4.443736   1.000000
   13       -3.476324   1.000000
   14       -2.895434   1.000000
   15       -2.647090   1.000000
   16       -2.360570   1.000000
   17       -2.173183   1.000000
   18       -1.847419   1.000000
   19       -1.638771   1.000000
   20       -1.211202   1.000000
   21       -1.076085   1.000000
   22       -0.919944   1.000000
   23       -0.651271   1.000000
   24       -0.189697   1.000000
   25        0.102525   1.000000
   26        0.443073   1.000000
   27        0.488542   1.000000
   28        0.621463   1.000000
   29        0.972631   1.000000
   30        1.293373   1.000000
   31        1.431262   1.000000
   32        1.705420   1.000000
   33        1.877908   1.000000
   34        2.239863   1.000000
   35        2.506866   1.000000
   36        2.607034   1.000000
   37        2.838848   1.000000
   38        3.013405   1.000000
   39        3.108812   1.000000
   40        3.347598   1.000000
   41        3.735580   1.000000
   42        3.767285   1.000000
   43        4.031724   1.000000
   44        4.164276   1.000000
   45        4.329284   1.000000
   46        4.585807   1.000000
   47        4.802014   1.000000
   48        5.065086   1.000000
   49        6.548485   1.000000
   50        6.898295   0.000000
   51        7.623483   0.000000
   52        8.129206   0.000000
   53        8.762321   0.000000
   54        9.243549   0.000000
   55        9.434203   0.000000
   56        9.736758   0.000000
   57       10.050040   0.000000
   58       10.271688   0.000000
   59       10.601055   0.000000
   60       10.904480   0.000000
   61       11.204722   0.000000
   62       11.430531   0.000000
   63       12.166541   0.000000
   64       12.591661   0.000000
   65       13.015245   0.000000
   66       13.257226   0.000000
   67       13.408748   0.000000
   68       13.809872   0.000000
   69       14.017386   0.000000
   70       14.226327   0.000000
   71       14.338932   0.000000
   72       14.561071   0.000000
 
 -0.1666667E+00 -0.3333333E+00  0.4000000E+00  0.2777778E-02
    1      -11.222194   1.000000
    2      -10.697545   1.000000
    3      -10.199781   1.000000
    4       -9.261407   1.000000
    5       -8.429689   1.000000
    6       -8.164406   1.000000
    7       -6.880966   1.000000
    8       -6.222292   1.000000
    9       -5.958555   1.000000
   10       -5.474222   1.000000
   11       -4.555555   1.000000
   12       -4.250255   1.000000
   13       -3.547993   1.000000
   14       -2.948331   1.000000
   15       -2.627404   1.000000
   16       -2.367747   1.000000
   17       -2.239201   1.000000
   18       -1.851289   1.000000
   19       -1.747064   1.000000
   20       -1.437137   1.000000
   21       -1.055667   1.000000
   22       -0.849956   1.000000
   23       -0.502742   1.000000
   24       -0.118216   1.000000
   25        0.260383   1.000000
   26        0.466660   1.000000
   27        0.619421   1.000000
   28        0.715956   1.000000
   29        0.980963   1.000000
   30        1.237040   1.000000
   31        1.402839   1.000000
   32        1.723004   1.000000
   33        1.906160   1.000000
   34        2.310714   1.000000
   35        2.448100   1.000000
   36        2.562014   1.000000
   37        2.804911   1.000000
   38        2.888439   1.000000
   39        3.096365   1.000000
   40        3.285272   1.000000
   41        3.603073   1.000000
   42        3.753077   1.000000
   43        3.889346   1.000000
   44        4.063781   1.000000
   45        4.412297   1.000000
   46        4.596039   1.000000
   47        4.946751   1.000000
   48        5.196548   1.000000
   49        6.539056   1.000000
   50        6.785283   0.000000
   51        7.753121   0.000000
   52        8.095167   0.000000
   53        8.540462   0.000000
   54        9.269242   0.000000
   55        9.446912   0.000000
   56        9.742479   0.000000
   57        9.956989   0.000000
   58       10.315526   0.000000
   59       10.715963   0.000000
   60       10.849964   0.000000
   61       11.207172   0.000000
   62       11.858199   0.000000
   63       12.157367   0.000000
   64       12.704684   0.000000
   65       13.076929   0.000000
   66       13.325256   0.000000
   67       13.425405   0.000000
   68       13.759337   0.000000
   69       13.903348   0.000000
   70       14.263651   0.000000
   71       14.354219   0.000000
   72       14.558031   0.000000
 
  0.0000000E+00 -0.2500000E+00  0.4000000E+00  0.2777778E-02
    1      -11.223718   1.000000
    2      -10.715086   1.000000
    3      -10.313688   1.000000
    4       -9.180870   1.000000
    5       -8.411495   1.000000
    6       -8.275144   1.000000
    7       -6.818681   1.000000
    8       -6.114708   1.000000
    9       -5.902837   1.000000
   10       -5.561062   1.000000
   11       -4.391684   1.000000
   12       -4.072686   1.000000
   13       -3.401194   1.000000
   14       -2.812869   1.000000
   15       -2.633844   1.000000
   16       -2.385394   1.000000
   17       -1.998037   1.000000
   18       -1.834132   1.000000
   19       -1.694390   1.000000
   20       -1.539195   1.000000
   21       -1.108085   1.000000
   22       -0.920476   1.000000
   23       -0.523579   1.000000
   24       -0.390252   1.000000
   25        0.229157   1.000000
   26        0.371186   1.000000
   27        0.583629   1.000000
   28        0.869227   1.000000
   29        0.952605   1.000000
   30        1.239208   1.000000
   31        1.327316   1.000000
   32        1.688212   1.000000
   33        1.775470   1.000000
   34        2.195214   1.000000
   35        2.318825   1.000000
   36        2.424489   1.000000
   37        2.622003   1.000000
   38        2.645286   1.000000
   39        2.992105   1.000000
   40        3.133657   1.000000
   41        3.335678   1.000000
   42        3.623788   1.000000
   43        3.924547   1.000000
   44        4.254033   1.000000
   45        4.374876   1.000000
   46        4.726569   1.000000
   47        4.743198   1.000000
   48        5.265712   1.000000
   49        6.564603   1.000000
   50        6.808000   0.000000
   51        7.753726   0.000000
   52        8.082027   0.000000
   53        8.515564   0.000000
   54        9.259889   0.000000
   55        9.489312   0.000000
   56        9.769734   0.000000
   57       10.098692   0.000000
   58       10.409928   0.000000
   59       10.865276   0.000000
   60       11.097480   0.000000
   61       11.608026   0.000000
   62       12.084772   0.000000
   63       12.521487   0.000000
   64       12.924659   0.000000
   65       13.077262   0.000000
   66       13.395993   0.000000
   67       13.701409   0.000000
   68       13.808786   0.000000
   69       13.948390   0.000000
   70       14.056914   0.000000
   71       14.362472   0.000000
   72       14.533026   0.000000
 
  0.1666667E+00 -0.2500000E+00  0.4000000E+00  0.2777778E-02
    1      -11.218204   1.000000
    2      -10.736393   1.000000
    3      -10.304110   1.000000
    4       -9.117071   1.000000
    5       -8.509353   1.000000
    6       -8.236676   1.000000
    7       -6.906153   1.000000
    8       -6.100338   1.000000
    9       -5.831087   1.000000
   10       -5.482119   1.000000
   11       -4.504388   1.000000
   12       -3.977897   1.000000
   13       -3.421453   1.000000
   14       -2.833390   1.000000
   15       -2.601358   1.000000
   16       -2.445198   1.000000
   17       -2.135514   1.000000
   18       -1.853816   1.000000
   19       -1.622644   1.000000
   20       -1.471887   1.000000
   21       -1.063623   1.000000
   22       -0.822097   1.000000
   23       -0.642906   1.000000
   24       -0.366676   1.000000
   25        0.223887   1.000000
   26        0.372852   1.000000
   27        0.574489   1.000000
   28        0.845876   1.000000
   29        0.939340   1.000000
   30        1.190988   1.000000
   31        1.353625   1.000000
   32        1.631532   1.000000
   33        1.730941   1.000000
   34        2.264300   1.000000
   35        2.287464   1.000000
   36        2.439098   1.000000
   37        2.627690   1.000000
   38        2.853424   1.000000
   39        2.962930   1.000000
   40        3.034818   1.000000
   41        3.410928   1.000000
   42        3.759340   1.000000
   43        3.972719   1.000000
   44        4.193258   1.000000
   45        4.399173   1.000000
   46        4.586239   1.000000
   47        4.681846   1.000000
   48        5.180147   1.000000
   49        6.514864   1.000000
   50        6.866140   0.000000
   51        7.670432   0.000000
   52        8.237116   0.000000
   53        8.685397   0.000000
   54        9.349007   0.000000
   55        9.546656   0.000000
   56        9.674938   0.000000
   57        9.970703   0.000000
   58       10.411175   0.000000
   59       10.767999   0.000000
   60       11.006751   0.000000
   61       11.671392   0.000000
   62       12.006895   0.000000
   63       12.619111   0.000000
   64       12.948264   0.000000
   65       13.128250   0.000000
   66       13.248690   0.000000
   67       13.643401   0.000000
   68       13.876095   0.000000
   69       13.925091   0.000000
   70       14.094762   0.000000
   71       14.489492   0.000000
   72       14.556512   0.000000
 
  0.3333333E+00 -0.2500000E+00  0.4000000E+00  0.2777778E-02
    1      -11.217336   1.000000
    2      -10.747724   1.000000
    3      -10.293210   1.000000
    4       -9.071145   1.000000
    5       -8.592999   1.000000
    6       -8.193098   1.000000
    7       -6.989605   1.000000
    8       -6.037796   1.000000
    9       -5.789923   1.000000
   10       -5.364761   1.000000
   11       -4.660433   1.000000
   12       -4.093026   1.000000
   13       -3.384084   1.000000
   14       -2.886503   1.000000
   15       -2.640033   1.000000
   16       -2.317270   1.000000
   17       -2.121103   1.000000
   18       -1.860052   1.000000
   19       -1.582127   1.000000
   20       -1.326985   1.000000
   21       -0.921053   1.000000
   22       -0.724867   1.000000
   23       -0.499010   1.000000
   24       -0.426984   1.000000
   25        0.002306   1.000000
   26        0.205480   1.000000
   27        0.489383   1.000000
   28        0.791777   1.000000
   29        0.966118   1.000000
   30        1.051884   1.000000
   31        1.324215   1.000000
   32        1.487936   1.000000
   33        1.682500   1.000000
   34        2.178744   1.000000
   35        2.263514   1.000000
   36        2.376793   1.000000
   37        2.692244   1.000000
   38        2.879914   1.000000
   39        3.080608   1.000000
   40        3.333262   1.000000
   41        3.636139   1.000000
   42        3.860696   1.000000
   43        3.988030   1.000000
   44        4.153715   1.000000
   45        4.297316   1.000000
   46        4.507115   1.000000
   47        4.715331   1.000000
   48        5.105014   1.000000
   49        6.524746   1.000000
   50        6.980199   0.000000
   51        7.609908   0.000000
   52        8.281706   0.000000
   53        8.862921   0.000000
   54        9.317503   0.000000
   55        9.407574   0.000000
   56        9.651774   0.000000
   57       10.166639   0.000000
   58       10.454228   0.000000
   59       10.651987   0.000000
   60       10.904502   0.000000
   61       11.583415   0.000000
   62       11.792786   0.000000
   63       12.523103   0.000000
   64       12.647830   0.000000
   65       13.115614   0.000000
   66       13.390208   0.000000
   67       13.671171   0.000000
   68       13.819505   0.000000
   69       13.897148   0.000000
   70       14.080372   0.000000
   71       14.498969   0.000000
   72       14.544887   0.000000
 
  0.5000000E+00 -0.2500000E+00  0.4000000E+00  0.2777778E-02
    1      -11.222164   1.000000
    2      -10.738395   1.000000
    3      -10.291336   1.000000
    4       -9.101996   1.000000
    5       -8.585756   1.000000
    6       -8.166979   1.000000
    7       -6.997577   1.000000
    8       -6.027824   1.000000
    9       -5.764373   1.000000
   10       -5.274686   1.000000
   11       -4.835001   1.000000
   12       -4.197678   1.000000
   13       -3.325560   1.000000
   14       -2.878707   1.000000
   15       -2.707949   1.000000
   16       -2.291052   1.000000
   17       -2.086227   1.000000
   18       -1.706411   1.000000
   19       -1.474979   1.000000
   20       -1.137204   1.000000
   21       -0.869259   1.000000
   22       -0.690876   1.000000
   23       -0.578353   1.000000
   24       -0.438636   1.000000
   25       -0.168779   1.000000
   26        0.232574   1.000000
   27        0.479805   1.000000
   28        0.557974   1.000000
   29        0.761734   1.000000
   30        1.084334   1.000000
   31        1.308187   1.000000
   32        1.483834   1.000000
   33        1.682912   1.000000
   34        2.102869   1.000000
   35        2.326316   1.000000
   36        2.414553   1.000000
   37        2.569352   1.000000
   38        2.864067   1.000000
   39        3.056353   1.000000
   40        3.529486   1.000000
   41        3.679952   1.000000
   42        3.875160   1.000000
   43        4.129741   1.000000
   44        4.176813   1.000000
   45        4.271007   1.000000
   46        4.525743   1.000000
   47        4.769080   1.000000
   48        5.099293   1.000000
   49        6.570992   1.000000
   50        7.069536   0.000000
   51        7.609565   0.000000
   52        8.189767   0.000000
   53        8.764053   0.000000
   54        9.148818   0.000000
   55        9.479917   0.000000
   56        9.730067   0.000000
   57       10.219593   0.000000
   58       10.556964   0.000000
   59       10.788495   0.000000
   60       10.912049   0.000000
   61       11.399891   0.000000
   62       11.527756   0.000000
   63       12.415525   0.000000
   64       12.529023   0.000000
   65       13.161089   0.000000
   66       13.358611   0.000000
   67       13.560400   0.000000
   68       13.803081   0.000000
   69       13.849227   0.000000
   70       14.068159   0.000000
   71       14.435877   0.000000
   72       14.687193   0.000000
 
 -0.3333333E+00 -0.2500000E+00  0.4000000E+00  0.2777778E-02
    1      -11.227544   1.000000
    2      -10.717915   1.000000
    3      -10.300052   1.000000
    4       -9.170392   1.000000
    5       -8.513903   1.000000
    6       -8.174300   1.000000
    7       -6.920950   1.000000
    8       -6.094647   1.000000
    9       -5.765594   1.000000
   10       -5.386336   1.000000
   11       -4.737698   1.000000
   12       -4.240148   1.000000
   13       -3.327425   1.000000
   14       -2.817159   1.000000
   15       -2.724134   1.000000
   16       -2.260495   1.000000
   17       -2.080276   1.000000
   18       -1.705778   1.000000
   19       -1.288635   1.000000
   20       -1.164524   1.000000
   21       -1.050866   1.000000
   22       -0.877642   1.000000
   23       -0.542704   1.000000
   24       -0.435567   1.000000
   25        0.006196   1.000000
   26        0.268052   1.000000
   27        0.447415   1.000000
   28        0.510308   1.000000
   29        0.805250   1.000000
   30        1.029287   1.000000
   31        1.251563   1.000000
   32        1.600299   1.000000
   33        1.754541   1.000000
   34        2.083094   1.000000
   35        2.375979   1.000000
   36        2.476865   1.000000
   37        2.556048   1.000000
   38        2.794477   1.000000
   39        2.967932   1.000000
   40        3.332426   1.000000
   41        3.517649   1.000000
   42        3.879879   1.000000
   43        4.155118   1.000000
   44        4.241050   1.000000
   45        4.396163   1.000000
   46        4.537120   1.000000
   47        4.821173   1.000000
   48        5.222198   1.000000
   49        6.596464   1.000000
   50        7.042778   0.000000
   51        7.680167   0.000000
   52        8.055108   0.000000
   53        8.555268   0.000000
   54        9.063006   0.000000
   55        9.545425   0.000000
   56        9.733233   0.000000
   57       10.310451   0.000000
   58       10.510223   0.000000
   59       10.988587   0.000000
   60       11.157248   0.000000
   61       11.240650   0.000000
   62       11.485419   0.000000
   63       12.336860   0.000000
   64       12.546312   0.000000
   65       13.119376   0.000000
   66       13.368002   0.000000
   67       13.545918   0.000000
   68       13.769923   0.000000
   69       13.955388   0.000000
   70       14.176425   0.000000
   71       14.386349   0.000000
   72       14.671724   0.000000
 
 -0.1666667E+00 -0.2500000E+00  0.4000000E+00  0.2777778E-02
    1      -11.228238   1.000000
    2      -10.705915   1.000000
    3      -10.311507   1.000000
    4       -9.205116   1.000000
    5       -8.432639   1.000000
    6       -8.227755   1.000000
    7       -6.824599   1.000000
    8       -6.131321   1.000000
    9       -5.844067   1.000000
   10       -5.546663   1.000000
   11       -4.425021   1.000000
   12       -4.268585   1.000000
   13       -3.369600   1.000000
   14       -2.799193   1.000000
   15       -2.665144   1.000000
   16       -2.268192   1.000000
   17       -2.003232   1.000000
   18       -1.757534   1.000000
   19       -1.656267   1.000000
   20       -1.309244   1.000000
   21       -1.124378   1.000000
   22       -0.883610   1.000000
   23       -0.608119   1.000000
   24       -0.212162   1.000000
   25        0.077601   1.000000
   26        0.322014   1.000000
   27        0.494815   1.000000
   28        0.601602   1.000000
   29        0.929492   1.000000
   30        1.162457   1.000000
   31        1.358320   1.000000
   32        1.626616   1.000000
   33        1.726943   1.000000
   34        2.117605   1.000000
   35        2.325108   1.000000
   36        2.467293   1.000000
   37        2.594236   1.000000
   38        2.817600   1.000000
   39        2.940686   1.000000
   40        3.195972   1.000000
   41        3.361033   1.000000
   42        3.671192   1.000000
   43        4.058814   1.000000
   44        4.277496   1.000000
   45        4.374343   1.000000
   46        4.665377   1.000000
   47        4.819827   1.000000
   48        5.315139   1.000000
   49        6.593157   1.000000
   50        6.900105   0.000000
   51        7.779978   0.000000
   52        7.977402   0.000000
   53        8.461410   0.000000
   54        9.127613   0.000000
   55        9.459705   0.000000
   56        9.808909   0.000000
   57       10.269579   0.000000
   58       10.457350   0.000000
   59       10.957248   0.000000
   60       11.142611   0.000000
   61       11.399982   0.000000
   62       11.886748   0.000000
   63       12.305956   0.000000
   64       12.720512   0.000000
   65       13.083152   0.000000
   66       13.497230   0.000000
   67       13.574350   0.000000
   68       13.771451   0.000000
   69       14.026435   0.000000
   70       14.085515   0.000000
   71       14.366674   0.000000
   72       14.699514   0.000000
 
  0.0000000E+00 -0.1666667E+00  0.4000000E+00  0.2777778E-02
    1      -11.259684   1.000000
    2      -10.715874   1.000000
    3      -10.406803   1.000000
    4       -9.091769   1.000000
    5       -8.591800   1.000000
    6       -8.118017   1.000000
    7       -6.742548   1.000000
    8       -6.058430   1.000000
    9       -5.949515   1.000000
   10       -5.429333   1.000000
   11       -4.209553   1.000000
   12       -3.983426   1.000000
   13       -3.379723   1.000000
   14       -2.962368   1.000000
   15       -2.702666   1.000000
   16       -2.298397   1.000000
   17       -1.954642   1.000000
   18       -1.766652   1.000000
   19       -1.616198   1.000000
   20       -1.250988   1.000000
   21       -1.111033   1.000000
   22       -0.894060   1.000000
   23       -0.492396   1.000000
   24       -0.304198   1.000000
   25       -0.015480   1.000000
   26        0.228133   1.000000
   27        0.490476   1.000000
   28        0.755047   1.000000
   29        0.842946   1.000000
   30        1.105011   1.000000
   31        1.301315   1.000000
   32        1.436946   1.000000
   33        1.834092   1.000000
   34        1.982140   1.000000
   35        2.176253   1.000000
   36        2.267123   1.000000
   37        2.580214   1.000000
   38        2.674054   1.000000
   39        2.739748   1.000000
   40        2.892870   1.000000
   41        3.370889   1.000000
   42        3.477409   1.000000
   43        3.978350   1.000000
   44        4.145451   1.000000
   45        4.388667   1.000000
   46        4.578826   1.000000
   47        4.934656   1.000000
   48        5.597462   1.000000
   49        6.644879   0.997707
   50        6.878799   0.000000
   51        7.619491   0.000000
   52        8.128471   0.000000
   53        8.555051   0.000000
   54        9.029809   0.000000
   55        9.320880   0.000000
   56        9.944067   0.000000
   57       10.467291   0.000000
   58       10.572523   0.000000
   59       11.085961   0.000000
   60       11.517272   0.000000
   61       11.905294   0.000000
   62       12.141699   0.000000
   63       12.567323   0.000000
   64       12.937098   0.000000
   65       13.050561   0.000000
   66       13.488832   0.000000
   67       13.809759   0.000000
   68       13.893940   0.000000
   69       13.988557   0.000000
   70       14.245569   0.000000
   71       14.314148   0.000000
   72       14.548538   0.000000
 
  0.1666667E+00 -0.1666667E+00  0.4000000E+00  0.2777778E-02
    1      -11.255239   1.000000
    2      -10.736081   1.000000
    3      -10.396634   1.000000
    4       -9.051769   1.000000
    5       -8.540945   1.000000
    6       -8.228144   1.000000
    7       -6.791560   1.000000
    8       -6.064081   1.000000
    9       -5.864379   1.000000
   10       -5.391406   1.000000
   11       -4.352003   1.000000
   12       -3.875569   1.000000
   13       -3.317728   1.000000
   14       -2.870385   1.000000
   15       -2.556133   1.000000
   16       -2.405491   1.000000
   17       -2.083020   1.000000
   18       -1.849902   1.000000
   19       -1.755556   1.000000
   20       -1.286326   1.000000
   21       -1.018897   1.000000
   22       -0.895958   1.000000
   23       -0.607694   1.000000
   24       -0.290010   1.000000
   25        0.071863   1.000000
   26        0.237558   1.000000
   27        0.510228   1.000000
   28        0.819413   1.000000
   29        0.948934   1.000000
   30        1.057750   1.000000
   31        1.207758   1.000000
   32        1.380515   1.000000
   33        1.694730   1.000000
   34        2.064781   1.000000
   35        2.207941   1.000000
   36        2.332261   1.000000
   37        2.573113   1.000000
   38        2.765219   1.000000
   39        2.843840   1.000000
   40        3.068750   1.000000
   41        3.336547   1.000000
   42        3.661407   1.000000
   43        3.869406   1.000000
   44        4.082578   1.000000
   45        4.287642   1.000000
   46        4.404887   1.000000
   47        4.953037   1.000000
   48        5.514827   1.000000
   49        6.559642   1.000000
   50        6.826465   0.000000
   51        7.619221   0.000000
   52        8.192142   0.000000
   53        8.696181   0.000000
   54        9.164608   0.000000
   55        9.479383   0.000000
   56        9.854891   0.000000
   57       10.250263   0.000000
   58       10.564207   0.000000
   59       11.082050   0.000000
   60       11.459554   0.000000
   61       11.808612   0.000000
   62       12.030713   0.000000
   63       12.626170   0.000000
   64       13.088879   0.000000
   65       13.221359   0.000000
   66       13.323006   0.000000
   67       13.684679   0.000000
   68       14.064841   0.000000
   69       14.157795   0.000000
   70       14.227381   0.000000
   71       14.464044   0.000000
   72       14.535133   0.000000
 
  0.3333333E+00 -0.1666667E+00  0.4000000E+00  0.2777778E-02
    1      -11.248349   1.000000
    2      -10.760405   1.000000
    3      -10.384516   1.000000
    4       -9.004459   1.000000
    5       -8.516334   1.000000
    6       -8.309457   1.000000
    7       -6.858410   1.000000
    8       -6.025017   1.000000
    9       -5.743511   1.000000
   10       -5.309976   1.000000
   11       -4.617226   1.000000
   12       -3.918648   1.000000
   13       -3.245725   1.000000
   14       -2.789155   1.000000
   15       -2.713289   1.000000
   16       -2.330708   1.000000
   17       -2.050211   1.000000
   18       -1.706379   1.000000
   19       -1.661734   1.000000
   20       -1.343208   1.000000
   21       -1.031880   1.000000
   22       -0.793949   1.000000
   23       -0.538345   1.000000
   24       -0.307426   1.000000
   25       -0.015165   1.000000
   26        0.204944   1.000000
   27        0.483304   1.000000
   28        0.658789   1.000000
   29        0.842668   1.000000
   30        1.015994   1.000000
   31        1.187292   1.000000
   32        1.337234   1.000000
   33        1.612821   1.000000
   34        2.080530   1.000000
   35        2.203903   1.000000
   36        2.269783   1.000000
   37        2.547967   1.000000
   38        2.848609   1.000000
   39        3.045634   1.000000
   40        3.148928   1.000000
   41        3.442095   1.000000
   42        3.624450   1.000000
   43        3.972087   1.000000
   44        4.067577   1.000000
   45        4.202100   1.000000
   46        4.498707   1.000000
   47        4.942991   1.000000
   48        5.422136   1.000000
   49        6.528116   1.000000
   50        6.887726   0.000000
   51        7.631687   0.000000
   52        8.196344   0.000000
   53        8.718095   0.000000
   54        9.120085   0.000000
   55        9.682757   0.000000
   56        9.932500   0.000000
   57       10.115295   0.000000
   58       10.630390   0.000000
   59       10.969898   0.000000
   60       11.293088   0.000000
   61       11.714240   0.000000
   62       11.871633   0.000000
   63       12.643211   0.000000
   64       12.803048   0.000000
   65       13.271374   0.000000
   66       13.494209   0.000000
   67       13.624424   0.000000
   68       13.995447   0.000000
   69       14.127132   0.000000
   70       14.314482   0.000000
   71       14.612443   0.000000
   72       14.692135   0.000000
 
  0.5000000E+00 -0.1666667E+00  0.4000000E+00  0.2777778E-02
    1      -11.246173   1.000000
    2      -10.764769   1.000000
    3      -10.382766   1.000000
    4       -8.988138   1.000000
    5       -8.603740   1.000000
    6       -8.228054   1.000000
    7       -6.881432   1.000000
    8       -5.993583   1.000000
    9       -5.690175   1.000000
   10       -5.165206   1.000000
   11       -4.911734   1.000000
   12       -3.967655   1.000000
   13       -3.235056   1.000000
   14       -2.925206   1.000000
   15       -2.770908   1.000000
   16       -2.235875   1.000000
   17       -1.955280   1.000000
   18       -1.594244   1.000000
   19       -1.430955   1.000000
   20       -1.187662   1.000000
   21       -1.043702   1.000000
   22       -0.664866   1.000000
   23       -0.478811   1.000000
   24       -0.294087   1.000000
   25       -0.165069   1.000000
   26        0.007791   1.000000
   27        0.337966   1.000000
   28        0.554594   1.000000
   29        0.720612   1.000000
   30        1.103701   1.000000
   31        1.125608   1.000000
   32        1.302183   1.000000
   33        1.619320   1.000000
   34        2.037942   1.000000
   35        2.192080   1.000000
   36        2.287857   1.000000
   37        2.457507   1.000000
   38        2.777735   1.000000
   39        3.041649   1.000000
   40        3.131279   1.000000
   41        3.502503   1.000000
   42        3.692585   1.000000
   43        3.780536   1.000000
   44        4.288812   1.000000
   45        4.435047   1.000000
   46        4.586532   1.000000
   47        4.931215   1.000000
   48        5.414301   1.000000
   49        6.581010   1.000000
   50        7.014953   0.000000
   51        7.682516   0.000000
   52        8.081339   0.000000
   53        8.552705   0.000000
   54        9.073214   0.000000
   55        9.534264   0.000000
   56       10.008760   0.000000
   57       10.390610   0.000000
   58       10.756129   0.000000
   59       10.867368   0.000000
   60       11.286246   0.000000
   61       11.584539   0.000000
   62       11.729497   0.000000
   63       12.547044   0.000000
   64       12.654611   0.000000
   65       13.296659   0.000000
   66       13.540626   0.000000
   67       13.600984   0.000000
   68       13.874285   0.000000
   69       14.008162   0.000000
   70       14.182708   0.000000
   71       14.557694   0.000000
   72       14.711801   0.000000
 
 -0.3333333E+00 -0.1666667E+00  0.4000000E+00  0.2777778E-02
    1      -11.251007   1.000000
    2      -10.745666   1.000000
    3      -10.391767   1.000000
    4       -9.030219   1.000000
    5       -8.649573   1.000000
    6       -8.119891   1.000000
    7       -6.840911   1.000000
    8       -6.035733   1.000000
    9       -5.718193   1.000000
   10       -5.254722   1.000000
   11       -4.800525   1.000000
   12       -4.002572   1.000000
   13       -3.319095   1.000000
   14       -2.973888   1.000000
   15       -2.766256   1.000000
   16       -2.202811   1.000000
   17       -1.959863   1.000000
   18       -1.575456   1.000000
   19       -1.246297   1.000000
   20       -1.105614   1.000000
   21       -0.900108   1.000000
   22       -0.646409   1.000000
   23       -0.544884   1.000000
   24       -0.496065   1.000000
   25       -0.028834   1.000000
   26        0.014926   1.000000
   27        0.281075   1.000000
   28        0.423804   1.000000
   29        0.696054   1.000000
   30        0.957825   1.000000
   31        1.270172   1.000000
   32        1.372866   1.000000
   33        1.634562   1.000000
   34        2.038896   1.000000
   35        2.269664   1.000000
   36        2.339730   1.000000
   37        2.394951   1.000000
   38        2.567610   1.000000
   39        2.928885   1.000000
   40        3.170938   1.000000
   41        3.321010   1.000000
   42        3.582572   1.000000
   43        3.938385   1.000000
   44        4.212495   1.000000
   45        4.552398   1.000000
   46        4.723702   1.000000
   47        4.999767   1.000000
   48        5.515494   1.000000
   49        6.650364   1.015865
   50        7.104165   0.000000
   51        7.722065   0.000000
   52        7.942953   0.000000
   53        8.443630   0.000000
   54        8.882425   0.000000
   55        9.474095   0.000000
   56        9.982422   0.000000
   57       10.563190   0.000000
   58       10.703798   0.000000
   59       11.184253   0.000000
   60       11.377402   0.000000
   61       11.507793   0.000000
   62       11.722299   0.000000
   63       12.496037   0.000000
   64       12.635740   0.000000
   65       13.265918   0.000000
   66       13.437214   0.000000
   67       13.568766   0.000000
   68       13.782996   0.000000
   69       13.923462   0.000000
   70       14.222740   0.000000
   71       14.506370   0.000000
   72       14.756822   0.000000
 
 -0.1666667E+00 -0.1666667E+00  0.4000000E+00  0.2777778E-02
    1      -11.257621   1.000000
    2      -10.721233   1.000000
    3      -10.403545   1.000000
    4       -9.085326   1.000000
    5       -8.630768   1.000000
    6       -8.074621   1.000000
    7       -6.769147   1.000000
    8       -6.079629   1.000000
    9       -5.839915   1.000000
   10       -5.398895   1.000000
   11       -4.422752   1.000000
   12       -4.042566   1.000000
   13       -3.389299   1.000000
   14       -2.956500   1.000000
   15       -2.752818   1.000000
   16       -2.264097   1.000000
   17       -1.964033   1.000000
   18       -1.589905   1.000000
   19       -1.305761   1.000000
   20       -1.175008   1.000000
   21       -1.010363   1.000000
   22       -0.867872   1.000000
   23       -0.538760   1.000000
   24       -0.330885   1.000000
   25       -0.105768   1.000000
   26        0.220732   1.000000
   27        0.391975   1.000000
   28        0.588105   1.000000
   29        0.785265   1.000000
   30        0.875057   1.000000
   31        1.295361   1.000000
   32        1.488703   1.000000
   33        1.704921   1.000000
   34        2.011215   1.000000
   35        2.168707   1.000000
   36        2.341763   1.000000
   37        2.508007   1.000000
   38        2.634670   1.000000
   39        2.811577   1.000000
   40        3.029582   1.000000
   41        3.214519   1.000000
   42        3.421074   1.000000
   43        4.029886   1.000000
   44        4.271708   1.000000
   45        4.449956   1.000000
   46        4.711351   1.000000
   47        4.988613   1.000000
   48        5.611642   1.000000
   49        6.675981   0.738212
   50        7.034682   0.000000
   51        7.643708   0.000000
   52        8.023890   0.000000
   53        8.450417   0.000000
   54        8.846749   0.000000
   55        9.371820   0.000000
   56        9.992956   0.000000
   57       10.578695   0.000000
   58       10.651751   0.000000
   59       11.106282   0.000000
   60       11.493995   0.000000
   61       11.815710   0.000000
   62       11.925582   0.000000
   63       12.481943   0.000000
   64       12.765866   0.000000
   65       13.103990   0.000000
   66       13.555572   0.000000
   67       13.647143   0.000000
   68       13.711568   0.000000
   69       13.911286   0.000000
   70       14.192024   0.000000
   71       14.425783   0.000000
   72       14.735778   0.000000
 
  0.0000000E+00 -0.8333333E-01  0.4000000E+00  0.2777778E-02
    1      -11.315578   1.000000
    2      -10.729838   1.000000
    3      -10.430528   1.000000
    4       -8.993414   1.000000
    5       -8.737907   1.000000
    6       -7.959479   1.000000
    7       -6.715770   1.000000
    8       -6.049830   1.000000
    9       -5.933631   1.000000
   10       -5.271920   1.000000
   11       -4.151413   1.000000
   12       -3.710560   1.000000
   13       -3.500137   1.000000
   14       -3.118400   1.000000
   15       -2.986555   1.000000
   16       -2.253157   1.000000
   17       -2.072619   1.000000
   18       -1.756329   1.000000
   19       -1.329128   1.000000
   20       -1.184936   1.000000
   21       -0.990329   1.000000
   22       -0.707345   1.000000
   23       -0.414797   1.000000
   24       -0.262381   1.000000
   25        0.037867   1.000000
   26        0.080725   1.000000
   27        0.355793   1.000000
   28        0.502911   1.000000
   29        0.756372   1.000000
   30        0.962858   1.000000
   31        1.224704   1.000000
   32        1.410911   1.000000
   33        1.810828   1.000000
   34        1.911037   1.000000
   35        1.998696   1.000000
   36        2.180634   1.000000
   37        2.392609   1.000000
   38        2.614056   1.000000
   39        2.715798   1.000000
   40        2.804461   1.000000
   41        3.277507   1.000000
   42        3.589446   1.000000
   43        3.762893   1.000000
   44        4.030672   1.000000
   45        4.344362   1.000000
   46        4.761115   1.000000
   47        5.142659   1.000000
   48        5.824370   1.000000
   49        6.748288  -0.008869
   50        6.998342   0.000000
   51        7.553538   0.000000
   52        8.180752   0.000000
   53        8.588742   0.000000
   54        8.917086   0.000000
   55        9.087439   0.000000
   56       10.037080   0.000000
   57       10.641380   0.000000
   58       10.813173   0.000000
   59       11.317631   0.000000
   60       11.823108   0.000000
   61       12.071916   0.000000
   62       12.318099   0.000000
   63       12.700626   0.000000
   64       12.885747   0.000000
   65       13.039547   0.000000
   66       13.458139   0.000000
   67       13.729727   0.000000
   68       13.813236   0.000000
   69       13.965175   0.000000
   70       14.110094   0.000000
   71       14.393174   0.000000
   72       14.496960   0.000000
 
  0.1666667E+00 -0.8333333E-01  0.4000000E+00  0.2777778E-02
    1      -11.317195   1.000000
    2      -10.734455   1.000000
    3      -10.424733   1.000000
    4       -8.972278   1.000000
    5       -8.706994   1.000000
    6       -8.048399   1.000000
    7       -6.723849   1.000000
    8       -5.989509   1.000000
    9       -5.950844   1.000000
   10       -5.241431   1.000000
   11       -4.314648   1.000000
   12       -3.669054   1.000000
   13       -3.345711   1.000000
   14       -3.027519   1.000000
   15       -2.727775   1.000000
   16       -2.424021   1.000000
   17       -2.095698   1.000000
   18       -1.815746   1.000000
   19       -1.646357   1.000000
   20       -1.196091   1.000000
   21       -1.080611   1.000000
   22       -0.713884   1.000000
   23       -0.455006   1.000000
   24       -0.325769   1.000000
   25       -0.065783   1.000000
   26        0.213574   1.000000
   27        0.459674   1.000000
   28        0.730770   1.000000
   29        0.921812   1.000000
   30        0.992673   1.000000
   31        1.108889   1.000000
   32        1.337925   1.000000
   33        1.658550   1.000000
   34        1.877334   1.000000
   35        2.055316   1.000000
   36        2.218055   1.000000
   37        2.431032   1.000000
   38        2.738606   1.000000
   39        2.851750   1.000000
   40        3.024820   1.000000
   41        3.237213   1.000000
   42        3.351600   1.000000
   43        3.814762   1.000000
   44        4.095992   1.000000
   45        4.287390   1.000000
   46        4.623304   1.000000
   47        5.142862   1.000000
   48        5.728254   1.000000
   49        6.654505   0.857907
   50        6.870044   0.000000
   51        7.633412   0.000000
   52        8.187927   0.000000
   53        8.619226   0.000000
   54        8.945806   0.000000
   55        9.341643   0.000000
   56       10.044512   0.000000
   57       10.552668   0.000000
   58       10.705769   0.000000
   59       11.394887   0.000000
   60       11.797261   0.000000
   61       11.908843   0.000000
   62       12.088509   0.000000
   63       12.633939   0.000000
   64       13.046412   0.000000
   65       13.219030   0.000000
   66       13.472739   0.000000
   67       13.682983   0.000000
   68       13.921020   0.000000
   69       14.085322   0.000000
   70       14.229825   0.000000
   71       14.355192   0.000000
   72       14.611136   0.000000
 
  0.3333333E+00 -0.8333333E-01  0.4000000E+00  0.2777778E-02
    1      -11.306369   1.000000
    2      -10.771804   1.000000
    3      -10.406176   1.000000
    4       -8.963511   1.000000
    5       -8.579904   1.000000
    6       -8.213954   1.000000
    7       -6.750622   1.000000
    8       -5.987751   1.000000
    9       -5.836475   1.000000
   10       -5.163667   1.000000
   11       -4.593252   1.000000
   12       -3.698728   1.000000
   13       -3.162370   1.000000
   14       -2.954973   1.000000
   15       -2.772722   1.000000
   16       -2.237215   1.000000
   17       -2.043900   1.000000
   18       -1.930970   1.000000
   19       -1.717945   1.000000
   20       -1.191591   1.000000
   21       -1.002449   1.000000
   22       -0.745070   1.000000
   23       -0.552855   1.000000
   24       -0.388794   1.000000
   25       -0.148614   1.000000
   26        0.198780   1.000000
   27        0.426224   1.000000
   28        0.747196   1.000000
   29        0.868729   1.000000
   30        1.058617   1.000000
   31        1.101255   1.000000
   32        1.309622   1.000000
   33        1.586740   1.000000
   34        1.871216   1.000000
   35        2.097786   1.000000
   36        2.312191   1.000000
   37        2.386533   1.000000
   38        2.771671   1.000000
   39        2.873317   1.000000
   40        3.187014   1.000000
   41        3.283400   1.000000
   42        3.550598   1.000000
   43        3.772110   1.000000
   44        4.004026   1.000000
   45        4.207329   1.000000
   46        4.673765   1.000000
   47        5.126141   1.000000
   48        5.615459   1.000000
   49        6.563556   1.021185
   50        6.833599   0.000000
   51        7.727515   0.000000
   52        8.146601   0.000000
   53        8.530136   0.000000
   54        8.989338   0.000000
   55        9.764638   0.000000
   56       10.065993   0.000000
   57       10.338334   0.000000
   58       10.734348   0.000000
   59       11.249223   0.000000
   60       11.509953   0.000000
   61       11.815671   0.000000
   62       12.086754   0.000000
   63       12.687207   0.000000
   64       13.034286   0.000000
   65       13.256550   0.000000
   66       13.500276   0.000000
   67       13.631125   0.000000
   68       13.991392   0.000000
   69       14.138915   0.000000
   70       14.333860   0.000000
   71       14.517042   0.000000
   72       14.793407   0.000000
 
  0.5000000E+00 -0.8333333E-01  0.4000000E+00  0.2777778E-02
    1      -11.292951   1.000000
    2      -10.802847   1.000000
    3      -10.396783   1.000000
    4       -8.957430   1.000000
    5       -8.504664   1.000000
    6       -8.288068   1.000000
    7       -6.770391   1.000000
    8       -5.981078   1.000000
    9       -5.770914   1.000000
   10       -5.044792   1.000000
   11       -4.820583   1.000000
   12       -3.727595   1.000000
   13       -3.217166   1.000000
   14       -3.071253   1.000000
   15       -2.730811   1.000000
   16       -2.207221   1.000000
   17       -1.998532   1.000000
   18       -1.743250   1.000000
   19       -1.473814   1.000000
   20       -1.179728   1.000000
   21       -0.998003   1.000000
   22       -0.747300   1.000000
   23       -0.533582   1.000000
   24       -0.372171   1.000000
   25       -0.174631   1.000000
   26        0.056119   1.000000
   27        0.391507   1.000000
   28        0.554978   1.000000
   29        0.777467   1.000000
   30        0.821769   1.000000
   31        1.255595   1.000000
   32        1.425333   1.000000
   33        1.543738   1.000000
   34        1.978469   1.000000
   35        2.032223   1.000000
   36        2.289906   1.000000
   37        2.355292   1.000000
   38        2.787441   1.000000
   39        2.900041   1.000000
   40        3.054930   1.000000
   41        3.374917   1.000000
   42        3.540901   1.000000
   43        3.742392   1.000000
   44        4.153007   1.000000
   45        4.410262   1.000000
   46        4.576338   1.000000
   47        5.132718   1.000000
   48        5.599361   1.000000
   49        6.568472   1.000000
   50        6.904840   0.000000
   51        7.776752   0.000000
   52        8.047313   0.000000
   53        8.468417   0.000000
   54        9.008005   0.000000
   55        9.708344   0.000000
   56       10.172565   0.000000
   57       10.371381   0.000000
   58       10.858372   0.000000
   59       11.022913   0.000000
   60       11.510578   0.000000
   61       11.727071   0.000000
   62       12.086391   0.000000
   63       12.715628   0.000000
   64       12.856903   0.000000
   65       13.242307   0.000000
   66       13.559431   0.000000
   67       13.738588   0.000000
   68       13.940392   0.000000
   69       14.127139   0.000000
   70       14.345054   0.000000
   71       14.525781   0.000000
   72       14.830498   0.000000
 
 -0.3333333E+00 -0.8333333E-01  0.4000000E+00  0.2777778E-02
    1      -11.291278   1.000000
    2      -10.799112   1.000000
    3      -10.402451   1.000000
    4       -8.958674   1.000000
    5       -8.632764   1.000000
    6       -8.121847   1.000000
    7       -6.764526   1.000000
    8       -6.016825   1.000000
    9       -5.783398   1.000000
   10       -5.127017   1.000000
   11       -4.663737   1.000000
   12       -3.756441   1.000000
   13       -3.424917   1.000000
   14       -3.096414   1.000000
   15       -2.793252   1.000000
   16       -2.142659   1.000000
   17       -2.049158   1.000000
   18       -1.643189   1.000000
   19       -1.328676   1.000000
   20       -1.047480   1.000000
   21       -0.812830   1.000000
   22       -0.750864   1.000000
   23       -0.476711   1.000000
   24       -0.334317   1.000000
   25       -0.090281   1.000000
   26        0.090461   1.000000
   27        0.143805   1.000000
   28        0.326407   1.000000
   29        0.680481   1.000000
   30        0.811045   1.000000
   31        1.249304   1.000000
   32        1.438780   1.000000
   33        1.614596   1.000000
   34        1.920411   1.000000
   35        2.032606   1.000000
   36        2.315773   1.000000
   37        2.410443   1.000000
   38        2.604379   1.000000
   39        2.893825   1.000000
   40        3.093345   1.000000
   41        3.234418   1.000000
   42        3.529549   1.000000
   43        3.715594   1.000000
   44        4.139613   1.000000
   45        4.448962   1.000000
   46        4.713358   1.000000
   47        5.187231   1.000000
   48        5.692423   1.000000
   49        6.652457   0.917861
   50        7.042821   0.000000
   51        7.652183   0.000000
   52        8.104622   0.000000
   53        8.459439   0.000000
   54        8.858924   0.000000
   55        9.448102   0.000000
   56       10.051541   0.000000
   57       10.642708   0.000000
   58       10.877281   0.000000
   59       11.252036   0.000000
   60       11.525689   0.000000
   61       11.762064   0.000000
   62       12.133608   0.000000
   63       12.688954   0.000000
   64       12.799678   0.000000
   65       13.196860   0.000000
   66       13.554885   0.000000
   67       13.723519   0.000000
   68       13.761746   0.000000
   69       13.991724   0.000000
   70       14.273844   0.000000
   71       14.500245   0.000000
   72       14.901333   0.000000
 
 -0.1666667E+00 -0.8333333E-01  0.4000000E+00  0.2777778E-02
    1      -11.303084   1.000000
    2      -10.763622   1.000000
    3      -10.417487   1.000000
    4       -8.984791   1.000000
    5       -8.711242   1.000000
    6       -7.987557   1.000000
    7       -6.736852   1.000000
    8       -6.064394   1.000000
    9       -5.850490   1.000000
   10       -5.238405   1.000000
   11       -4.324973   1.000000
   12       -3.779036   1.000000
   13       -3.522217   1.000000
   14       -3.108330   1.000000
   15       -2.951174   1.000000
   16       -2.206901   1.000000
   17       -2.043088   1.000000
   18       -1.673475   1.000000
   19       -1.239711   1.000000
   20       -1.050307   1.000000
   21       -0.797767   1.000000
   22       -0.582574   1.000000
   23       -0.482662   1.000000
   24       -0.324131   1.000000
   25       -0.146141   1.000000
   26        0.060686   1.000000
   27        0.207557   1.000000
   28        0.383303   1.000000
   29        0.710854   1.000000
   30        0.893624   1.000000
   31        1.135511   1.000000
   32        1.449448   1.000000
   33        1.746399   1.000000
   34        1.948721   1.000000
   35        2.042561   1.000000
   36        2.163532   1.000000
   37        2.405410   1.000000
   38        2.527834   1.000000
   39        2.786296   1.000000
   40        3.027858   1.000000
   41        3.313100   1.000000
   42        3.423994   1.000000
   43        3.743405   1.000000
   44        4.106592   1.000000
   45        4.339746   1.000000
   46        4.843255   1.000000
   47        5.185181   1.000000
   48        5.811687   1.000000
   49        6.738653  -0.022129
   50        7.107510   0.000000
   51        7.541995   0.000000
   52        8.172596   0.000000
   53        8.511000   0.000000
   54        8.756216   0.000000
   55        9.217327   0.000000
   56       10.041097   0.000000
   57       10.744533   0.000000
   58       10.827757   0.000000
   59       11.254713   0.000000
   60       11.747470   0.000000
   61       11.942837   0.000000
   62       12.324066   0.000000
   63       12.670338   0.000000
   64       12.867425   0.000000
   65       13.084500   0.000000
   66       13.469598   0.000000
   67       13.587337   0.000000
   68       13.725402   0.000000
   69       13.900076   0.000000
   70       14.222656   0.000000
   71       14.468305   0.000000
   72       14.752729   0.000000
 
  0.0000000E+00  0.0000000E+00  0.5000000E+00  0.1388889E-02
    1      -11.308586   1.000000
    2      -10.732295   1.000000
    3      -10.476972   1.000000
    4       -9.011609   1.000000
    5       -8.723613   1.000000
    6       -7.886267   1.000000
    7       -6.760864   1.000000
    8       -6.065938   1.000000
    9       -5.919677   1.000000
   10       -5.188892   1.000000
   11       -4.101577   1.000000
   12       -3.673673   1.000000
   13       -3.439884   1.000000
   14       -3.213419   1.000000
   15       -3.153531   1.000000
   16       -2.314778   1.000000
   17       -2.055707   1.000000
   18       -1.572325   1.000000
   19       -1.281551   1.000000
   20       -0.991964   1.000000
   21       -0.734832   1.000000
   22       -0.591787   1.000000
   23       -0.455933   1.000000
   24       -0.291200   1.000000
   25       -0.117873   1.000000
   26        0.092567   1.000000
   27        0.230583   1.000000
   28        0.311212   1.000000
   29        0.739657   1.000000
   30        0.973683   1.000000
   31        1.232665   1.000000
   32        1.307219   1.000000
   33        1.715801   1.000000
   34        1.923912   1.000000
   35        2.009317   1.000000
   36        2.146092   1.000000
   37        2.178484   1.000000
   38        2.347547   1.000000
   39        2.713274   1.000000
   40        2.880045   1.000000
   41        3.316247   1.000000
   42        3.585511   1.000000
   43        3.679698   1.000000
   44        3.988883   1.000000
   45        4.382656   1.000000
   46        4.873760   1.000000
   47        5.192906   1.000000
   48        5.884363   1.000000
   49        6.752125   0.000000
   50        7.141344   0.000000
   51        7.530311   0.000000
   52        8.275398   0.000000
   53        8.557360   0.000000
   54        8.642602   0.000000
   55        8.944511   0.000000
   56        9.988274   0.000000
   57       10.677787   0.000000
   58       10.934599   0.000000
   59       11.903969   0.000000
   60       12.051846   0.000000
   61       12.232920   0.000000
   62       12.496131   0.000000
   63       12.762576   0.000000
   64       12.926837   0.000000
   65       13.056260   0.000000
   66       13.221797   0.000000
   67       13.601614   0.000000
   68       13.765981   0.000000
   69       13.928201   0.000000
   70       14.096186   0.000000
   71       14.320652   0.000000
   72       14.614372   0.000000
 
  0.1666667E+00  0.6938894E-17  0.5000000E+00  0.2777778E-02
    1      -11.305831   1.000000
    2      -10.747493   1.000000
    3      -10.466973   1.000000
    4       -8.993659   1.000000
    5       -8.702428   1.000000
    6       -7.953383   1.000000
    7       -6.755791   1.000000
    8       -6.044247   1.000000
    9       -5.905299   1.000000
   10       -5.158740   1.000000
   11       -4.276444   1.000000
   12       -3.613572   1.000000
   13       -3.433147   1.000000
   14       -3.197345   1.000000
   15       -2.931254   1.000000
   16       -2.288190   1.000000
   17       -2.147247   1.000000
   18       -1.620429   1.000000
   19       -1.339301   1.000000
   20       -1.034723   1.000000
   21       -0.814485   1.000000
   22       -0.671253   1.000000
   23       -0.522060   1.000000
   24       -0.266045   1.000000
   25        0.021307   1.000000
   26        0.182406   1.000000
   27        0.224216   1.000000
   28        0.376890   1.000000
   29        0.750450   1.000000
   30        0.885550   1.000000
   31        1.168452   1.000000
   32        1.286362   1.000000
   33        1.640759   1.000000
   34        1.831243   1.000000
   35        2.044099   1.000000
   36        2.152925   1.000000
   37        2.345892   1.000000
   38        2.434606   1.000000
   39        2.874982   1.000000
   40        2.984717   1.000000
   41        3.273571   1.000000
   42        3.349397   1.000000
   43        3.722632   1.000000
   44        4.129429   1.000000
   45        4.355919   1.000000
   46        4.765495   1.000000
   47        5.208141   1.000000
   48        5.820809   1.000000
   49        6.703504   0.338664
   50        7.027672   0.000000
   51        7.589237   0.000000
   52        8.290667   0.000000
   53        8.477892   0.000000
   54        8.704016   0.000000
   55        9.107347   0.000000
   56       10.020830   0.000000
   57       10.762548   0.000000
   58       10.820287   0.000000
   59       11.851628   0.000000
   60       12.035234   0.000000
   61       12.084236   0.000000
   62       12.315734   0.000000
   63       12.778443   0.000000
   64       13.035559   0.000000
   65       13.060111   0.000000
   66       13.250262   0.000000
   67       13.709563   0.000000
   68       13.832681   0.000000
   69       13.896764   0.000000
   70       14.146650   0.000000
   71       14.313682   0.000000
   72       14.604652   0.000000
 
  0.3333333E+00  0.0000000E+00  0.5000000E+00  0.2777778E-02
    1      -11.299975   1.000000
    2      -10.776426   1.000000
    3      -10.447879   1.000000
    4       -8.979556   1.000000
    5       -8.602550   1.000000
    6       -8.122476   1.000000
    7       -6.744925   1.000000
    8       -6.021347   1.000000
    9       -5.850063   1.000000
   10       -5.086272   1.000000
   11       -4.554885   1.000000
   12       -3.554997   1.000000
   13       -3.292772   1.000000
   14       -3.139652   1.000000
   15       -2.673389   1.000000
   16       -2.339425   1.000000
   17       -2.190153   1.000000
   18       -1.697646   1.000000
   19       -1.518663   1.000000
   20       -1.128050   1.000000
   21       -0.918926   1.000000
   22       -0.666819   1.000000
   23       -0.491497   1.000000
   24       -0.297574   1.000000
   25       -0.037131   1.000000
   26        0.102191   1.000000
   27        0.309974   1.000000
   28        0.551678   1.000000
   29        0.729320   1.000000
   30        0.920707   1.000000
   31        1.122582   1.000000
   32        1.217474   1.000000
   33        1.569197   1.000000
   34        1.865451   1.000000
   35        2.039397   1.000000
   36        2.187241   1.000000
   37        2.408623   1.000000
   38        2.736141   1.000000
   39        2.813824   1.000000
   40        3.128577   1.000000
   41        3.225857   1.000000
   42        3.473718   1.000000
   43        3.734350   1.000000
   44        4.080993   1.000000
   45        4.312047   1.000000
   46        4.664802   1.000000
   47        5.192199   1.000000
   48        5.691284   1.000000
   49        6.606065   1.034230
   50        6.848252   0.000000
   51        7.720320   0.000000
   52        8.215036   0.000000
   53        8.400163   0.000000
   54        8.800548   0.000000
   55        9.519241   0.000000
   56       10.104249   0.000000
   57       10.527184   0.000000
   58       10.961696   0.000000
   59       11.453605   0.000000
   60       11.792127   0.000000
   61       12.126216   0.000000
   62       12.315594   0.000000
   63       12.705830   0.000000
   64       13.112803   0.000000
   65       13.254813   0.000000
   66       13.288927   0.000000
   67       13.695165   0.000000
   68       13.821769   0.000000
   69       13.934751   0.000000
   70       14.122390   0.000000
   71       14.387180   0.000000
   72       14.723768   0.000000
 
  0.5000000E+00  0.0000000E+00  0.5000000E+00  0.1388889E-02
    1      -11.296858   1.000000
    2      -10.790358   1.000000
    3      -10.438606   1.000000
    4       -8.981810   1.000000
    5       -8.484212   1.000000
    6       -8.265636   1.000000
    7       -6.739177   1.000000
    8       -6.019342   1.000000
    9       -5.807825   1.000000
   10       -5.035230   1.000000
   11       -4.692844   1.000000
   12       -3.554357   1.000000
   13       -3.131838   1.000000
   14       -3.024295   1.000000
   15       -2.869800   1.000000
   16       -2.239806   1.000000
   17       -2.119607   1.000000
   18       -1.779595   1.000000
   19       -1.627290   1.000000
   20       -1.080008   1.000000
   21       -1.042829   1.000000
   22       -0.620537   1.000000
   23       -0.444739   1.000000
   24       -0.315911   1.000000
   25       -0.146445   1.000000
   26        0.011115   1.000000
   27        0.287098   1.000000
   28        0.657590   1.000000
   29        0.815265   1.000000
   30        0.922866   1.000000
   31        1.092753   1.000000
   32        1.198018   1.000000
   33        1.614566   1.000000
   34        1.848136   1.000000
   35        2.047743   1.000000
   36        2.229272   1.000000
   37        2.371126   1.000000
   38        2.678453   1.000000
   39        2.961165   1.000000
   40        3.247901   1.000000
   41        3.275575   1.000000
   42        3.475194   1.000000
   43        3.685770   1.000000
   44        3.998530   1.000000
   45        4.414941   1.000000
   46        4.578608   1.000000
   47        5.153805   1.000000
   48        5.632096   1.000000
   49        6.559697   1.000000
   50        6.772679   0.000000
   51        7.812766   0.000000
   52        8.115876   0.000000
   53        8.397449   0.000000
   54        8.842252   0.000000
   55        9.819564   0.000000
   56       10.193658   0.000000
   57       10.341826   0.000000
   58       10.965493   0.000000
   59       11.191184   0.000000
   60       11.733530   0.000000
   61       12.187836   0.000000
   62       12.319497   0.000000
   63       12.686995   0.000000
   64       13.171116   0.000000
   65       13.284412   0.000000
   66       13.381523   0.000000
   67       13.569524   0.000000
   68       13.735297   0.000000
   69       13.977350   0.000000
   70       14.068248   0.000000
   71       14.650420   0.000000
   72       14.781309   0.000000
 
  0.0000000E+00  0.8333333E-01  0.5000000E+00  0.2777778E-02
    1      -11.310018   1.000000
    2      -10.744834   1.000000
    3      -10.429347   1.000000
    4       -9.079355   1.000000
    5       -8.608354   1.000000
    6       -7.941370   1.000000
    7       -6.793231   1.000000
    8       -6.065917   1.000000
    9       -5.926061   1.000000
   10       -5.247218   1.000000
   11       -4.130885   1.000000
   12       -3.765317   1.000000
   13       -3.460412   1.000000
   14       -3.159304   1.000000
   15       -2.900204   1.000000
   16       -2.370720   1.000000
   17       -2.085599   1.000000
   18       -1.560021   1.000000
   19       -1.360123   1.000000
   20       -1.047889   1.000000
   21       -0.912651   1.000000
   22       -0.777848   1.000000
   23       -0.550932   1.000000
   24       -0.422385   1.000000
   25       -0.035940   1.000000
   26        0.160909   1.000000
   27        0.330980   1.000000
   28        0.643360   1.000000
   29        0.819373   1.000000
   30        0.909824   1.000000
   31        1.240363   1.000000
   32        1.328833   1.000000
   33        1.672391   1.000000
   34        1.810037   1.000000
   35        2.095890   1.000000
   36        2.240081   1.000000
   37        2.352055   1.000000
   38        2.609738   1.000000
   39        2.692095   1.000000
   40        2.921209   1.000000
   41        3.304064   1.000000
   42        3.393574   1.000000
   43        3.814812   1.000000
   44        4.197780   1.000000
   45        4.391547   1.000000
   46        4.757718   1.000000
   47        5.103968   1.000000
   48        5.800062   1.000000
   49        6.711076   0.216209
   50        7.080027   0.000000
   51        7.589571   0.000000
   52        8.288922   0.000000
   53        8.470127   0.000000
   54        8.686180   0.000000
   55        9.102557   0.000000
   56        9.985215   0.000000
   57       10.661414   0.000000
   58       10.833684   0.000000
   59       11.713472   0.000000
   60       11.919773   0.000000
   61       12.152627   0.000000
   62       12.412513   0.000000
   63       12.712784   0.000000
   64       12.922186   0.000000
   65       13.022288   0.000000
   66       13.236957   0.000000
   67       13.644624   0.000000
   68       13.696473   0.000000
   69       13.977821   0.000000
   70       14.160764   0.000000
   71       14.390671   0.000000
   72       14.531647   0.000000
 
  0.1666667E+00  0.8333333E-01  0.5000000E+00  0.2777778E-02
    1      -11.317303   1.000000
    2      -10.729297   1.000000
    3      -10.433200   1.000000
    4       -9.046922   1.000000
    5       -8.672056   1.000000
    6       -7.925473   1.000000
    7       -6.822332   1.000000
    8       -6.054571   1.000000
    9       -5.835528   1.000000
   10       -5.180663   1.000000
   11       -4.433540   1.000000
   12       -3.734187   1.000000
   13       -3.408754   1.000000
   14       -3.169831   1.000000
   15       -2.755647   1.000000
   16       -2.362756   1.000000
   17       -2.117691   1.000000
   18       -1.556956   1.000000
   19       -1.316823   1.000000
   20       -1.138899   1.000000
   21       -0.913927   1.000000
   22       -0.723469   1.000000
   23       -0.519827   1.000000
   24       -0.273766   1.000000
   25       -0.118455   1.000000
   26        0.216353   1.000000
   27        0.384873   1.000000
   28        0.518116   1.000000
   29        0.689039   1.000000
   30        0.956186   1.000000
   31        1.177337   1.000000
   32        1.341158   1.000000
   33        1.548966   1.000000
   34        1.818031   1.000000
   35        2.082127   1.000000
   36        2.256819   1.000000
   37        2.345404   1.000000
   38        2.494423   1.000000
   39        2.866761   1.000000
   40        3.052745   1.000000
   41        3.146239   1.000000
   42        3.282963   1.000000
   43        3.823292   1.000000
   44        4.272195   1.000000
   45        4.533917   1.000000
   46        4.845440   1.000000
   47        5.116425   1.000000
   48        5.781780   1.000000
   49        6.720554   0.140570
   50        7.141677   0.000000
   51        7.650978   0.000000
   52        8.149264   0.000000
   53        8.379133   0.000000
   54        8.684731   0.000000
   55        9.161193   0.000000
   56       10.036679   0.000000
   57       10.728361   0.000000
   58       10.836890   0.000000
   59       11.683682   0.000000
   60       11.892777   0.000000
   61       12.051530   0.000000
   62       12.218399   0.000000
   63       12.471739   0.000000
   64       12.904517   0.000000
   65       13.164813   0.000000
   66       13.285249   0.000000
   67       13.587915   0.000000
   68       13.655551   0.000000
   69       13.972036   0.000000
   70       14.160508   0.000000
   71       14.364603   0.000000
   72       14.538081   0.000000
 
  0.3333333E+00  0.8333333E-01  0.5000000E+00  0.2777778E-02
    1      -11.314447   1.000000
    2      -10.750879   1.000000
    3      -10.417286   1.000000
    4       -8.986109   1.000000
    5       -8.681662   1.000000
    6       -8.022161   1.000000
    7       -6.833396   1.000000
    8       -6.023876   1.000000
    9       -5.757788   1.000000
   10       -5.026411   1.000000
   11       -4.779370   1.000000
   12       -3.687755   1.000000
   13       -3.274220   1.000000
   14       -3.132013   1.000000
   15       -2.617333   1.000000
   16       -2.382125   1.000000
   17       -2.113914   1.000000
   18       -1.713269   1.000000
   19       -1.354936   1.000000
   20       -1.189603   1.000000
   21       -0.951012   1.000000
   22       -0.764846   1.000000
   23       -0.483094   1.000000
   24       -0.271840   1.000000
   25       -0.000372   1.000000
   26        0.103583   1.000000
   27        0.335278   1.000000
   28        0.407725   1.000000
   29        0.777897   1.000000
   30        1.068847   1.000000
   31        1.102834   1.000000
   32        1.353417   1.000000
   33        1.450673   1.000000
   34        1.835316   1.000000
   35        2.154846   1.000000
   36        2.252444   1.000000
   37        2.306182   1.000000
   38        2.571101   1.000000
   39        2.873573   1.000000
   40        3.051423   1.000000
   41        3.322117   1.000000
   42        3.550212   1.000000
   43        3.749317   1.000000
   44        4.193133   1.000000
   45        4.530513   1.000000
   46        4.773096   1.000000
   47        5.080468   1.000000
   48        5.665223   1.000000
   49        6.657181   0.851623
   50        7.006376   0.000000
   51        7.775185   0.000000
   52        8.041815   0.000000
   53        8.421822   0.000000
   54        8.820686   0.000000
   55        9.352973   0.000000
   56       10.116268   0.000000
   57       10.628692   0.000000
   58       10.885687   0.000000
   59       11.452367   0.000000
   60       11.642704   0.000000
   61       11.901913   0.000000
   62       12.180988   0.000000
   63       12.509454   0.000000
   64       12.917277   0.000000
   65       13.299961   0.000000
   66       13.378960   0.000000
   67       13.712849   0.000000
   68       13.757001   0.000000
   69       13.864786   0.000000
   70       14.071961   0.000000
   71       14.325577   0.000000
   72       14.522890   0.000000
 
  0.5000000E+00  0.8333333E-01  0.5000000E+00  0.2777778E-02
    1      -11.303794   1.000000
    2      -10.785349   1.000000
    3      -10.400201   1.000000
    4       -8.982409   1.000000
    5       -8.564491   1.000000
    6       -8.172251   1.000000
    7       -6.817849   1.000000
    8       -6.017679   1.000000
    9       -5.758098   1.000000
   10       -5.063181   1.000000
   11       -4.745266   1.000000
   12       -3.668512   1.000000
   13       -3.202677   1.000000
   14       -2.930251   1.000000
   15       -2.817680   1.000000
   16       -2.230620   1.000000
   17       -2.082002   1.000000
   18       -1.866951   1.000000
   19       -1.548795   1.000000
   20       -1.197934   1.000000
   21       -1.038985   1.000000
   22       -0.707670   1.000000
   23       -0.444044   1.000000
   24       -0.376840   1.000000
   25       -0.047730   1.000000
   26        0.121592   1.000000
   27        0.323539   1.000000
   28        0.441245   1.000000
   29        0.838989   1.000000
   30        1.033673   1.000000
   31        1.113356   1.000000
   32        1.304225   1.000000
   33        1.478859   1.000000
   34        1.958519   1.000000
   35        2.113198   1.000000
   36        2.294282   1.000000
   37        2.390683   1.000000
   38        2.706149   1.000000
   39        3.043414   1.000000
   40        3.095904   1.000000
   41        3.386060   1.000000
   42        3.574079   1.000000
   43        3.696538   1.000000
   44        4.181270   1.000000
   45        4.406503   1.000000
   46        4.558067   1.000000
   47        5.034602   1.000000
   48        5.580296   1.000000
   49        6.576217   1.036285
   50        6.844761   0.000000
   51        7.727542   0.000000
   52        8.197650   0.000000
   53        8.472667   0.000000
   54        8.917991   0.000000
   55        9.662555   0.000000
   56       10.182634   0.000000
   57       10.336186   0.000000
   58       10.893428   0.000000
   59       11.153423   0.000000
   60       11.662549   0.000000
   61       11.881961   0.000000
   62       12.206494   0.000000
   63       12.671439   0.000000
   64       13.060280   0.000000
   65       13.247097   0.000000
   66       13.398429   0.000000
   67       13.682392   0.000000
   68       13.810762   0.000000
   69       13.987988   0.000000
   70       14.073249   0.000000
   71       14.374286   0.000000
   72       14.667162   0.000000
 
 -0.3333333E+00  0.8333333E-01  0.5000000E+00  0.2777778E-02
    1      -11.295834   1.000000
    2      -10.799326   1.000000
    3      -10.398936   1.000000
    4       -9.015660   1.000000
    5       -8.466194   1.000000
    6       -8.221329   1.000000
    7       -6.790281   1.000000
    8       -6.031485   1.000000
    9       -5.856482   1.000000
   10       -5.179640   1.000000
   11       -4.458075   1.000000
   12       -3.668510   1.000000
   13       -3.255546   1.000000
   14       -3.050579   1.000000
   15       -2.632942   1.000000
   16       -2.220295   1.000000
   17       -2.165558   1.000000
   18       -1.831707   1.000000
   19       -1.778096   1.000000
   20       -1.196122   1.000000
   21       -0.956986   1.000000
   22       -0.767310   1.000000
   23       -0.465919   1.000000
   24       -0.255402   1.000000
   25       -0.075161   1.000000
   26        0.108368   1.000000
   27        0.332959   1.000000
   28        0.557316   1.000000
   29        0.838427   1.000000
   30        0.941576   1.000000
   31        1.106564   1.000000
   32        1.189472   1.000000
   33        1.649153   1.000000
   34        2.006012   1.000000
   35        2.125293   1.000000
   36        2.347660   1.000000
   37        2.499805   1.000000
   38        2.798970   1.000000
   39        2.896942   1.000000
   40        3.182991   1.000000
   41        3.281641   1.000000
   42        3.611168   1.000000
   43        3.832263   1.000000
   44        3.988901   1.000000
   45        4.239476   1.000000
   46        4.433705   1.000000
   47        5.104533   1.000000
   48        5.601658   1.000000
   49        6.562920   1.000000
   50        6.788906   0.000000
   51        7.659378   0.000000
   52        8.319605   0.000000
   53        8.545565   0.000000
   54        8.914276   0.000000
   55        9.698492   0.000000
   56        9.952583   0.000000
   57       10.311843   0.000000
   58       10.948534   0.000000
   59       11.301872   0.000000
   60       11.757973   0.000000
   61       11.869296   0.000000
   62       12.255724   0.000000
   63       12.796773   0.000000
   64       13.115106   0.000000
   65       13.204309   0.000000
   66       13.406418   0.000000
   67       13.681261   0.000000
   68       13.834681   0.000000
   69       14.046642   0.000000
   70       14.135728   0.000000
   71       14.353753   0.000000
   72       14.689192   0.000000
 
 -0.1666667E+00  0.8333333E-01  0.5000000E+00  0.2777778E-02
    1      -11.299247   1.000000
    2      -10.780007   1.000000
    3      -10.412520   1.000000
    4       -9.057113   1.000000
    5       -8.534244   1.000000
    6       -8.067205   1.000000
    7       -6.776787   1.000000
    8       -6.040756   1.000000
    9       -5.952935   1.000000
   10       -5.236963   1.000000
   11       -4.188667   1.000000
   12       -3.705280   1.000000
   13       -3.385840   1.000000
   14       -3.118463   1.000000
   15       -2.778826   1.000000
   16       -2.334400   1.000000
   17       -2.130832   1.000000
   18       -1.711843   1.000000
   19       -1.555933   1.000000
   20       -1.149607   1.000000
   21       -0.922030   1.000000
   22       -0.791889   1.000000
   23       -0.558357   1.000000
   24       -0.206376   1.000000
   25       -0.034592   1.000000
   26        0.021279   1.000000
   27        0.339522   1.000000
   28        0.650939   1.000000
   29        0.846337   1.000000
   30        1.026677   1.000000
   31        1.103889   1.000000
   32        1.208608   1.000000
   33        1.745926   1.000000
   34        1.882523   1.000000
   35        2.113821   1.000000
   36        2.326654   1.000000
   37        2.503616   1.000000
   38        2.573143   1.000000
   39        2.861262   1.000000
   40        2.930023   1.000000
   41        3.463307   1.000000
   42        3.559785   1.000000
   43        3.760140   1.000000
   44        4.023118   1.000000
   45        4.273105   1.000000
   46        4.512727   1.000000
   47        5.125417   1.000000
   48        5.710739   1.000000
   49        6.636957   1.047048
   50        6.891105   0.000000
   51        7.612876   0.000000
   52        8.324314   0.000000
   53        8.582077   0.000000
   54        8.862102   0.000000
   55        9.224299   0.000000
   56        9.964724   0.000000
   57       10.605794   0.000000
   58       10.774894   0.000000
   59       11.634218   0.000000
   60       11.920527   0.000000
   61       11.945362   0.000000
   62       12.335769   0.000000
   63       12.770929   0.000000
   64       13.056663   0.000000
   65       13.203805   0.000000
   66       13.297710   0.000000
   67       13.684357   0.000000
   68       13.857945   0.000000
   69       13.971689   0.000000
   70       14.163192   0.000000
   71       14.367560   0.000000
   72       14.493560   0.000000
 
  0.0000000E+00  0.1666667E+00  0.5000000E+00  0.2777778E-02
    1      -11.311962   1.000000
    2      -10.757536   1.000000
    3      -10.324036   1.000000
    4       -9.166056   1.000000
    5       -8.390294   1.000000
    6       -8.078778   1.000000
    7       -6.875535   1.000000
    8       -6.117809   1.000000
    9       -5.879362   1.000000
   10       -5.394932   1.000000
   11       -4.110584   1.000000
   12       -4.064698   1.000000
   13       -3.372811   1.000000
   14       -3.001760   1.000000
   15       -2.656898   1.000000
   16       -2.461850   1.000000
   17       -2.036822   1.000000
   18       -1.672187   1.000000
   19       -1.627318   1.000000
   20       -1.341517   1.000000
   21       -1.014890   1.000000
   22       -0.894240   1.000000
   23       -0.736277   1.000000
   24       -0.420932   1.000000
   25        0.038454   1.000000
   26        0.234062   1.000000
   27        0.453408   1.000000
   28        0.785471   1.000000
   29        0.951274   1.000000
   30        1.140765   1.000000
   31        1.232944   1.000000
   32        1.483638   1.000000
   33        1.606923   1.000000
   34        2.008189   1.000000
   35        2.199298   1.000000
   36        2.402719   1.000000
   37        2.525976   1.000000
   38        2.742326   1.000000
   39        2.922787   1.000000
   40        3.089475   1.000000
   41        3.221056   1.000000
   42        3.531140   1.000000
   43        4.044794   1.000000
   44        4.140946   1.000000
   45        4.480438   1.000000
   46        4.640969   1.000000
   47        4.928023   1.000000
   48        5.554613   1.000000
   49        6.627192   1.047239
   50        6.946804   0.000000
   51        7.734820   0.000000
   52        8.139683   0.000000
   53        8.488391   0.000000
   54        8.932785   0.000000
   55        9.321849   0.000000
   56        9.908117   0.000000
   57       10.503311   0.000000
   58       10.664129   0.000000
   59       11.279526   0.000000
   60       11.591348   0.000000
   61       11.865165   0.000000
   62       12.280929   0.000000
   63       12.608759   0.000000
   64       12.962484   0.000000
   65       13.054671   0.000000
   66       13.264750   0.000000
   67       13.554912   0.000000
   68       13.626785   0.000000
   69       13.908781   0.000000
   70       14.281759   0.000000
   71       14.393229   0.000000
   72       14.593364   0.000000
 
  0.1666667E+00  0.1666667E+00  0.5000000E+00  0.2777778E-02
    1      -11.326114   1.000000
    2      -10.723874   1.000000
    3      -10.334200   1.000000
    4       -9.160995   1.000000
    5       -8.486210   1.000000
    6       -7.993239   1.000000
    7       -6.928127   1.000000
    8       -6.096850   1.000000
    9       -5.776760   1.000000
   10       -5.324313   1.000000
   11       -4.457760   1.000000
   12       -4.008412   1.000000
   13       -3.336693   1.000000
   14       -2.992348   1.000000
   15       -2.590141   1.000000
   16       -2.485386   1.000000
   17       -2.063403   1.000000
   18       -1.730881   1.000000
   19       -1.368603   1.000000
   20       -1.326851   1.000000
   21       -1.030085   1.000000
   22       -0.825189   1.000000
   23       -0.668723   1.000000
   24       -0.468758   1.000000
   25        0.154304   1.000000
   26        0.353607   1.000000
   27        0.405957   1.000000
   28        0.574399   1.000000
   29        0.738124   1.000000
   30        1.062851   1.000000
   31        1.282224   1.000000
   32        1.403336   1.000000
   33        1.616512   1.000000
   34        1.932185   1.000000
   35        2.130629   1.000000
   36        2.306689   1.000000
   37        2.565569   1.000000
   38        2.756245   1.000000
   39        2.875345   1.000000
   40        3.142369   1.000000
   41        3.275885   1.000000
   42        3.522948   1.000000
   43        4.100749   1.000000
   44        4.312364   1.000000
   45        4.508033   1.000000
   46        4.687369   1.000000
   47        4.979325   1.000000
   48        5.558576   1.000000
   49        6.663186   0.816800
   50        7.118899   0.000000
   51        7.781804   0.000000
   52        8.008815   0.000000
   53        8.469287   0.000000
   54        8.837681   0.000000
   55        9.263661   0.000000
   56        9.925786   0.000000
   57       10.587677   0.000000
   58       10.725387   0.000000
   59       11.364114   0.000000
   60       11.570914   0.000000
   61       11.746018   0.000000
   62       11.968799   0.000000
   63       12.373171   0.000000
   64       12.804464   0.000000
   65       13.174996   0.000000
   66       13.391004   0.000000
   67       13.475514   0.000000
   68       13.589932   0.000000
   69       13.858552   0.000000
   70       14.159971   0.000000
   71       14.272420   0.000000
   72       14.541746   0.000000
 
  0.3333333E+00  0.1666667E+00  0.5000000E+00  0.2777778E-02
    1      -11.328381   1.000000
    2      -10.731799   1.000000
    3      -10.322306   1.000000
    4       -9.093239   1.000000
    5       -8.587211   1.000000
    6       -7.984524   1.000000
    7       -6.978098   1.000000
    8       -6.046557   1.000000
    9       -5.689134   1.000000
   10       -5.164313   1.000000
   11       -4.794968   1.000000
   12       -3.966598   1.000000
   13       -3.312735   1.000000
   14       -2.923653   1.000000
   15       -2.615930   1.000000
   16       -2.426325   1.000000
   17       -2.057173   1.000000
   18       -1.766743   1.000000
   19       -1.489599   1.000000
   20       -1.240336   1.000000
   21       -1.071867   1.000000
   22       -0.758750   1.000000
   23       -0.507623   1.000000
   24       -0.268676   1.000000
   25       -0.030831   1.000000
   26        0.155018   1.000000
   27        0.358822   1.000000
   28        0.523180   1.000000
   29        0.626086   1.000000
   30        1.048663   1.000000
   31        1.276008   1.000000
   32        1.489798   1.000000
   33        1.674663   1.000000
   34        1.938678   1.000000
   35        2.079452   1.000000
   36        2.264059   1.000000
   37        2.421048   1.000000
   38        2.752489   1.000000
   39        2.963304   1.000000
   40        3.244930   1.000000
   41        3.502986   1.000000
   42        3.754313   1.000000
   43        3.991269   1.000000
   44        4.238516   1.000000
   45        4.504789   1.000000
   46        4.706035   1.000000
   47        4.913115   1.000000
   48        5.446698   1.000000
   49        6.664466   0.794706
   50        7.139995   0.000000
   51        7.693136   0.000000
   52        8.136010   0.000000
   53        8.547181   0.000000
   54        8.927726   0.000000
   55        9.295982   0.000000
   56        9.929604   0.000000
   57       10.538864   0.000000
   58       10.763283   0.000000
   59       11.307715   0.000000
   60       11.353268   0.000000
   61       11.544594   0.000000
   62       11.826317   0.000000
   63       12.431770   0.000000
   64       12.780605   0.000000
   65       13.260684   0.000000
   66       13.450542   0.000000
   67       13.529459   0.000000
   68       13.648851   0.000000
   69       13.781543   0.000000
   70       14.024458   0.000000
   71       14.187836   0.000000
   72       14.450440   0.000000
 
  0.5000000E+00  0.1666667E+00  0.5000000E+00  0.2777778E-02
    1      -11.316645   1.000000
    2      -10.771010   1.000000
    3      -10.302071   1.000000
    4       -9.022520   1.000000
    5       -8.621466   1.000000
    6       -8.039957   1.000000
    7       -6.980691   1.000000
    8       -6.024964   1.000000
    9       -5.679883   1.000000
   10       -5.214186   1.000000
   11       -4.733991   1.000000
   12       -3.930094   1.000000
   13       -3.337810   1.000000
   14       -2.786181   1.000000
   15       -2.726785   1.000000
   16       -2.334627   1.000000
   17       -2.050451   1.000000
   18       -1.848478   1.000000
   19       -1.553016   1.000000
   20       -1.330129   1.000000
   21       -1.056781   1.000000
   22       -0.824224   1.000000
   23       -0.428034   1.000000
   24       -0.269314   1.000000
   25       -0.214479   1.000000
   26        0.211505   1.000000
   27        0.256554   1.000000
   28        0.613116   1.000000
   29        0.728526   1.000000
   30        0.997940   1.000000
   31        1.303623   1.000000
   32        1.508588   1.000000
   33        1.652583   1.000000
   34        1.972511   1.000000
   35        2.183537   1.000000
   36        2.305150   1.000000
   37        2.465085   1.000000
   38        2.832990   1.000000
   39        3.013637   1.000000
   40        3.382125   1.000000
   41        3.580973   1.000000
   42        3.727941   1.000000
   43        3.944132   1.000000
   44        4.281764   1.000000
   45        4.292545   1.000000
   46        4.580151   1.000000
   47        4.819757   1.000000
   48        5.354211   1.000000
   49        6.616377   0.979429
   50        7.000601   0.000000
   51        7.621610   0.000000
   52        8.313880   0.000000
   53        8.671588   0.000000
   54        9.125460   0.000000
   55        9.382394   0.000000
   56        9.949559   0.000000
   57       10.386733   0.000000
   58       10.668765   0.000000
   59       11.041319   0.000000
   60       11.283770   0.000000
   61       11.586902   0.000000
   62       11.972759   0.000000
   63       12.508427   0.000000
   64       12.936653   0.000000
   65       13.244844   0.000000
   66       13.428010   0.000000
   67       13.622249   0.000000
   68       13.740639   0.000000
   69       13.856657   0.000000
   70       13.980923   0.000000
   71       14.234245   0.000000
   72       14.503017   0.000000
 
 -0.3333333E+00  0.1666667E+00  0.5000000E+00  0.2777778E-02
    1      -11.301399   1.000000
    2      -10.802518   1.000000
    3      -10.295099   1.000000
    4       -9.042054   1.000000
    5       -8.521314   1.000000
    6       -8.113672   1.000000
    7       -6.935951   1.000000
    8       -6.061169   1.000000
    9       -5.765680   1.000000
   10       -5.329836   1.000000
   11       -4.450689   1.000000
   12       -3.896523   1.000000
   13       -3.378988   1.000000
   14       -2.885173   1.000000
   15       -2.590197   1.000000
   16       -2.248447   1.000000
   17       -2.065382   1.000000
   18       -1.935022   1.000000
   19       -1.750800   1.000000
   20       -1.411660   1.000000
   21       -1.057447   1.000000
   22       -0.703502   1.000000
   23       -0.675864   1.000000
   24       -0.379008   1.000000
   25       -0.072960   1.000000
   26        0.201273   1.000000
   27        0.370048   1.000000
   28        0.692586   1.000000
   29        0.876439   1.000000
   30        0.948604   1.000000
   31        1.248740   1.000000
   32        1.478932   1.000000
   33        1.720488   1.000000
   34        2.093018   1.000000
   35        2.327900   1.000000
   36        2.466306   1.000000
   37        2.595120   1.000000
   38        2.848719   1.000000
   39        3.030320   1.000000
   40        3.093467   1.000000
   41        3.415823   1.000000
   42        3.815112   1.000000
   43        3.969033   1.000000
   44        4.108881   1.000000
   45        4.300745   1.000000
   46        4.358680   1.000000
   47        4.874862   1.000000
   48        5.375963   1.000000
   49        6.573656   1.044620
   50        6.846127   0.000000
   51        7.624989   0.000000
   52        8.361592   0.000000
   53        8.697233   0.000000
   54        9.144674   0.000000
   55        9.669415   0.000000
   56        9.826431   0.000000
   57       10.117143   0.000000
   58       10.808916   0.000000
   59       10.983007   0.000000
   60       11.311094   0.000000
   61       11.735891   0.000000
   62       12.169648   0.000000
   63       12.568960   0.000000
   64       13.085961   0.000000
   65       13.184814   0.000000
   66       13.389862   0.000000
   67       13.679460   0.000000
   68       13.736776   0.000000
   69       13.958716   0.000000
   70       14.175388   0.000000
   71       14.364314   0.000000
   72       14.594279   0.000000
 
 -0.1666667E+00  0.1666667E+00  0.5000000E+00  0.2777778E-02
    1      -11.298968   1.000000
    2      -10.796692   1.000000
    3      -10.305455   1.000000
    4       -9.113093   1.000000
    5       -8.385729   1.000000
    6       -8.153872   1.000000
    7       -6.881310   1.000000
    8       -6.101180   1.000000
    9       -5.876801   1.000000
   10       -5.381977   1.000000
   11       -4.212772   1.000000
   12       -3.915819   1.000000
   13       -3.386149   1.000000
   14       -2.964841   1.000000
   15       -2.572487   1.000000
   16       -2.417776   1.000000
   17       -2.009349   1.000000
   18       -1.911721   1.000000
   19       -1.664376   1.000000
   20       -1.456480   1.000000
   21       -1.002387   1.000000
   22       -0.884344   1.000000
   23       -0.708842   1.000000
   24       -0.282941   1.000000
   25       -0.110919   1.000000
   26        0.206548   1.000000
   27        0.478299   1.000000
   28        0.666400   1.000000
   29        0.934321   1.000000
   30        1.201763   1.000000
   31        1.248670   1.000000
   32        1.406872   1.000000
   33        1.751113   1.000000
   34        2.131148   1.000000
   35        2.325636   1.000000
   36        2.437365   1.000000
   37        2.644010   1.000000
   38        2.753205   1.000000
   39        2.874000   1.000000
   40        3.124135   1.000000
   41        3.268554   1.000000
   42        3.690155   1.000000
   43        3.912403   1.000000
   44        4.052627   1.000000
   45        4.373469   1.000000
   46        4.512392   1.000000
   47        4.888802   1.000000
   48        5.469225   1.000000
   49        6.590025   1.010291
   50        6.811701   0.000000
   51        7.674215   0.000000
   52        8.285504   0.000000
   53        8.591463   0.000000
   54        9.090655   0.000000
   55        9.501137   0.000000
   56        9.847980   0.000000
   57       10.278908   0.000000
   58       10.714802   0.000000
   59       11.157473   0.000000
   60       11.453766   0.000000
   61       11.876909   0.000000
   62       12.320059   0.000000
   63       12.634406   0.000000
   64       13.078215   0.000000
   65       13.174348   0.000000
   66       13.364023   0.000000
   67       13.505697   0.000000
   68       13.811124   0.000000
   69       13.937219   0.000000
   70       14.271160   0.000000
   71       14.419467   0.000000
   72       14.552645   0.000000
 
  0.0000000E+00  0.2500000E+00  0.5000000E+00  0.2777778E-02
    1      -11.310209   1.000000
    2      -10.750392   1.000000
    3      -10.216509   1.000000
    4       -9.202838   1.000000
    5       -8.336042   1.000000
    6       -8.063828   1.000000
    7       -6.977172   1.000000
    8       -6.194209   1.000000
    9       -5.855755   1.000000
   10       -5.477695   1.000000
   11       -4.376240   1.000000
   12       -4.002265   1.000000
   13       -3.522082   1.000000
   14       -2.981164   1.000000
   15       -2.654007   1.000000
   16       -2.385899   1.000000
   17       -2.171229   1.000000
   18       -1.951231   1.000000
   19       -1.652826   1.000000
   20       -1.452921   1.000000
   21       -1.030337   1.000000
   22       -0.925350   1.000000
   23       -0.730144   1.000000
   24       -0.197189   1.000000
   25       -0.078670   1.000000
   26        0.396582   1.000000
   27        0.589075   1.000000
   28        0.773848   1.000000
   29        0.985629   1.000000
   30        1.158564   1.000000
   31        1.350335   1.000000
   32        1.650122   1.000000
   33        1.819631   1.000000
   34        2.207544   1.000000
   35        2.382169   1.000000
   36        2.549229   1.000000
   37        2.618529   1.000000
   38        2.773640   1.000000
   39        3.072685   1.000000
   40        3.311361   1.000000
   41        3.533704   1.000000
   42        3.693921   1.000000
   43        3.910467   1.000000
   44        4.219792   1.000000
   45        4.379276   1.000000
   46        4.689629   1.000000
   47        4.862872   1.000000
   48        5.297808   1.000000
   49        6.566915   1.004196
   50        6.810492   0.000000
   51        7.855850   0.000000
   52        8.085891   0.000000
   53        8.502891   0.000000
   54        9.214217   0.000000
   55        9.457749   0.000000
   56        9.785474   0.000000
   57       10.120027   0.000000
   58       10.532319   0.000000
   59       10.997801   0.000000
   60       11.051690   0.000000
   61       11.589301   0.000000
   62       12.181264   0.000000
   63       12.488273   0.000000
   64       12.943095   0.000000
   65       13.128109   0.000000
   66       13.305431   0.000000
   67       13.413963   0.000000
   68       13.587406   0.000000
   69       13.790697   0.000000
   70       14.186718   0.000000
   71       14.347409   0.000000
   72       14.590952   0.000000
 
  0.1666667E+00  0.2500000E+00  0.5000000E+00  0.2777778E-02
    1      -11.325582   1.000000
    2      -10.713635   1.000000
    3      -10.226821   1.000000
    4       -9.234080   1.000000
    5       -8.275083   1.000000
    6       -8.098713   1.000000
    7       -7.025870   1.000000
    8       -6.188584   1.000000
    9       -5.827257   1.000000
   10       -5.380140   1.000000
   11       -4.388294   1.000000
   12       -4.232555   1.000000
   13       -3.454020   1.000000
   14       -2.908277   1.000000
   15       -2.661643   1.000000
   16       -2.323824   1.000000
   17       -2.276381   1.000000
   18       -1.888105   1.000000
   19       -1.488403   1.000000
   20       -1.358922   1.000000
   21       -1.116175   1.000000
   22       -0.973707   1.000000
   23       -0.656269   1.000000
   24       -0.372819   1.000000
   25        0.210325   1.000000
   26        0.253421   1.000000
   27        0.457256   1.000000
   28        0.667048   1.000000
   29        1.014707   1.000000
   30        1.162589   1.000000
   31        1.222270   1.000000
   32        1.576792   1.000000
   33        1.810024   1.000000
   34        2.126274   1.000000
   35        2.297632   1.000000
   36        2.543713   1.000000
   37        2.776109   1.000000
   38        2.911731   1.000000
   39        3.039293   1.000000
   40        3.265690   1.000000
   41        3.537840   1.000000
   42        3.849620   1.000000
   43        4.052271   1.000000
   44        4.214680   1.000000
   45        4.430407   1.000000
   46        4.607317   1.000000
   47        4.847872   1.000000
   48        5.310844   1.000000
   49        6.578533   1.046045
   50        6.957632   0.000000
   51        7.732615   0.000000
   52        8.188792   0.000000
   53        8.544771   0.000000
   54        9.155826   0.000000
   55        9.337260   0.000000
   56        9.727947   0.000000
   57       10.280886   0.000000
   58       10.551619   0.000000
   59       10.976973   0.000000
   60       11.162617   0.000000
   61       11.441624   0.000000
   62       11.859268   0.000000
   63       12.311178   0.000000
   64       12.806115   0.000000
   65       13.092066   0.000000
   66       13.273841   0.000000
   67       13.509322   0.000000
   68       13.615307   0.000000
   69       13.816566   0.000000
   70       14.093371   0.000000
   71       14.230401   0.000000
   72       14.552713   0.000000
 
  0.3333333E+00  0.2500000E+00  0.5000000E+00  0.2777778E-02
    1      -11.331262   1.000000
    2      -10.715780   1.000000
    3      -10.207714   1.000000
    4       -9.205836   1.000000
    5       -8.415413   1.000000
    6       -7.998370   1.000000
    7       -7.101521   1.000000
    8       -6.132136   1.000000
    9       -5.787872   1.000000
   10       -5.232134   1.000000
   11       -4.609752   1.000000
   12       -4.267242   1.000000
   13       -3.438835   1.000000
   14       -2.785097   1.000000
   15       -2.670862   1.000000
   16       -2.402363   1.000000
   17       -2.297015   1.000000
   18       -1.825589   1.000000
   19       -1.445699   1.000000
   20       -1.255561   1.000000
   21       -1.095299   1.000000
   22       -0.887501   1.000000
   23       -0.648847   1.000000
   24       -0.428905   1.000000
   25       -0.024391   1.000000
   26        0.218234   1.000000
   27        0.460239   1.000000
   28        0.596120   1.000000
   29        0.844252   1.000000
   30        1.100284   1.000000
   31        1.517303   1.000000
   32        1.599820   1.000000
   33        1.771563   1.000000
   34        2.105783   1.000000
   35        2.235770   1.000000
   36        2.460014   1.000000
   37        2.614818   1.000000
   38        2.987948   1.000000
   39        3.135229   1.000000
   40        3.420246   1.000000
   41        3.721285   1.000000
   42        4.003286   1.000000
   43        4.084227   1.000000
   44        4.216312   1.000000
   45        4.384041   1.000000
   46        4.513432   1.000000
   47        4.807357   1.000000
   48        5.151932   1.000000
   49        6.606012   1.014123
   50        7.111885   0.000000
   51        7.630480   0.000000
   52        8.304897   0.000000
   53        8.718133   0.000000
   54        9.065406   0.000000
   55        9.435854   0.000000
   56        9.613420   0.000000
   57       10.291615   0.000000
   58       10.591045   0.000000
   59       10.838525   0.000000
   60       11.140253   0.000000
   61       11.434486   0.000000
   62       11.479656   0.000000
   63       12.342909   0.000000
   64       12.804840   0.000000
   65       13.086009   0.000000
   66       13.309340   0.000000
   67       13.477436   0.000000
   68       13.618664   0.000000
   69       13.728698   0.000000
   70       13.931540   0.000000
   71       14.250707   0.000000
   72       14.453143   0.000000
 
  0.5000000E+00  0.2500000E+00  0.5000000E+00  0.2777778E-02
    1      -11.322241   1.000000
    2      -10.751854   1.000000
    3      -10.180704   1.000000
    4       -9.131710   1.000000
    5       -8.559348   1.000000
    6       -7.936014   1.000000
    7       -7.129016   1.000000
    8       -6.074769   1.000000
    9       -5.768572   1.000000
   10       -5.253067   1.000000
   11       -4.654009   1.000000
   12       -4.193446   1.000000
   13       -3.499757   1.000000
   14       -2.787831   1.000000
   15       -2.644141   1.000000
   16       -2.460115   1.000000
   17       -2.240946   1.000000
   18       -1.718953   1.000000
   19       -1.616081   1.000000
   20       -1.378303   1.000000
   21       -0.953978   1.000000
   22       -0.836613   1.000000
   23       -0.593395   1.000000
   24       -0.495887   1.000000
   25       -0.007522   1.000000
   26        0.206128   1.000000
   27        0.268625   1.000000
   28        0.631457   1.000000
   29        0.919966   1.000000
   30        1.090961   1.000000
   31        1.580177   1.000000
   32        1.672258   1.000000
   33        1.824726   1.000000
   34        2.094062   1.000000
   35        2.249844   1.000000
   36        2.324548   1.000000
   37        2.617738   1.000000
   38        2.961580   1.000000
   39        3.229236   1.000000
   40        3.688551   1.000000
   41        3.770563   1.000000
   42        3.880314   1.000000
   43        4.012517   1.000000
   44        4.209769   1.000000
   45        4.316560   1.000000
   46        4.505689   1.000000
   47        4.746243   1.000000
   48        5.017536   1.000000
   49        6.607031   0.981693
   50        7.119255   0.000000
   51        7.607513   0.000000
   52        8.400313   0.000000
   53        8.848932   0.000000
   54        9.122763   0.000000
   55        9.391904   0.000000
   56        9.672295   0.000000
   57       10.234127   0.000000
   58       10.532714   0.000000
   59       10.724472   0.000000
   60       10.979226   0.000000
   61       11.430267   0.000000
   62       11.684735   0.000000
   63       12.354599   0.000000
   64       12.884044   0.000000
   65       13.183889   0.000000
   66       13.307566   0.000000
   67       13.535830   0.000000
   68       13.588514   0.000000
   69       13.690758   0.000000
   70       13.775664   0.000000
   71       14.312469   0.000000
   72       14.480682   0.000000
 
 -0.3333333E+00  0.2500000E+00  0.5000000E+00  0.2777778E-02
    1      -11.306275   1.000000
    2      -10.785990   1.000000
    3      -10.173974   1.000000
    4       -9.084386   1.000000
    5       -8.609699   1.000000
    6       -7.926816   1.000000
    7       -7.088566   1.000000
    8       -6.085483   1.000000
    9       -5.780484   1.000000
   10       -5.386540   1.000000
   11       -4.546145   1.000000
   12       -4.036258   1.000000
   13       -3.591371   1.000000
   14       -2.892601   1.000000
   15       -2.610022   1.000000
   16       -2.425056   1.000000
   17       -2.095527   1.000000
   18       -1.908970   1.000000
   19       -1.622318   1.000000
   20       -1.559917   1.000000
   21       -1.037791   1.000000
   22       -0.808488   1.000000
   23       -0.556588   1.000000
   24       -0.331545   1.000000
   25       -0.115799   1.000000
   26        0.269795   1.000000
   27        0.425380   1.000000
   28        0.556977   1.000000
   29        1.020369   1.000000
   30        1.219138   1.000000
   31        1.453370   1.000000
   32        1.593767   1.000000
   33        1.969582   1.000000
   34        2.138448   1.000000
   35        2.294940   1.000000
   36        2.559557   1.000000
   37        2.661723   1.000000
   38        2.965176   1.000000
   39        3.165125   1.000000
   40        3.231526   1.000000
   41        3.589247   1.000000
   42        3.824577   1.000000
   43        4.050303   1.000000
   44        4.263005   1.000000
   45        4.428361   1.000000
   46        4.574147   1.000000
   47        4.651297   1.000000
   48        5.037777   1.000000
   49        6.574729   1.037887
   50        6.982351   0.000000
   51        7.671510   0.000000
   52        8.381630   0.000000
   53        8.748216   0.000000
   54        9.266185   0.000000
   55        9.452743   0.000000
   56        9.620607   0.000000
   57       10.212400   0.000000
   58       10.508592   0.000000
   59       10.750612   0.000000
   60       10.924824   0.000000
   61       11.576589   0.000000
   62       12.034208   0.000000
   63       12.335002   0.000000
   64       12.949871   0.000000
   65       13.190750   0.000000
   66       13.309293   0.000000
   67       13.529934   0.000000
   68       13.627628   0.000000
   69       13.822463   0.000000
   70       13.898292   0.000000
   71       14.262648   0.000000
   72       14.529365   0.000000
 
 -0.1666667E+00  0.2500000E+00  0.5000000E+00  0.2777778E-02
    1      -11.299849   1.000000
    2      -10.786476   1.000000
    3      -10.190937   1.000000
    4       -9.132015   1.000000
    5       -8.504971   1.000000
    6       -7.971274   1.000000
    7       -7.013628   1.000000
    8       -6.146044   1.000000
    9       -5.830012   1.000000
   10       -5.469870   1.000000
   11       -4.441987   1.000000
   12       -3.921372   1.000000
   13       -3.598882   1.000000
   14       -2.968790   1.000000
   15       -2.579306   1.000000
   16       -2.448469   1.000000
   17       -2.155235   1.000000
   18       -1.892149   1.000000
   19       -1.731247   1.000000
   20       -1.532740   1.000000
   21       -1.085029   1.000000
   22       -0.843855   1.000000
   23       -0.559958   1.000000
   24       -0.367188   1.000000
   25        0.043358   1.000000
   26        0.228582   1.000000
   27        0.607896   1.000000
   28        0.657692   1.000000
   29        0.920420   1.000000
   30        1.339371   1.000000
   31        1.408842   1.000000
   32        1.639365   1.000000
   33        1.944370   1.000000
   34        2.230596   1.000000
   35        2.393103   1.000000
   36        2.593675   1.000000
   37        2.687332   1.000000
   38        2.754574   1.000000
   39        3.008046   1.000000
   40        3.192463   1.000000
   41        3.478000   1.000000
   42        3.726221   1.000000
   43        3.988541   1.000000
   44        4.250448   1.000000
   45        4.427519   1.000000
   46        4.637765   1.000000
   47        4.782362   1.000000
   48        5.156658   1.000000
   49        6.557181   1.047505
   50        6.831996   0.000000
   51        7.793378   0.000000
   52        8.208983   0.000000
   53        8.587449   0.000000
   54        9.273671   0.000000
   55        9.531746   0.000000
   56        9.742332   0.000000
   57       10.036812   0.000000
   58       10.564226   0.000000
   59       10.869490   0.000000
   60       10.965980   0.000000
   61       11.669553   0.000000
   62       12.243617   0.000000
   63       12.477796   0.000000
   64       12.998317   0.000000
   65       13.188043   0.000000
   66       13.290021   0.000000
   67       13.417990   0.000000
   68       13.680901   0.000000
   69       13.824940   0.000000
   70       14.136940   0.000000
   71       14.283852   0.000000
   72       14.518889   0.000000
 
  0.0000000E+00  0.3333333E+00  0.5000000E+00  0.2777778E-02
    1      -11.303606   1.000000
    2      -10.726399   1.000000
    3      -10.147080   1.000000
    4       -9.175656   1.000000
    5       -8.514157   1.000000
    6       -7.817124   1.000000
    7       -7.077793   1.000000
    8       -6.238269   1.000000
    9       -5.998489   1.000000
   10       -5.317580   1.000000
   11       -4.646355   1.000000
   12       -3.879674   1.000000
   13       -3.762061   1.000000
   14       -3.243065   1.000000
   15       -2.933252   1.000000
   16       -2.426855   1.000000
   17       -2.307957   1.000000
   18       -1.993520   1.000000
   19       -1.599161   1.000000
   20       -1.405069   1.000000
   21       -0.983658   1.000000
   22       -0.780010   1.000000
   23       -0.442740   1.000000
   24       -0.180846   1.000000
   25        0.163376   1.000000
   26        0.458798   1.000000
   27        0.625289   1.000000
   28        0.766356   1.000000
   29        0.991286   1.000000
   30        1.281141   1.000000
   31        1.335065   1.000000
   32        1.743446   1.000000
   33        1.988514   1.000000
   34        2.236398   1.000000
   35        2.500490   1.000000
   36        2.648728   1.000000
   37        2.727481   1.000000
   38        3.020263   1.000000
   39        3.048546   1.000000
   40        3.306484   1.000000
   41        3.660958   1.000000
   42        3.852604   1.000000
   43        4.013096   1.000000
   44        4.080523   1.000000
   45        4.451806   1.000000
   46        4.680058   1.000000
   47        4.978391   1.000000
   48        5.243652   1.000000
   49        6.473088   1.000000
   50        6.816426   0.000000
   51        7.779621   0.000000
   52        8.254829   0.000000
   53        8.425890   0.000000
   54        9.178358   0.000000
   55        9.415636   0.000000
   56        9.733594   0.000000
   57       10.053427   0.000000
   58       10.338623   0.000000
   59       10.633273   0.000000
   60       10.853645   0.000000
   61       11.349929   0.000000
   62       12.076785   0.000000
   63       12.349178   0.000000
   64       12.940917   0.000000
   65       13.135510   0.000000
   66       13.262545   0.000000
   67       13.475526   0.000000
   68       13.603999   0.000000
   69       13.716282   0.000000
   70       13.997607   0.000000
   71       14.215728   0.000000
   72       14.311370   0.000000
 
  0.1666667E+00  0.3333333E+00  0.5000000E+00  0.2777778E-02
    1      -11.315482   1.000000
    2      -10.699060   1.000000
    3      -10.150623   1.000000
    4       -9.246103   1.000000
    5       -8.331659   1.000000
    6       -7.943317   1.000000
    7       -7.100556   1.000000
    8       -6.286029   1.000000
    9       -6.001299   1.000000
   10       -5.237788   1.000000
   11       -4.594342   1.000000
   12       -4.096186   1.000000
   13       -3.670756   1.000000
   14       -3.134055   1.000000
   15       -2.856139   1.000000
   16       -2.465624   1.000000
   17       -2.212427   1.000000
   18       -1.805207   1.000000
   19       -1.633274   1.000000
   20       -1.531968   1.000000
   21       -1.119526   1.000000
   22       -0.846439   1.000000
   23       -0.556749   1.000000
   24       -0.195670   1.000000
   25        0.138679   1.000000
   26        0.361377   1.000000
   27        0.642982   1.000000
   28        0.736483   1.000000
   29        1.036082   1.000000
   30        1.263502   1.000000
   31        1.294594   1.000000
   32        1.788529   1.000000
   33        1.978911   1.000000
   34        2.360223   1.000000
   35        2.487068   1.000000
   36        2.774956   1.000000
   37        2.900632   1.000000
   38        3.007011   1.000000
   39        3.083644   1.000000
   40        3.333214   1.000000
   41        3.641331   1.000000
   42        3.733062   1.000000
   43        4.011851   1.000000
   44        4.108332   1.000000
   45        4.501590   1.000000
   46        4.621402   1.000000
   47        4.940646   1.000000
   48        5.212803   1.000000
   49        6.533651   1.000000
   50        6.793162   0.000000
   51        7.651571   0.000000
   52        8.303134   0.000000
   53        8.594283   0.000000
   54        9.182648   0.000000
   55        9.459207   0.000000
   56        9.746345   0.000000
   57        9.942555   0.000000
   58       10.348519   0.000000
   59       10.635505   0.000000
   60       10.842481   0.000000
   61       11.323912   0.000000
   62       11.783855   0.000000
   63       12.178641   0.000000
   64       12.827061   0.000000
   65       13.100311   0.000000
   66       13.199513   0.000000
   67       13.520896   0.000000
   68       13.629730   0.000000
   69       13.869317   0.000000
   70       14.043586   0.000000
   71       14.140186   0.000000
   72       14.429049   0.000000
 
  0.3333333E+00  0.3333333E+00  0.5000000E+00  0.2777778E-02
    1      -11.321362   1.000000
    2      -10.705322   1.000000
    3      -10.111328   1.000000
    4       -9.280400   1.000000
    5       -8.268605   1.000000
    6       -7.993494   1.000000
    7       -7.171613   1.000000
    8       -6.269592   1.000000
    9       -5.985965   1.000000
   10       -5.136985   1.000000
   11       -4.529000   1.000000
   12       -4.369706   1.000000
   13       -3.618113   1.000000
   14       -2.941667   1.000000
   15       -2.722736   1.000000
   16       -2.530740   1.000000
   17       -2.246049   1.000000
   18       -1.835733   1.000000
   19       -1.505903   1.000000
   20       -1.406713   1.000000
   21       -1.249244   1.000000
   22       -0.958680   1.000000
   23       -0.664826   1.000000
   24       -0.461450   1.000000
   25        0.102462   1.000000
   26        0.318290   1.000000
   27        0.633223   1.000000
   28        0.793303   1.000000
   29        1.104423   1.000000
   30        1.212859   1.000000
   31        1.492650   1.000000
   32        1.786836   1.000000
   33        1.983439   1.000000
   34        2.347419   1.000000
   35        2.486744   1.000000
   36        2.677813   1.000000
   37        2.953820   1.000000
   38        3.031467   1.000000
   39        3.214584   1.000000
   40        3.355722   1.000000
   41        3.691878   1.000000
   42        3.868385   1.000000
   43        4.048902   1.000000
   44        4.224031   1.000000
   45        4.345001   1.000000
   46        4.599816   1.000000
   47        4.851904   1.000000
   48        5.003433   1.000000
   49        6.553801   1.022663
   50        6.944469   0.000000
   51        7.634458   0.000000
   52        8.308521   0.000000
   53        8.796626   0.000000
   54        9.238689   0.000000
   55        9.344615   0.000000
   56        9.651832   0.000000
   57       10.099015   0.000000
   58       10.255976   0.000000
   59       10.590867   0.000000
   60       10.909228   0.000000
   61       11.276819   0.000000
   62       11.378435   0.000000
   63       12.226583   0.000000
   64       12.825181   0.000000
   65       12.985097   0.000000
   66       13.218459   0.000000
   67       13.420903   0.000000
   68       13.616237   0.000000
   69       13.765279   0.000000
   70       13.996930   0.000000
   71       14.259072   0.000000
   72       14.487099   0.000000
 
  0.5000000E+00  0.3333333E+00  0.5000000E+00  0.2777778E-02
    1      -11.315870   1.000000
    2      -10.735568   1.000000
    3      -10.071522   1.000000
    4       -9.252854   1.000000
    5       -8.427456   1.000000
    6       -7.870003   1.000000
    7       -7.215393   1.000000
    8       -6.208335   1.000000
    9       -5.964829   1.000000
   10       -5.132904   1.000000
   11       -4.662456   1.000000
   12       -4.276982   1.000000
   13       -3.659419   1.000000
   14       -2.846374   1.000000
   15       -2.700129   1.000000
   16       -2.496075   1.000000
   17       -2.416194   1.000000
   18       -1.805954   1.000000
   19       -1.671091   1.000000
   20       -1.348731   1.000000
   21       -1.099771   1.000000
   22       -0.850657   1.000000
   23       -0.674679   1.000000
   24       -0.521334   1.000000
   25       -0.041545   1.000000
   26        0.359132   1.000000
   27        0.623960   1.000000
   28        0.768298   1.000000
   29        1.106994   1.000000
   30        1.271389   1.000000
   31        1.629698   1.000000
   32        1.773457   1.000000
   33        2.055595   1.000000
   34        2.262482   1.000000
   35        2.374114   1.000000
   36        2.542536   1.000000
   37        2.891615   1.000000
   38        3.026498   1.000000
   39        3.276832   1.000000
   40        3.503924   1.000000
   41        3.800256   1.000000
   42        4.020675   1.000000
   43        4.081766   1.000000
   44        4.138627   1.000000
   45        4.309230   1.000000
   46        4.549309   1.000000
   47        4.760278   1.000000
   48        4.871403   1.000000
   49        6.552856   1.058992
   50        7.086944   0.000000
   51        7.695396   0.000000
   52        8.337912   0.000000
   53        8.808720   0.000000
   54        9.086324   0.000000
   55        9.417297   0.000000
   56        9.595959   0.000000
   57       10.145893   0.000000
   58       10.332510   0.000000
   59       10.545636   0.000000
   60       10.841791   0.000000
   61       11.243910   0.000000
   62       11.472381   0.000000
   63       12.235128   0.000000
   64       12.840891   0.000000
   65       13.077154   0.000000
   66       13.150311   0.000000
   67       13.426778   0.000000
   68       13.553884   0.000000
   69       13.691111   0.000000
   70       13.773634   0.000000
   71       14.290524   0.000000
   72       14.579653   0.000000
 
 -0.3333333E+00  0.3333333E+00  0.5000000E+00  0.2777778E-02
    1      -11.303809   1.000000
    2      -10.760484   1.000000
    3      -10.072820   1.000000
    4       -9.172260   1.000000
    5       -8.590923   1.000000
    6       -7.770945   1.000000
    7       -7.194257   1.000000
    8       -6.150936   1.000000
    9       -5.969676   1.000000
   10       -5.219436   1.000000
   11       -4.740059   1.000000
   12       -4.036239   1.000000
   13       -3.779459   1.000000
   14       -3.029992   1.000000
   15       -2.763697   1.000000
   16       -2.499170   1.000000
   17       -2.240930   1.000000
   18       -1.928056   1.000000
   19       -1.757346   1.000000
   20       -1.482365   1.000000
   21       -1.052763   1.000000
   22       -0.574925   1.000000
   23       -0.504085   1.000000
   24       -0.303727   1.000000
   25        0.049168   1.000000
   26        0.298106   1.000000
   27        0.430115   1.000000
   28        0.716859   1.000000
   29        1.092013   1.000000
   30        1.414104   1.000000
   31        1.554850   1.000000
   32        1.726256   1.000000
   33        2.101412   1.000000
   34        2.185744   1.000000
   35        2.361642   1.000000
   36        2.587736   1.000000
   37        2.890014   1.000000
   38        3.034248   1.000000
   39        3.224942   1.000000
   40        3.323468   1.000000
   41        3.690575   1.000000
   42        3.851198   1.000000
   43        4.012964   1.000000
   44        4.272099   1.000000
   45        4.507895   1.000000
   46        4.595794   1.000000
   47        4.777783   1.000000
   48        4.907083   1.000000
   49        6.513502   1.058641
   50        7.093869   0.000000
   51        7.820943   0.000000
   52        8.263377   0.000000
   53        8.627283   0.000000
   54        9.079605   0.000000
   55        9.402648   0.000000
   56        9.554694   0.000000
   57       10.249251   0.000000
   58       10.439791   0.000000
   59       10.538198   0.000000
   60       10.739332   0.000000
   61       11.369508   0.000000
   62       11.840187   0.000000
   63       12.199133   0.000000
   64       12.846898   0.000000
   65       13.087838   0.000000
   66       13.250700   0.000000
   67       13.453080   0.000000
   68       13.536626   0.000000
   69       13.694204   0.000000
   70       13.714209   0.000000
   71       14.196868   0.000000
   72       14.455013   0.000000
 
 -0.1666667E+00  0.3333333E+00  0.5000000E+00  0.2777778E-02
    1      -11.297393   1.000000
    2      -10.757323   1.000000
    3      -10.109210   1.000000
    4       -9.124979   1.000000
    5       -8.636535   1.000000
    6       -7.750925   1.000000
    7       -7.127634   1.000000
    8       -6.165921   1.000000
    9       -5.986784   1.000000
   10       -5.303550   1.000000
   11       -4.705243   1.000000
   12       -3.871182   1.000000
   13       -3.826694   1.000000
   14       -3.198847   1.000000
   15       -2.887402   1.000000
   16       -2.429516   1.000000
   17       -2.240450   1.000000
   18       -2.095147   1.000000
   19       -1.657524   1.000000
   20       -1.399603   1.000000
   21       -1.055486   1.000000
   22       -0.586995   1.000000
   23       -0.317888   1.000000
   24       -0.250104   1.000000
   25        0.099607   1.000000
   26        0.330971   1.000000
   27        0.606917   1.000000
   28        0.740676   1.000000
   29        0.985505   1.000000
   30        1.267331   1.000000
   31        1.508158   1.000000
   32        1.772515   1.000000
   33        2.054543   1.000000
   34        2.199605   1.000000
   35        2.399786   1.000000
   36        2.591575   1.000000
   37        2.852854   1.000000
   38        2.982295   1.000000
   39        3.054964   1.000000
   40        3.222624   1.000000
   41        3.677525   1.000000
   42        3.832793   1.000000
   43        3.996598   1.000000
   44        4.265736   1.000000
   45        4.436640   1.000000
   46        4.700461   1.000000
   47        4.904417   1.000000
   48        5.090753   1.000000
   49        6.462332   1.016966
   50        6.965838   0.000000
   51        7.948587   0.000000
   52        8.099074   0.000000
   53        8.481378   0.000000
   54        9.194330   0.000000
   55        9.307242   0.000000
   56        9.647392   0.000000
   57       10.240169   0.000000
   58       10.361636   0.000000
   59       10.580471   0.000000
   60       10.819906   0.000000
   61       11.385427   0.000000
   62       12.148284   0.000000
   63       12.321096   0.000000
   64       12.909004   0.000000
   65       13.148787   0.000000
   66       13.209292   0.000000
   67       13.421265   0.000000
   68       13.581213   0.000000
   69       13.749589   0.000000
   70       13.925939   0.000000
   71       14.078176   0.000000
   72       14.338855   0.000000
 
  0.0000000E+00  0.4166667E+00  0.5000000E+00  0.2777778E-02
    1      -11.295712   1.000000
    2      -10.699943   1.000000
    3      -10.121762   1.000000
    4       -9.113275   1.000000
    5       -8.657751   1.000000
    6       -7.603929   1.000000
    7       -7.169483   1.000000
    8       -6.257880   1.000000
    9       -6.129269   1.000000
   10       -5.080537   1.000000
   11       -4.823046   1.000000
   12       -3.984738   1.000000
   13       -3.772094   1.000000
   14       -3.478247   1.000000
   15       -3.369169   1.000000
   16       -2.466086   1.000000
   17       -2.351451   1.000000
   18       -2.072543   1.000000
   19       -1.579258   1.000000
   20       -1.204343   1.000000
   21       -0.932609   1.000000
   22       -0.551985   1.000000
   23       -0.165907   1.000000
   24       -0.008884   1.000000
   25        0.195044   1.000000
   26        0.348135   1.000000
   27        0.653340   1.000000
   28        0.992196   1.000000
   29        1.098257   1.000000
   30        1.290361   1.000000
   31        1.407559   1.000000
   32        1.771994   1.000000
   33        1.903437   1.000000
   34        2.196811   1.000000
   35        2.514667   1.000000
   36        2.667698   1.000000
   37        2.746336   1.000000
   38        3.009474   1.000000
   39        3.242793   1.000000
   40        3.282494   1.000000
   41        3.432652   1.000000
   42        3.828425   1.000000
   43        4.103607   1.000000
   44        4.298990   1.000000
   45        4.527124   1.000000
   46        4.881375   1.000000
   47        5.099515   1.000000
   48        5.255841   1.000000
   49        6.337657   1.000000
   50        6.966488   0.000000
   51        7.602548   0.000000
   52        8.287765   0.000000
   53        8.464252   0.000000
   54        9.009893   0.000000
   55        9.180108   0.000000
   56        9.747233   0.000000
   57       10.156685   0.000000
   58       10.261186   0.000000
   59       10.435978   0.000000
   60       10.700037   0.000000
   61       11.248484   0.000000
   62       11.976838   0.000000
   63       12.367072   0.000000
   64       12.871458   0.000000
   65       13.175032   0.000000
   66       13.266230   0.000000
   67       13.488964   0.000000
   68       13.565152   0.000000
   69       13.695426   0.000000
   70       13.901933   0.000000
   71       14.065207   0.000000
   72       14.102973   0.000000
 
  0.1666667E+00  0.4166667E+00  0.5000000E+00  0.2777778E-02
    1      -11.302084   1.000000
    2      -10.690679   1.000000
    3      -10.109158   1.000000
    4       -9.215777   1.000000
    5       -8.472624   1.000000
    6       -7.715087   1.000000
    7       -7.168490   1.000000
    8       -6.333963   1.000000
    9       -6.131821   1.000000
   10       -5.073444   1.000000
   11       -4.759420   1.000000
   12       -3.973983   1.000000
   13       -3.842137   1.000000
   14       -3.372443   1.000000
   15       -3.205395   1.000000
   16       -2.441769   1.000000
   17       -2.289193   1.000000
   18       -1.970090   1.000000
   19       -1.644584   1.000000
   20       -1.380903   1.000000
   21       -1.022387   1.000000
   22       -0.796848   1.000000
   23       -0.450865   1.000000
   24       -0.073289   1.000000
   25        0.241425   1.000000
   26        0.489369   1.000000
   27        0.798809   1.000000
   28        0.865265   1.000000
   29        1.129400   1.000000
   30        1.347100   1.000000
   31        1.415559   1.000000
   32        1.824366   1.000000
   33        2.150337   1.000000
   34        2.231468   1.000000
   35        2.594733   1.000000
   36        2.720805   1.000000
   37        2.818756   1.000000
   38        2.976257   1.000000
   39        3.201479   1.000000
   40        3.334597   1.000000
   41        3.485655   1.000000
   42        3.829826   1.000000
   43        3.960194   1.000000
   44        4.229211   1.000000
   45        4.529688   1.000000
   46        4.826415   1.000000
   47        5.046369   1.000000
   48        5.218393   1.000000
   49        6.445689   1.000000
   50        6.826717   0.000000
   51        7.569567   0.000000
   52        8.256922   0.000000
   53        8.623582   0.000000
   54        9.091303   0.000000
   55        9.259342   0.000000
   56        9.770065   0.000000
   57       10.034275   0.000000
   58       10.220971   0.000000
   59       10.457111   0.000000
   60       10.652620   0.000000
   61       11.265662   0.000000
   62       11.821010   0.000000
   63       12.074542   0.000000
   64       12.811065   0.000000
   65       13.141481   0.000000
   66       13.251120   0.000000
   67       13.443156   0.000000
   68       13.661856   0.000000
   69       13.844105   0.000000
   70       14.037234   0.000000
   71       14.077837   0.000000
   72       14.333042   0.000000
 
  0.3333333E+00  0.4166667E+00  0.5000000E+00  0.2777778E-02
    1      -11.306045   1.000000
    2      -10.705578   1.000000
    3      -10.047057   1.000000
    4       -9.314287   1.000000
    5       -8.269839   1.000000
    6       -7.869822   1.000000
    7       -7.204395   1.000000
    8       -6.372422   1.000000
    9       -6.132356   1.000000
   10       -5.081895   1.000000
   11       -4.669897   1.000000
   12       -4.138093   1.000000
   13       -3.803908   1.000000
   14       -3.132510   1.000000
   15       -2.899055   1.000000
   16       -2.484447   1.000000
   17       -2.191159   1.000000
   18       -1.962128   1.000000
   19       -1.672866   1.000000
   20       -1.496332   1.000000
   21       -1.372759   1.000000
   22       -0.959818   1.000000
   23       -0.671941   1.000000
   24       -0.367995   1.000000
   25        0.437863   1.000000
   26        0.524110   1.000000
   27        0.742918   1.000000
   28        1.106748   1.000000
   29        1.207853   1.000000
   30        1.378618   1.000000
   31        1.443194   1.000000
   32        1.850172   1.000000
   33        2.251268   1.000000
   34        2.332311   1.000000
   35        2.643897   1.000000
   36        2.714179   1.000000
   37        2.868543   1.000000
   38        3.039942   1.000000
   39        3.213384   1.000000
   40        3.419950   1.000000
   41        3.583300   1.000000
   42        3.759522   1.000000
   43        4.036409   1.000000
   44        4.183594   1.000000
   45        4.402663   1.000000
   46        4.708241   1.000000
   47        4.848828   1.000000
   48        5.127708   1.000000
   49        6.564211   1.000000
   50        6.781204   0.000000
   51        7.676164   0.000000
   52        8.195110   0.000000
   53        8.709285   0.000000
   54        9.175063   0.000000
   55        9.425669   0.000000
   56        9.707369   0.000000
   57        9.870110   0.000000
   58       10.243185   0.000000
   59       10.500154   0.000000
   60       10.703386   0.000000
   61       11.257480   0.000000
   62       11.317204   0.000000
   63       12.134942   0.000000
   64       12.798151   0.000000
   65       13.008843   0.000000
   66       13.203027   0.000000
   67       13.340081   0.000000
   68       13.679190   0.000000
   69       13.827950   0.000000
   70       14.097957   0.000000
   71       14.288790   0.000000
   72       14.480870   0.000000
 
  0.5000000E+00  0.4166667E+00  0.5000000E+00  0.2777778E-02
    1      -11.303771   1.000000
    2      -10.727175   1.000000
    3       -9.998220   1.000000
    4       -9.341235   1.000000
    5       -8.284590   1.000000
    6       -7.851894   1.000000
    7       -7.239510   1.000000
    8       -6.351396   1.000000
    9       -6.115784   1.000000
   10       -5.100753   1.000000
   11       -4.679623   1.000000
   12       -4.174168   1.000000
   13       -3.794882   1.000000
   14       -2.993855   1.000000
   15       -2.724761   1.000000
   16       -2.474162   1.000000
   17       -2.352160   1.000000
   18       -1.975824   1.000000
   19       -1.898272   1.000000
   20       -1.441783   1.000000
   21       -1.169338   1.000000
   22       -1.021499   1.000000
   23       -0.848472   1.000000
   24       -0.408350   1.000000
   25        0.342438   1.000000
   26        0.669606   1.000000
   27        0.800850   1.000000
   28        0.978915   1.000000
   29        1.256747   1.000000
   30        1.467200   1.000000
   31        1.609225   1.000000
   32        1.809567   1.000000
   33        2.227750   1.000000
   34        2.323093   1.000000
   35        2.485721   1.000000
   36        2.695906   1.000000
   37        2.795377   1.000000
   38        3.144180   1.000000
   39        3.240276   1.000000
   40        3.434655   1.000000
   41        3.741153   1.000000
   42        3.942464   1.000000
   43        4.028964   1.000000
   44        4.211581   1.000000
   45        4.389889   1.000000
   46        4.503930   1.000000
   47        4.667955   1.000000
   48        5.100546   1.000000
   49        6.538072   1.000000
   50        6.913838   0.000000
   51        7.824562   0.000000
   52        8.150776   0.000000
   53        8.653928   0.000000
   54        9.228685   0.000000
   55        9.324678   0.000000
   56        9.625207   0.000000
   57        9.995009   0.000000
   58       10.275655   0.000000
   59       10.495682   0.000000
   60       10.808829   0.000000
   61       11.066250   0.000000
   62       11.336419   0.000000
   63       12.169741   0.000000
   64       12.788452   0.000000
   65       13.034884   0.000000
   66       13.098694   0.000000
   67       13.369865   0.000000
   68       13.599944   0.000000
   69       13.776148   0.000000
   70       13.942408   0.000000
   71       14.300628   0.000000
   72       14.673999   0.000000
 
 -0.3333333E+00  0.4166667E+00  0.5000000E+00  0.2777778E-02
    1      -11.297353   1.000000
    2      -10.735924   1.000000
    3      -10.017482   1.000000
    4       -9.263275   1.000000
    5       -8.487032   1.000000
    6       -7.690727   1.000000
    7       -7.241479   1.000000
    8       -6.285158   1.000000
    9       -6.107177   1.000000
   10       -5.080066   1.000000
   11       -4.819818   1.000000
   12       -4.022044   1.000000
   13       -3.885342   1.000000
   14       -3.165270   1.000000
   15       -2.903264   1.000000
   16       -2.481068   1.000000
   17       -2.313274   1.000000
   18       -2.153215   1.000000
   19       -1.698789   1.000000
   20       -1.449662   1.000000
   21       -1.066701   1.000000
   22       -0.832996   1.000000
   23       -0.581719   1.000000
   24       -0.170156   1.000000
   25        0.259758   1.000000
   26        0.628469   1.000000
   27        0.681243   1.000000
   28        0.931594   1.000000
   29        1.227058   1.000000
   30        1.402066   1.000000
   31        1.549355   1.000000
   32        1.827380   1.000000
   33        2.043600   1.000000
   34        2.355224   1.000000
   35        2.430824   1.000000
   36        2.609538   1.000000
   37        2.897796   1.000000
   38        3.072466   1.000000
   39        3.202665   1.000000
   40        3.480385   1.000000
   41        3.579515   1.000000
   42        3.867824   1.000000
   43        4.076354   1.000000
   44        4.290846   1.000000
   45        4.383988   1.000000
   46        4.659962   1.000000
   47        4.785831   1.000000
   48        5.122875   1.000000
   49        6.450744   1.000000
   50        7.050431   0.000000
   51        7.994029   0.000000
   52        8.023073   0.000000
   53        8.498501   0.000000
   54        9.029532   0.000000
   55        9.305554   0.000000
   56        9.625751   0.000000
   57       10.190988   0.000000
   58       10.301199   0.000000
   59       10.531231   0.000000
   60       10.657926   0.000000
   61       11.217112   0.000000
   62       11.636372   0.000000
   63       12.149176   0.000000
   64       12.786480   0.000000
   65       13.043528   0.000000
   66       13.236946   0.000000
   67       13.334389   0.000000
   68       13.542300   0.000000
   69       13.741335   0.000000
   70       13.816961   0.000000
   71       14.230138   0.000000
   72       14.399324   0.000000
 
 -0.1666667E+00  0.4166667E+00  0.5000000E+00  0.2777778E-02
    1      -11.293249   1.000000
    2      -10.723519   1.000000
    3      -10.077918   1.000000
    4       -9.136461   1.000000
    5       -8.660767   1.000000
    6       -7.592525   1.000000
    7       -7.207200   1.000000
    8       -6.225523   1.000000
    9       -6.126085   1.000000
   10       -5.066544   1.000000
   11       -4.867429   1.000000
   12       -4.030256   1.000000
   13       -3.804703   1.000000
   14       -3.380369   1.000000
   15       -3.234967   1.000000
   16       -2.457008   1.000000
   17       -2.343599   1.000000
   18       -2.141144   1.000000
   19       -1.563523   1.000000
   20       -1.319830   1.000000
   21       -1.016245   1.000000
   22       -0.482110   1.000000
   23       -0.329587   1.000000
   24        0.024442   1.000000
   25        0.226496   1.000000
   26        0.446860   1.000000
   27        0.719282   1.000000
   28        0.854661   1.000000
   29        1.095485   1.000000
   30        1.210927   1.000000
   31        1.537014   1.000000
   32        1.814135   1.000000
   33        1.928890   1.000000
   34        2.233448   1.000000
   35        2.489762   1.000000
   36        2.631081   1.000000
   37        2.800249   1.000000
   38        3.074388   1.000000
   39        3.169217   1.000000
   40        3.338449   1.000000
   41        3.453157   1.000000
   42        3.811149   1.000000
   43        4.216735   1.000000
   44        4.304602   1.000000
   45        4.404910   1.000000
   46        4.851083   1.000000
   47        5.007647   1.000000
   48        5.186092   1.000000
   49        6.356902   1.000000
   50        7.072311   0.000000
   51        7.784949   0.000000
   52        8.215256   0.000000
   53        8.358637   0.000000
   54        8.976813   0.000000
   55        9.221267   0.000000
   56        9.705336   0.000000
   57       10.206022   0.000000
   58       10.315425   0.000000
   59       10.439347   0.000000
   60       10.723237   0.000000
   61       11.225746   0.000000
   62       12.042512   0.000000
   63       12.235315   0.000000
   64       12.820692   0.000000
   65       13.097174   0.000000
   66       13.237302   0.000000
   67       13.397160   0.000000
   68       13.525365   0.000000
   69       13.732533   0.000000
   70       13.965904   0.000000
   71       14.022183   0.000000
   72       14.159675   0.000000
 
  0.0000000E+00  0.5000000E+00  0.5000000E+00  0.1388889E-02
    1      -11.292156   1.000000
    2      -10.688389   1.000000
    3      -10.117795   1.000000
    4       -9.079961   1.000000
    5       -8.712729   1.000000
    6       -7.507884   1.000000
    7       -7.219651   1.000000
    8       -6.277800   1.000000
    9       -6.160829   1.000000
   10       -4.980432   1.000000
   11       -4.853371   1.000000
   12       -4.053592   1.000000
   13       -3.795302   1.000000
   14       -3.553586   1.000000
   15       -3.540980   1.000000
   16       -2.444432   1.000000
   17       -2.440572   1.000000
   18       -2.087698   1.000000
   19       -1.558748   1.000000
   20       -1.147004   1.000000
   21       -0.848601   1.000000
   22       -0.435101   1.000000
   23       -0.139805   1.000000
   24       -0.027080   1.000000
   25        0.234767   1.000000
   26        0.534477   1.000000
   27        0.561573   1.000000
   28        1.017829   1.000000
   29        1.160142   1.000000
   30        1.266016   1.000000
   31        1.655217   1.000000
   32        1.767907   1.000000
   33        1.773770   1.000000
   34        2.177169   1.000000
   35        2.329934   1.000000
   36        2.700996   1.000000
   37        2.772778   1.000000
   38        2.921977   1.000000
   39        3.230428   1.000000
   40        3.276275   1.000000
   41        3.605815   1.000000
   42        3.687205   1.000000
   43        4.143123   1.000000
   44        4.405890   1.000000
   45        4.594290   1.000000
   46        4.979812   1.000000
   47        5.102342   1.000000
   48        5.307115   1.000000
   49        6.269982   1.000000
   50        7.052420   0.000000
   51        7.514721   0.000000
   52        8.224732   0.000000
   53        8.550976   0.000000
   54        8.869659   0.000000
   55        9.155950   0.000000
   56        9.746716   0.000000
   57       10.073273   0.000000
   58       10.302476   0.000000
   59       10.399446   0.000000
   60       10.651213   0.000000
   61       11.235539   0.000000
   62       11.919792   0.000000
   63       12.480020   0.000000
   64       12.792251   0.000000
   65       13.142637   0.000000
   66       13.302302   0.000000
   67       13.514123   0.000000
   68       13.543351   0.000000
   69       13.700625   0.000000
   70       13.859110   0.000000
   71       13.962862   0.000000
   72       14.053354   0.000000
 
  0.1666667E+00  0.5000000E+00  0.5000000E+00  0.2777778E-02
    1      -11.293536   1.000000
    2      -10.698542   1.000000
    3      -10.084708   1.000000
    4       -9.174575   1.000000
    5       -8.588146   1.000000
    6       -7.570205   1.000000
    7       -7.224826   1.000000
    8       -6.312605   1.000000
    9       -6.164951   1.000000
   10       -5.014767   1.000000
   11       -4.818756   1.000000
   12       -4.056929   1.000000
   13       -3.816574   1.000000
   14       -3.471312   1.000000
   15       -3.354705   1.000000
   16       -2.437307   1.000000
   17       -2.381019   1.000000
   18       -2.113185   1.000000
   19       -1.568333   1.000000
   20       -1.263171   1.000000
   21       -0.969469   1.000000
   22       -0.638288   1.000000
   23       -0.538616   1.000000
   24        0.175498   1.000000
   25        0.385831   1.000000
   26        0.489239   1.000000
   27        0.704504   1.000000
   28        0.983490   1.000000
   29        1.196201   1.000000
   30        1.305480   1.000000
   31        1.627895   1.000000
   32        1.782280   1.000000
   33        1.869868   1.000000
   34        2.281065   1.000000
   35        2.424042   1.000000
   36        2.720886   1.000000
   37        2.796066   1.000000
   38        2.937649   1.000000
   39        3.212546   1.000000
   40        3.260100   1.000000
   41        3.587210   1.000000
   42        3.815952   1.000000
   43        4.119171   1.000000
   44        4.336064   1.000000
   45        4.496549   1.000000
   46        4.903687   1.000000
   47        5.029498   1.000000
   48        5.267960   1.000000
   49        6.340943   1.000000
   50        6.996571   0.000000
   51        7.600333   0.000000
   52        8.228274   0.000000
   53        8.494520   0.000000
   54        8.978038   0.000000
   55        9.168006   0.000000
   56        9.749973   0.000000
   57       10.142535   0.000000
   58       10.224611   0.000000
   59       10.401299   0.000000
   60       10.637081   0.000000
   61       11.225427   0.000000
   62       11.930266   0.000000
   63       12.133118   0.000000
   64       12.789270   0.000000
   65       13.118802   0.000000
   66       13.273194   0.000000
   67       13.427669   0.000000
   68       13.585331   0.000000
   69       13.802429   0.000000
   70       13.971516   0.000000
   71       14.081264   0.000000
   72       14.162102   0.000000
 
  0.3333333E+00  0.5000000E+00  0.5000000E+00  0.2777778E-02
    1      -11.296300   1.000000
    2      -10.716860   1.000000
    3      -10.013082   1.000000
    4       -9.311582   1.000000
    5       -8.363125   1.000000
    6       -7.731143   1.000000
    7       -7.233948   1.000000
    8       -6.377107   1.000000
    9       -6.172759   1.000000
   10       -5.090769   1.000000
   11       -4.724149   1.000000
   12       -3.987804   1.000000
   13       -3.944253   1.000000
   14       -3.221035   1.000000
   15       -2.958341   1.000000
   16       -2.446742   1.000000
   17       -2.253843   1.000000
   18       -2.187803   1.000000
   19       -1.667799   1.000000
   20       -1.506309   1.000000
   21       -1.209792   1.000000
   22       -0.939148   1.000000
   23       -0.755293   1.000000
   24       -0.212655   1.000000
   25        0.573356   1.000000
   26        0.676274   1.000000
   27        0.862420   1.000000
   28        1.172996   1.000000
   29        1.285577   1.000000
   30        1.336555   1.000000
   31        1.560176   1.000000
   32        1.822150   1.000000
   33        2.009430   1.000000
   34        2.373066   1.000000
   35        2.530584   1.000000
   36        2.710557   1.000000
   37        2.852622   1.000000
   38        3.023803   1.000000
   39        3.177137   1.000000
   40        3.455323   1.000000
   41        3.592752   1.000000
   42        3.952264   1.000000
   43        4.063312   1.000000
   44        4.160709   1.000000
   45        4.407410   1.000000
   46        4.692189   1.000000
   47        4.814288   1.000000
   48        5.214269   1.000000
   49        6.483425   1.000000
   50        6.870060   0.000000
   51        7.796291   0.000000
   52        8.111586   0.000000
   53        8.553352   0.000000
   54        9.123679   0.000000
   55        9.284316   0.000000
   56        9.701952   0.000000
   57       10.009497   0.000000
   58       10.240557   0.000000
   59       10.505517   0.000000
   60       10.625413   0.000000
   61       11.202654   0.000000
   62       11.446283   0.000000
   63       12.118759   0.000000
   64       12.783881   0.000000
   65       13.025008   0.000000
   66       13.218106   0.000000
   67       13.327655   0.000000
   68       13.669135   0.000000
   69       13.837987   0.000000
   70       14.020981   0.000000
   71       14.239845   0.000000
   72       14.391347   0.000000
 
  0.5000000E+00  0.5000000E+00  0.5000000E+00  0.1388889E-02
    1      -11.297683   1.000000
    2      -10.725203   1.000000
    3       -9.972475   1.000000
    4       -9.373660   1.000000
    5       -8.213051   1.000000
    6       -7.861449   1.000000
    7       -7.238162   1.000000
    8       -6.407422   1.000000
    9       -6.175904   1.000000
   10       -5.131652   1.000000
   11       -4.650016   1.000000
   12       -4.087672   1.000000
   13       -3.871997   1.000000
   14       -3.058906   1.000000
   15       -2.750420   1.000000
   16       -2.374202   1.000000
   17       -2.259914   1.000000
   18       -2.142191   1.000000
   19       -1.985718   1.000000
   20       -1.574345   1.000000
   21       -1.215072   1.000000
   22       -1.114868   1.000000
   23       -0.787598   1.000000
   24       -0.442023   1.000000
   25        0.688678   1.000000
   26        0.752560   1.000000
   27        0.880592   1.000000
   28        1.117007   1.000000
   29        1.346065   1.000000
   30        1.450296   1.000000
   31        1.630143   1.000000
   32        1.810990   1.000000
   33        2.074009   1.000000
   34        2.411710   1.000000
   35        2.538578   1.000000
   36        2.634014   1.000000
   37        2.893678   1.000000
   38        3.041071   1.000000
   39        3.261894   1.000000
   40        3.498126   1.000000
   41        3.728918   1.000000
   42        3.843936   1.000000
   43        4.101043   1.000000
   44        4.191005   1.000000
   45        4.396525   1.000000
   46        4.531656   1.000000
   47        4.620402   1.000000
   48        5.194577   1.000000
   49        6.581664   1.000000
   50        6.774944   0.000000
   51        7.918833   0.000000
   52        8.025881   0.000000
   53        8.582788   0.000000
   54        9.263265   0.000000
   55        9.376185   0.000000
   56        9.645953   0.000000
   57        9.833276   0.000000
   58       10.301669   0.000000
   59       10.474462   0.000000
   60       10.819323   0.000000
   61       10.986238   0.000000
   62       11.283500   0.000000
   63       12.151029   0.000000
   64       12.772728   0.000000
   65       13.024060   0.000000
   66       13.102672   0.000000
   67       13.381824   0.000000
   68       13.669965   0.000000
   69       13.811129   0.000000
   70       14.017809   0.000000
   71       14.349937   0.000000
   72       14.558389   0.000000
