       N       E                     dE             d eps       ncg     rms          rms(c)
DAV:   1     0.144420643712E+03    0.14442E+03   -0.41376E+04 52416   0.101E+03
DAV:   2    -0.215715965945E+03   -0.36014E+03   -0.35617E+03 73152   0.197E+02
DAV:   3    -0.223797555135E+03   -0.80816E+01   -0.80624E+01 76536   0.323E+01
DAV:   4    -0.223850808629E+03   -0.53253E-01   -0.53249E-01 72828   0.265E+00
DAV:   5    -0.223851626540E+03   -0.81791E-03   -0.81787E-03 76824   0.309E-01    0.210E+01
DAV:   6    -0.210889720627E+03    0.12962E+02   -0.25811E+01 76644   0.152E+01    0.110E+01
DAV:   7    -0.208594212304E+03    0.22955E+01   -0.66528E+00 77544   0.785E+00    0.528E+00
DAV:   8    -0.208524878079E+03    0.69334E-01   -0.54019E+00 78516   0.478E+00    0.316E+00
DAV:   9    -0.208342883133E+03    0.18199E+00   -0.64470E-01 75636   0.258E+00    0.147E+00
DAV:  10    -0.208325413661E+03    0.17469E-01   -0.41037E-01 78840   0.179E+00    0.749E-01
DAV:  11    -0.208323567912E+03    0.18457E-02   -0.17524E-01 75312   0.953E-01    0.321E-01
DAV:  12    -0.208322565493E+03    0.10024E-02   -0.14566E-02 77292   0.322E-01    0.859E-02
DAV:  13    -0.208322740933E+03   -0.17544E-03   -0.10308E-03 76572   0.106E-01    0.447E-02
DAV:  14    -0.208322736295E+03    0.46385E-05   -0.32820E-04 81684   0.446E-02    0.152E-02
DAV:  15    -0.208322744545E+03   -0.82505E-05   -0.58062E-05 78156   0.218E-02    0.497E-03
DAV:  16    -0.208322745168E+03   -0.62231E-06   -0.39488E-06 71640   0.727E-03    0.205E-03
DAV:  17    -0.208322744978E+03    0.18996E-06   -0.34302E-07 78624   0.207E-03    0.739E-04
DAV:  18    -0.208322744739E+03    0.23878E-06   -0.91280E-08 77076   0.903E-04    0.503E-04
DAV:  19    -0.208322744829E+03   -0.89827E-07   -0.14199E-08 64440   0.373E-04    0.229E-04
DAV:  20    -0.208322744895E+03   -0.66310E-07   -0.59602E-09 60804   0.202E-04    0.886E-05
DAV:  21    -0.208322744897E+03   -0.22028E-08   -0.61029E-10 54180   0.912E-05
   1 F= -.20832274E+03 E0= -.20832274E+03  d E =0.000000E+00
       N       E                     dE             d eps       ncg     rms          rms(c)
DAV:   1    -0.208322744900E+03   -0.46912E-08   -0.50735E-11 51804   0.281E-05    0.782E-05
DAV:   2    -0.208322744900E+03   -0.40745E-09   -0.10983E-11 49284   0.110E-05    0.781E-05
DAV:   3    -0.208322744899E+03    0.88039E-09   -0.43968E-12 47448   0.476E-06    0.780E-05
DAV:   4    -0.208322744901E+03   -0.10969E-08   -0.48380E-12 45180   0.303E-06    0.779E-05
DAV:   5    -0.208322744900E+03    0.29195E-09   -0.26941E-12 42696   0.117E-06    0.779E-05
DAV:   6    -0.208322744900E+03    0.41928E-09   -0.19132E-12 40860   0.534E-07
   2 F= -.20832274E+03 E0= -.20832274E+03  d E =0.000000E+00
       N       E                     dE             d eps       ncg     rms          rms(c)
DAV:   1    -0.208322744900E+03   -0.19918E-09   -0.13920E-12 39024   0.209E-07    0.779E-05
DAV:   2    -0.208322744900E+03    0.92587E-09   -0.17527E-12 37944   0.945E-08    0.779E-05
DAV:   3    -0.208322744900E+03   -0.47112E-09   -0.95930E-13 37188   0.524E-08    0.779E-05
DAV:   4    -0.208322744900E+03   -0.26012E-09   -0.13658E-12 36756   0.292E-08    0.779E-05
DAV:   5    -0.208322744900E+03    0.54570E-10   -0.15251E-12 34668   0.164E-08    0.779E-05
DAV:   6    -0.208322744900E+03    0.43474E-09   -0.18178E-12 34668   0.718E-09
   3 F= -.20832274E+03 E0= -.20832274E+03  d E =0.000000E+00
       N       E                     dE             d eps       ncg     rms          rms(c)
DAV:   1    -0.208322744900E+03    0.67121E-09   -0.35359E-12 33300   0.387E-09    0.779E-05
DAV:   2    -0.208322744900E+03   -0.70031E-09   -0.16948E-12 33552   0.181E-09    0.779E-05
DAV:   3    -0.208322744900E+03   -0.13097E-09   -0.11169E-12 33120   0.101E-09    0.779E-05
DAV:   4    -0.208322744900E+03    0.41473E-09   -0.24270E-12 32148   0.676E-10    0.779E-05
DAV:   5    -0.208322744900E+03   -0.41655E-09   -0.45162E-12 31680   0.461E-10    0.779E-05
DAV:   6    -0.208322744900E+03    0.78035E-09   -0.17971E-12 31176   0.277E-10
   4 F= -.20832274E+03 E0= -.20832274E+03  d E =0.000000E+00
       N       E                     dE             d eps       ncg     rms          rms(c)
DAV:   1    -0.208322744900E+03    0.36380E-11   -0.17544E-12 30780   0.269E-10    0.779E-05
DAV:   2    -0.208322744901E+03   -0.20918E-09   -0.29762E-12 30420   0.230E-10    0.779E-05
DAV:   3    -0.208322744900E+03    0.86220E-09   -0.12078E-12 30168   0.225E-10    0.779E-05
DAV:   4    -0.208322744901E+03   -0.89221E-09   -0.27216E-12 29916   0.244E-10    0.779E-05
DAV:   5    -0.208322744900E+03    0.74670E-09   -0.89267E-13 29880   0.235E-10    0.779E-05
DAV:   6    -0.208322744900E+03   -0.48021E-09   -0.22573E-12 29736   0.224E-10
   5 F= -.20832274E+03 E0= -.20832274E+03  d E =0.000000E+00
       N       E                     dE             d eps       ncg     rms          rms(c)
DAV:   1    -0.208322744900E+03   -0.34106E-09   -0.40248E-12 29592   0.231E-10    0.779E-05
DAV:   2    -0.208322744899E+03    0.77944E-09   -0.11540E-12 29484   0.170E-10    0.779E-05
DAV:   3    -0.208322744900E+03   -0.34379E-09   -0.35577E-12 29304   0.229E-10    0.779E-05
DAV:   4    -0.208322744899E+03    0.25921E-09   -0.27272E-12 29160   0.345E-10    0.779E-05
DAV:   5    -0.208322744899E+03    0.86402E-10   -0.94010E-13 29052   0.190E-10    0.779E-05
DAV:   6    -0.208322744900E+03   -0.71122E-09   -0.23722E-12 28980   0.238E-10
   6 F= -.20832274E+03 E0= -.20832274E+03  d E =0.000000E+00
       N       E                     dE             d eps       ncg     rms          rms(c)
DAV:   1    -0.208322744899E+03   -0.33651E-10   -0.25541E-12 28692   0.194E-10    0.779E-05
DAV:   2    -0.208322744900E+03   -0.82036E-09   -0.32658E-12 28584   0.497E-10    0.779E-05
DAV:   3    -0.208322744900E+03    0.64665E-09   -0.16786E-12 28584   0.387E-10    0.779E-05
DAV:   4    -0.208322744900E+03   -0.68030E-09   -0.35237E-12 27828   0.225E-10    0.779E-05
DAV:   5    -0.208322744900E+03    0.44565E-09   -0.22043E-12 28080   0.246E-10    0.779E-05
DAV:   6    -0.208322744900E+03    0.19827E-09   -0.35604E-12 27792   0.195E-10
   7 F= -.20832274E+03 E0= -.20832274E+03  d E =0.000000E+00
       N       E                     dE             d eps       ncg     rms          rms(c)
DAV:   1    -0.208322744900E+03   -0.54570E-10   -0.20103E-12 27756   0.190E-10    0.779E-05
DAV:   2    -0.208322744900E+03    0.14097E-09   -0.13021E-12 27576   0.168E-10    0.779E-05
DAV:   3    -0.208322744900E+03   -0.42655E-09   -0.34739E-12 27648   0.169E-10    0.779E-05
DAV:   4    -0.208322744900E+03   -0.32378E-09   -0.15664E-12 27396   0.210E-10    0.779E-05
DAV:   5    -0.208322744899E+03    0.10768E-08   -0.11469E-12 27504   0.185E-10    0.779E-05
DAV:   6    -0.208322744900E+03   -0.87311E-10   -0.39183E-12 27468   0.307E-10
   8 F= -.20832274E+03 E0= -.20832274E+03  d E =0.000000E+00
       N       E                     dE             d eps       ncg     rms          rms(c)
DAV:   1    -0.208322744900E+03   -0.24193E-09   -0.40241E-12 27504   0.157E-10    0.779E-05
DAV:   2    -0.208322744899E+03    0.18190E-09   -0.24019E-12 27504   0.244E-10    0.779E-05
DAV:   3    -0.208322744900E+03   -0.39654E-09   -0.20200E-12 27432   0.216E-10    0.779E-05
DAV:   4    -0.208322744900E+03   -0.34197E-09   -0.30171E-12 27396   0.173E-10    0.779E-05
DAV:   5    -0.208322744900E+03    0.44838E-09   -0.28878E-12 27252   0.180E-10    0.779E-05
DAV:   6    -0.208322744900E+03   -0.60390E-09   -0.37551E-12 27180   0.167E-10
   9 F= -.20832274E+03 E0= -.20832274E+03  d E =0.000000E+00
       N       E                     dE             d eps       ncg     rms          rms(c)
DAV:   1    -0.208322744900E+03   -0.11460E-09   -0.35171E-12 27108   0.188E-10    0.779E-05
DAV:   2    -0.208322744900E+03   -0.16280E-09   -0.18726E-12 27072   0.230E-10    0.779E-05
DAV:   3    -0.208322744900E+03    0.43747E-09   -0.31286E-12 27072   0.159E-10    0.779E-05
DAV:   4    -0.208322744900E+03   -0.18463E-09   -0.19838E-12 27072   0.189E-10    0.779E-05
DAV:   5    -0.208322744900E+03   -0.56389E-09   -0.21040E-12 27072   0.296E-10    0.779E-05
DAV:   6    -0.208322744900E+03    0.14916E-09   -0.14647E-12 27000   0.264E-10
  10 F= -.20832274E+03 E0= -.20832274E+03  d E =0.000000E+00
       N       E                     dE             d eps       ncg     rms          rms(c)
DAV:   1    -0.208322744900E+03    0.79308E-09   -0.14834E-12 26964   0.124E-10    0.779E-05
DAV:   2    -0.208322744900E+03   -0.53660E-10   -0.25145E-12 26892   0.263E-10    0.779E-05
DAV:   3    -0.208322744900E+03   -0.65847E-09   -0.19952E-12 26856   0.219E-10    0.779E-05
DAV:   4    -0.208322744900E+03    0.69031E-09   -0.12618E-12 26856   0.209E-10    0.779E-05
DAV:   5    -0.208322744900E+03   -0.14006E-09   -0.23726E-12 26856   0.141E-10    0.779E-05
DAV:   6    -0.208322744900E+03   -0.61846E-09   -0.24065E-12 26856   0.196E-10
  11 F= -.20832274E+03 E0= -.20832274E+03  d E =0.000000E+00
       N       E                     dE             d eps       ncg     rms          rms(c)
DAV:   1    -0.208322744900E+03   -0.20191E-09   -0.38948E-12 26856   0.230E-10    0.779E-05
DAV:   2    -0.208322744900E+03    0.25466E-10   -0.15013E-12 26856   0.278E-10    0.779E-05
DAV:   3    -0.208322744900E+03    0.18645E-09   -0.29864E-12 26856   0.208E-10    0.779E-05
DAV:   4    -0.208322744900E+03    0.89130E-10   -0.25200E-12 26856   0.289E-10    0.779E-05
DAV:   5    -0.208322744899E+03    0.12642E-09   -0.24880E-12 26820   0.259E-10    0.779E-05
DAV:   6    -0.208322744900E+03   -0.20918E-10   -0.19634E-12 26748   0.323E-10
  12 F= -.20832274E+03 E0= -.20832274E+03  d E =0.000000E+00
       N       E                     dE             d eps       ncg     rms          rms(c)
DAV:   1    -0.208322744900E+03   -0.97134E-09   -0.28069E-12 26748   0.230E-10    0.779E-05
DAV:   2    -0.208322744901E+03   -0.11005E-09   -0.20078E-12 26748   0.355E-10    0.779E-05
DAV:   3    -0.208322744900E+03    0.29468E-09   -0.35939E-12 26748   0.274E-10    0.779E-05
DAV:   4    -0.208322744900E+03    0.55570E-09   -0.25478E-12 26748   0.193E-10    0.779E-05
DAV:   5    -0.208322744901E+03   -0.85493E-09   -0.37007E-12 26676   0.229E-10    0.779E-05
DAV:   6    -0.208322744900E+03    0.96861E-09   -0.13026E-12 26604   0.213E-10
  13 F= -.20832274E+03 E0= -.20832274E+03  d E =0.000000E+00
       N       E                     dE             d eps       ncg     rms          rms(c)
DAV:   1    -0.208322744900E+03    0.24284E-09   -0.31816E-12 26640   0.294E-10    0.779E-05
DAV:   2    -0.208322744900E+03    0.45202E-09   -0.24872E-12 26604   0.310E-10    0.779E-05
DAV:   3    -0.208322744900E+03    0.96406E-10   -0.40084E-12 26640   0.256E-10    0.779E-05
DAV:   4    -0.208322744900E+03   -0.40109E-09   -0.17849E-12 26532   0.208E-10    0.779E-05
DAV:   5    -0.208322744900E+03   -0.23738E-09   -0.30969E-12 26532   0.210E-10    0.779E-05
DAV:   6    -0.208322744899E+03    0.10541E-08   -0.13155E-12 26496   0.202E-10
  14 F= -.20832274E+03 E0= -.20832274E+03  d E =0.000000E+00
       N       E                     dE             d eps       ncg     rms          rms(c)
DAV:   1    -0.208322744900E+03    0.48203E-09   -0.30825E-12 26532   0.172E-10    0.779E-05
DAV:   2    -0.208322744900E+03   -0.26739E-09   -0.35262E-12 26496   0.238E-10    0.779E-05
DAV:   3    -0.208322744900E+03    0.17099E-09   -0.15547E-12 26532   0.256E-10    0.779E-05
DAV:   4    -0.208322744900E+03    0.46384E-09   -0.39674E-12 26496   0.188E-10    0.779E-05
DAV:   5    -0.208322744900E+03   -0.56025E-09   -0.14420E-12 26460   0.245E-10    0.779E-05
DAV:   6    -0.208322744900E+03   -0.15552E-09   -0.32100E-12 26424   0.290E-10
  15 F= -.20832274E+03 E0= -.20832274E+03  d E =0.000000E+00
       N       E                     dE             d eps       ncg     rms          rms(c)
DAV:   1    -0.208322744900E+03    0.45475E-09   -0.23353E-12 26424   0.189E-10    0.779E-05
DAV:   2    -0.208322744899E+03    0.22555E-09   -0.31670E-12 26424   0.276E-10    0.779E-05
DAV:   3    -0.208322744900E+03   -0.24193E-09   -0.18427E-12 26424   0.204E-10    0.779E-05
DAV:   4    -0.208322744899E+03    0.33833E-09   -0.16300E-12 26424   0.244E-10    0.779E-05
DAV:   5    -0.208322744900E+03   -0.10277E-08   -0.19519E-12 26424   0.261E-10    0.779E-05
DAV:   6    -0.208322744900E+03    0.89312E-09   -0.28233E-12 26424   0.228E-10
  16 F= -.20832274E+03 E0= -.20832274E+03  d E =0.000000E+00
       N       E                     dE             d eps       ncg     rms          rms(c)
DAV:   1    -0.208322744900E+03   -0.17280E-10   -0.33323E-12 26424   0.154E-10    0.779E-05
DAV:   2    -0.208322744900E+03   -0.42746E-10   -0.35738E-12 26424   0.340E-10    0.779E-05
DAV:   3    -0.208322744899E+03    0.10132E-08   -0.17023E-12 26424   0.255E-10    0.779E-05
DAV:   4    -0.208322744900E+03   -0.73123E-09   -0.83548E-13 26388   0.259E-10    0.779E-05
DAV:   5    -0.208322744900E+03    0.33015E-09   -0.20975E-12 26424   0.208E-10    0.779E-05
DAV:   6    -0.208322744900E+03   -0.22283E-09   -0.21673E-12 26424   0.123E-10
  17 F= -.20832274E+03 E0= -.20832274E+03  d E =0.000000E+00
       N       E                     dE             d eps       ncg     rms          rms(c)
DAV:   1    -0.208322744900E+03    0.11732E-09   -0.35203E-12 26424   0.187E-10    0.779E-05
DAV:   2    -0.208322744900E+03   -0.28376E-09   -0.17463E-12 26424   0.229E-10    0.779E-05
DAV:   3    -0.208322744900E+03   -0.44565E-09   -0.31404E-12 26424   0.230E-10    0.779E-05
DAV:   4    -0.208322744900E+03    0.93769E-09   -0.36356E-12 26424   0.206E-10    0.779E-05
DAV:   5    -0.208322744900E+03   -0.42746E-10   -0.29920E-12 26424   0.228E-10    0.779E-05
DAV:   6    -0.208322744900E+03   -0.90677E-09   -0.35301E-12 26424   0.283E-10
  18 F= -.20832274E+03 E0= -.20832274E+03  d E =0.000000E+00
       N       E                     dE             d eps       ncg     rms          rms(c)
DAV:   1    -0.208322744900E+03   -0.16371E-09   -0.24523E-12 26424   0.320E-10    0.779E-05
DAV:   2    -0.208322744900E+03   -0.38381E-09   -0.21056E-12 26424   0.295E-10    0.779E-05
DAV:   3    -0.208322744900E+03    0.30741E-09   -0.15556E-12 26424   0.246E-10    0.779E-05
DAV:   4    -0.208322744900E+03    0.43656E-10   -0.20037E-12 26424   0.208E-10    0.779E-05
DAV:   5    -0.208322744900E+03   -0.18190E-09   -0.32243E-12 26424   0.181E-10    0.779E-05
DAV:   6    -0.208322744900E+03   -0.16553E-09   -0.14266E-12 26424   0.163E-10
  19 F= -.20832274E+03 E0= -.20832274E+03  d E =0.000000E+00
       N       E                     dE             d eps       ncg     rms          rms(c)
DAV:   1    -0.208322744900E+03    0.45475E-10   -0.22043E-12 26424   0.310E-10    0.779E-05
DAV:   2    -0.208322744899E+03    0.55479E-09   -0.32040E-12 26424   0.340E-10    0.779E-05
DAV:   3    -0.208322744900E+03   -0.27103E-09   -0.29396E-12 26424   0.234E-10    0.779E-05
DAV:   4    -0.208322744900E+03   -0.65029E-09   -0.34620E-12 26424   0.231E-10    0.779E-05
DAV:   5    -0.208322744900E+03    0.35470E-09   -0.42899E-12 26352   0.226E-10    0.779E-05
DAV:   6    -0.208322744900E+03   -0.38472E-09   -0.29128E-12 26316   0.239E-10
  20 F= -.20832274E+03 E0= -.20832274E+03  d E =0.000000E+00
       N       E                     dE             d eps       ncg     rms          rms(c)
DAV:   1    -0.208322744900E+03    0.23010E-09   -0.24359E-12 26316   0.168E-10    0.779E-05
DAV:   2    -0.208322744900E+03   -0.30559E-09   -0.24130E-12 26316   0.174E-10    0.779E-05
DAV:   3    -0.208322744900E+03    0.15461E-10   -0.25996E-12 26316   0.246E-10    0.779E-05
DAV:   4    -0.208322744901E+03   -0.58662E-09   -0.29161E-12 26316   0.193E-10    0.779E-05
DAV:   5    -0.208322744900E+03    0.14734E-09   -0.10582E-12 26316   0.249E-10    0.779E-05
DAV:   6    -0.208322744900E+03    0.37016E-09   -0.37087E-12 26316   0.232E-10
  21 F= -.20832274E+03 E0= -.20832274E+03  d E =0.000000E+00
       N       E                     dE             d eps       ncg     rms          rms(c)
DAV:   1    -0.208322744899E+03    0.93132E-09   -0.28447E-12 26316   0.138E-10    0.779E-05
DAV:   2    -0.208322744900E+03   -0.13097E-09   -0.24168E-12 26316   0.471E-10    0.779E-05
DAV:   3    -0.208322744899E+03    0.20009E-09   -0.14572E-12 26316   0.384E-10    0.779E-05
DAV:   4    -0.208322744900E+03   -0.75124E-09   -0.42695E-13 26316   0.259E-10    0.779E-05
DAV:   5    -0.208322744900E+03   -0.18917E-09   -0.19239E-12 26316   0.237E-10    0.779E-05
DAV:   6    -0.208322744900E+03   -0.41837E-10   -0.18839E-12 26316   0.218E-10
  22 F= -.20832274E+03 E0= -.20832274E+03  d E =0.000000E+00
       N       E                     dE             d eps       ncg     rms          rms(c)
DAV:   1    -0.208322744900E+03    0.90040E-10   -0.11359E-12 26316   0.220E-10    0.779E-05
DAV:   2    -0.208322744900E+03    0.58208E-09   -0.18027E-12 26316   0.404E-10    0.779E-05
DAV:   3    -0.208322744900E+03    0.18190E-11   -0.31770E-12 26316   0.308E-10    0.779E-05
DAV:   4    -0.208322744900E+03   -0.25375E-09   -0.22571E-12 26280   0.203E-10    0.779E-05
DAV:   5    -0.208322744900E+03    0.36380E-11   -0.27363E-12 26316   0.184E-10    0.779E-05
DAV:   6    -0.208322744899E+03    0.56207E-09   -0.41428E-12 26316   0.219E-10
  23 F= -.20832274E+03 E0= -.20832274E+03  d E =0.000000E+00
       N       E                     dE             d eps       ncg     rms          rms(c)
DAV:   1    -0.208322744900E+03   -0.12733E-10   -0.42565E-12 26316   0.272E-10    0.779E-05
DAV:   2    -0.208322744900E+03   -0.34925E-09   -0.23673E-12 26316   0.187E-10    0.779E-05
DAV:   3    -0.208322744899E+03    0.99317E-09   -0.29123E-12 26316   0.237E-10    0.779E-05
DAV:   4    -0.208322744900E+03   -0.49658E-09   -0.35614E-12 26316   0.289E-10    0.779E-05
DAV:   5    -0.208322744901E+03   -0.80036E-09   -0.33989E-12 26316   0.213E-10    0.779E-05
DAV:   6    -0.208322744900E+03    0.10550E-08   -0.28233E-12 26316   0.183E-10
  24 F= -.20832274E+03 E0= -.20832274E+03  d E =0.000000E+00
       N       E                     dE             d eps       ncg     rms          rms(c)
DAV:   1    -0.208322744900E+03    0.26284E-09   -0.26080E-12 26316   0.263E-10    0.779E-05
DAV:   2    -0.208322744900E+03    0.59026E-09   -0.24838E-12 26316   0.403E-10    0.779E-05
DAV:   3    -0.208322744900E+03    0.12187E-09   -0.30040E-12 26316   0.265E-10    0.779E-05
DAV:   4    -0.208322744900E+03   -0.56934E-09   -0.19518E-12 26280   0.197E-10    0.779E-05
DAV:   5    -0.208322744900E+03    0.32196E-09   -0.33080E-12 26316   0.188E-10    0.779E-05
DAV:   6    -0.208322744899E+03    0.36380E-09   -0.30914E-12 26316   0.163E-10
  25 F= -.20832274E+03 E0= -.20832274E+03  d E =0.000000E+00
       N       E                     dE             d eps       ncg     rms          rms(c)
DAV:   1    -0.208322744900E+03    0.11823E-10   -0.21448E-12 26316   0.169E-10    0.779E-05
DAV:   2    -0.208322744899E+03    0.38835E-09   -0.25003E-12 26316   0.220E-10    0.779E-05
DAV:   3    -0.208322744899E+03   -0.30923E-10   -0.11815E-12 26316   0.224E-10    0.779E-05
DAV:   4    -0.208322744900E+03   -0.25193E-09   -0.18413E-12 26316   0.179E-10    0.779E-05
DAV:   5    -0.208322744900E+03   -0.16098E-09   -0.94778E-13 26316   0.223E-10    0.779E-05
DAV:   6    -0.208322744899E+03    0.41473E-09   -0.28722E-12 26316   0.210E-10
  26 F= -.20832274E+03 E0= -.20832274E+03  d E =0.000000E+00
       N       E                     dE             d eps       ncg     rms          rms(c)
DAV:   1    -0.208322744900E+03   -0.48658E-09   -0.33150E-12 26316   0.261E-10    0.779E-05
DAV:   2    -0.208322744900E+03    0.13915E-09   -0.23522E-12 26316   0.378E-10    0.779E-05
DAV:   3    -0.208322744900E+03    0.65302E-09   -0.15472E-12 26316   0.335E-10    0.779E-05
DAV:   4    -0.208322744900E+03   -0.72214E-09   -0.21492E-12 26316   0.239E-10    0.779E-05
DAV:   5    -0.208322744901E+03   -0.22192E-09   -0.21327E-12 26316   0.204E-10    0.779E-05
DAV:   6    -0.208322744900E+03    0.27194E-09   -0.39653E-12 26316   0.182E-10
  27 F= -.20832274E+03 E0= -.20832274E+03  d E =0.000000E+00
       N       E                     dE             d eps       ncg     rms          rms(c)
DAV:   1    -0.208322744900E+03    0.10186E-09   -0.20669E-12 26316   0.207E-10    0.779E-05
DAV:   2    -0.208322744900E+03    0.81855E-10   -0.11156E-12 26316   0.204E-10    0.779E-05
DAV:   3    -0.208322744899E+03    0.99590E-09   -0.15893E-12 26316   0.192E-10    0.779E-05
DAV:   4    -0.208322744900E+03   -0.38835E-09   -0.97776E-13 26316   0.191E-10    0.779E-05
DAV:   5    -0.208322744901E+03   -0.76579E-09   -0.11592E-12 26316   0.188E-10    0.779E-05
DAV:   6    -0.208322744900E+03    0.58481E-09   -0.18315E-12 26316   0.286E-10
  28 F= -.20832274E+03 E0= -.20832274E+03  d E =0.000000E+00
       N       E                     dE             d eps       ncg     rms          rms(c)
DAV:   1    -0.208322744900E+03    0.92314E-09   -0.38348E-12 26316   0.281E-10    0.779E-05
DAV:   2    -0.208322744899E+03    0.17099E-09   -0.23886E-12 26316   0.425E-10    0.779E-05
DAV:   3    -0.208322744900E+03   -0.52751E-09   -0.26208E-13 26316   0.327E-10    0.779E-05
DAV:   4    -0.208322744900E+03    0.41109E-09   -0.21851E-12 26316   0.195E-10    0.779E-05
DAV:   5    -0.208322744900E+03   -0.22283E-09   -0.27046E-12 26316   0.200E-10    0.779E-05
DAV:   6    -0.208322744900E+03   -0.28376E-09   -0.34642E-12 26316   0.220E-10
  29 F= -.20832274E+03 E0= -.20832274E+03  d E =0.000000E+00
       N       E                     dE             d eps       ncg     rms          rms(c)
DAV:   1    -0.208322744900E+03   -0.73396E-09   -0.40027E-12 26316   0.157E-10    0.779E-05
DAV:   2    -0.208322744900E+03    0.94133E-09   -0.89677E-13 26316   0.400E-10    0.779E-05
DAV:   3    -0.208322744900E+03   -0.25011E-09   -0.17378E-12 26316   0.350E-10    0.779E-05
DAV:   4    -0.208322744901E+03   -0.71122E-09   -0.25077E-12 26280   0.248E-10    0.779E-05
DAV:   5    -0.208322744900E+03    0.50113E-09   -0.27320E-12 26316   0.222E-10    0.779E-05
DAV:   6    -0.208322744900E+03    0.12460E-09   -0.35908E-12 26316   0.236E-10
  30 F= -.20832274E+03 E0= -.20832274E+03  d E =0.000000E+00
       N       E                     dE             d eps       ncg     rms          rms(c)
DAV:   1    -0.208322744900E+03    0.44747E-09   -0.19788E-12 26316   0.357E-10    0.779E-05
DAV:   2    -0.208322744900E+03   -0.67485E-09   -0.35101E-12 26316   0.319E-10    0.779E-05
DAV:   3    -0.208322744900E+03    0.46293E-09   -0.19645E-12 26316   0.249E-10    0.779E-05
DAV:   4    -0.208322744899E+03    0.39108E-09   -0.19034E-12 26316   0.180E-10    0.779E-05
DAV:   5    -0.208322744900E+03   -0.73214E-09   -0.56020E-13 26316   0.271E-10    0.779E-05
DAV:   6    -0.208322744900E+03    0.58753E-09   -0.22311E-12 26316   0.192E-10
  31 F= -.20832274E+03 E0= -.20832274E+03  d E =0.000000E+00
       N       E                     dE             d eps       ncg     rms          rms(c)
DAV:   1    -0.208322744900E+03    0.43656E-09   -0.19463E-12 26316   0.216E-10    0.779E-05
DAV:   2    -0.208322744901E+03   -0.86038E-09   -0.30765E-12 26316   0.196E-10    0.779E-05
DAV:   3    -0.208322744900E+03    0.23374E-09   -0.22330E-12 26280   0.191E-10    0.779E-05
DAV:   4    -0.208322744899E+03    0.82218E-09   -0.15679E-12 26316   0.186E-10    0.779E-05
DAV:   5    -0.208322744900E+03   -0.55479E-10   -0.19664E-12 26280   0.290E-10    0.779E-05
DAV:   6    -0.208322744900E+03   -0.48749E-09   -0.35260E-12 26316   0.373E-10
  32 F= -.20832274E+03 E0= -.20832274E+03  d E =0.000000E+00
       N       E                     dE             d eps       ncg     rms          rms(c)
DAV:   1    -0.208322744899E+03    0.24374E-09   -0.25428E-12 26280   0.241E-10    0.779E-05
DAV:   2    -0.208322744900E+03   -0.52478E-09   -0.27144E-12 26316   0.351E-10    0.779E-05
DAV:   3    -0.208322744899E+03    0.49022E-09   -0.29945E-14 26316   0.271E-10    0.779E-05
DAV:   4    -0.208322744899E+03    0.00000E+00   -0.24025E-12 26280   0.157E-10    0.779E-05
DAV:   5    -0.208322744900E+03   -0.88312E-09   -0.26727E-12 26316   0.177E-10    0.779E-05
DAV:   6    -0.208322744900E+03    0.13370E-09   -0.18021E-12 26280   0.238E-10
  33 F= -.20832274E+03 E0= -.20832274E+03  d E =0.000000E+00
       N       E                     dE             d eps       ncg     rms          rms(c)
DAV:   1    -0.208322744900E+03    0.60663E-09   -0.27883E-12 26208   0.251E-10    0.779E-05
DAV:   2    -0.208322744900E+03   -0.62846E-09   -0.18828E-12 26208   0.244E-10    0.779E-05
DAV:   3    -0.208322744899E+03    0.88494E-09   -0.28993E-12 26208   0.201E-10    0.779E-05
DAV:   4    -0.208322744900E+03   -0.65120E-09   -0.13668E-12 26208   0.198E-10    0.779E-05
DAV:   5    -0.208322744900E+03   -0.44838E-09   -0.29847E-12 26208   0.222E-10    0.779E-05
DAV:   6    -0.208322744900E+03    0.59117E-10   -0.36679E-12 26208   0.313E-10
  34 F= -.20832274E+03 E0= -.20832274E+03  d E =0.000000E+00
       N       E                     dE             d eps       ncg     rms          rms(c)
DAV:   1    -0.208322744900E+03    0.26648E-09   -0.16569E-12 26208   0.216E-10    0.779E-05
DAV:   2    -0.208322744900E+03    0.14552E-10   -0.27431E-12 26208   0.351E-10    0.779E-05
DAV:   3    -0.208322744900E+03    0.11460E-09   -0.25345E-12 26208   0.228E-10    0.779E-05
DAV:   4    -0.208322744900E+03    0.37653E-09   -0.28382E-12 26208   0.207E-10    0.779E-05
DAV:   5    -0.208322744900E+03    0.14188E-09   -0.24621E-12 26208   0.210E-10    0.779E-05
DAV:   6    -0.208322744900E+03   -0.14825E-09   -0.26027E-12 26208   0.154E-10
  35 F= -.20832274E+03 E0= -.20832274E+03  d E =0.000000E+00
       N       E                     dE             d eps       ncg     rms          rms(c)
DAV:   1    -0.208322744900E+03   -0.20009E-10   -0.38984E-12 26208   0.141E-10    0.779E-05
DAV:   2    -0.208322744900E+03   -0.17371E-09   -0.33810E-12 26208   0.245E-10    0.779E-05
DAV:   3    -0.208322744900E+03   -0.12096E-09   -0.14463E-12 26208   0.210E-10    0.779E-05
DAV:   4    -0.208322744900E+03   -0.10186E-09   -0.19516E-12 26208   0.190E-10    0.779E-05
DAV:   5    -0.208322744900E+03   -0.47476E-09   -0.16494E-12 26208   0.200E-10    0.779E-05
DAV:   6    -0.208322744900E+03    0.67303E-10   -0.11040E-14 26208   0.162E-10
  36 F= -.20832274E+03 E0= -.20832274E+03  d E =0.000000E+00
       N       E                     dE             d eps       ncg     rms          rms(c)
DAV:   1    -0.208322744900E+03    0.72760E-09   -0.19122E-12 26208   0.142E-10    0.779E-05
DAV:   2    -0.208322744900E+03   -0.79308E-09   -0.33935E-12 26208   0.267E-10    0.779E-05
DAV:   3    -0.208322744900E+03    0.12369E-09   -0.77291E-13 26208   0.254E-10    0.779E-05
DAV:   4    -0.208322744900E+03    0.35016E-09   -0.29796E-12 26208   0.198E-10    0.779E-05
DAV:   5    -0.208322744900E+03   -0.34288E-09   -0.27382E-12 26208   0.249E-10    0.779E-05
DAV:   6    -0.208322744900E+03    0.25466E-09   -0.91368E-13 26208   0.220E-10
  37 F= -.20832274E+03 E0= -.20832274E+03  d E =0.000000E+00
       N       E                     dE             d eps       ncg     rms          rms(c)
DAV:   1    -0.208322744900E+03    0.76034E-09   -0.18838E-12 26208   0.213E-10    0.779E-05
DAV:   2    -0.208322744900E+03   -0.70031E-10   -0.25469E-12 26208   0.274E-10    0.779E-05
DAV:   3    -0.208322744900E+03    0.14825E-09   -0.16258E-12 26208   0.250E-10    0.779E-05
DAV:   4    -0.208322744900E+03   -0.74306E-09   -0.35752E-12 26208   0.178E-10    0.779E-05
DAV:   5    -0.208322744900E+03    0.73669E-10   -0.28193E-12 26208   0.164E-10    0.779E-05
DAV:   6    -0.208322744900E+03    0.14097E-09   -0.28144E-12 26208   0.225E-10
  38 F= -.20832274E+03 E0= -.20832274E+03  d E =0.000000E+00
       N       E                     dE             d eps       ncg     rms          rms(c)
DAV:   1    -0.208322744900E+03    0.96406E-10   -0.27382E-12 26208   0.200E-10    0.779E-05
DAV:   2    -0.208322744900E+03    0.53933E-09   -0.32756E-12 26208   0.215E-10    0.779E-05
DAV:   3    -0.208322744900E+03   -0.79126E-10   -0.38779E-12 26208   0.187E-10    0.779E-05
DAV:   4    -0.208322744900E+03   -0.17644E-09   -0.30134E-12 26208   0.166E-10    0.779E-05
DAV:   5    -0.208322744900E+03   -0.11096E-09   -0.39011E-12 26208   0.280E-10    0.779E-05
DAV:   6    -0.208322744900E+03    0.20555E-09   -0.27300E-12 26208   0.378E-10
  39 F= -.20832274E+03 E0= -.20832274E+03  d E =0.000000E+00
       N       E                     dE             d eps       ncg     rms          rms(c)
DAV:   1    -0.208322744900E+03    0.41837E-09   -0.24732E-12 26208   0.273E-10    0.779E-05
DAV:   2    -0.208322744900E+03   -0.31469E-09   -0.16754E-12 26208   0.278E-10    0.779E-05
DAV:   3    -0.208322744900E+03   -0.56025E-09   -0.32685E-12 26208   0.220E-10    0.779E-05
DAV:   4    -0.208322744900E+03    0.77853E-09   -0.26772E-12 26208   0.244E-10    0.779E-05
DAV:   5    -0.208322744900E+03   -0.68121E-09   -0.35601E-12 26208   0.257E-10    0.779E-05
DAV:   6    -0.208322744900E+03    0.33560E-09   -0.22041E-12 26208   0.181E-10
  40 F= -.20832274E+03 E0= -.20832274E+03  d E =0.000000E+00
       N       E                     dE             d eps       ncg     rms          rms(c)
DAV:   1    -0.208322744900E+03    0.75761E-09   -0.13263E-12 26208   0.250E-10    0.779E-05
DAV:   2    -0.208322744900E+03   -0.16371E-09   -0.20231E-12 26208   0.367E-10    0.779E-05
DAV:   3    -0.208322744900E+03   -0.41382E-09   -0.17285E-12 26208   0.235E-10    0.779E-05
DAV:   4    -0.208322744900E+03    0.26375E-09   -0.14054E-12 26208   0.201E-10    0.779E-05
DAV:   5    -0.208322744900E+03    0.88221E-10   -0.35548E-12 26208   0.198E-10    0.779E-05
DAV:   6    -0.208322744900E+03   -0.47112E-09   -0.37557E-12 26208   0.280E-10
  41 F= -.20832274E+03 E0= -.20832274E+03  d E =0.000000E+00
       N       E                     dE             d eps       ncg     rms          rms(c)
DAV:   1    -0.208322744900E+03   -0.51296E-09   -0.39597E-12 26208   0.269E-10    0.779E-05
DAV:   2    -0.208322744900E+03    0.59117E-09   -0.24900E-12 26208   0.346E-10    0.779E-05
DAV:   3    -0.208322744901E+03   -0.90949E-09   -0.36372E-12 26208   0.304E-10    0.779E-05
DAV:   4    -0.208322744900E+03    0.94951E-09   -0.17801E-12 26208   0.195E-10    0.779E-05
DAV:   5    -0.208322744900E+03    0.60027E-10   -0.11350E-12 26208   0.197E-10    0.779E-05
DAV:   6    -0.208322744900E+03   -0.73305E-09   -0.30581E-12 26208   0.212E-10
  42 F= -.20832274E+03 E0= -.20832274E+03  d E =0.000000E+00
       N       E                     dE             d eps       ncg     rms          rms(c)
DAV:   1    -0.208322744900E+03   -0.77125E-09   -0.22897E-12 26208   0.208E-10    0.779E-05
DAV:   2    -0.208322744899E+03    0.10177E-08   -0.24866E-12 26208   0.283E-10    0.779E-05
DAV:   3    -0.208322744901E+03   -0.12105E-08   -0.30730E-12 26208   0.271E-10    0.779E-05
DAV:   4    -0.208322744900E+03    0.10314E-08   -0.29774E-12 26208   0.232E-10    0.779E-05
DAV:   5    -0.208322744901E+03   -0.10095E-08   -0.21306E-12 26208   0.226E-10    0.779E-05
DAV:   6    -0.208322744900E+03    0.52387E-09   -0.45818E-12 26208   0.275E-10
  43 F= -.20832274E+03 E0= -.20832274E+03  d E =0.000000E+00
       N       E                     dE             d eps       ncg     rms          rms(c)
DAV:   1    -0.208322744900E+03    0.14552E-09   -0.11588E-12 26208   0.321E-10    0.779E-05
DAV:   2    -0.208322744900E+03    0.53660E-10   -0.18498E-12 26208   0.298E-10    0.779E-05
DAV:   3    -0.208322744900E+03    0.81036E-09   -0.37266E-12 26208   0.305E-10    0.779E-05
DAV:   4    -0.208322744899E+03    0.11914E-09   -0.20080E-12 26208   0.237E-10    0.779E-05
DAV:   5    -0.208322744900E+03   -0.74851E-09   -0.37066E-12 26208   0.196E-10    0.779E-05
DAV:   6    -0.208322744900E+03    0.14916E-09   -0.21346E-12 26208   0.239E-10
  44 F= -.20832274E+03 E0= -.20832274E+03  d E =0.000000E+00
       N       E                     dE             d eps       ncg     rms          rms(c)
DAV:   1    -0.208322744900E+03    0.46020E-09   -0.30492E-12 26208   0.183E-10    0.779E-05
DAV:   2    -0.208322744900E+03   -0.44656E-09   -0.35955E-12 26208   0.299E-10    0.779E-05
DAV:   3    -0.208322744900E+03    0.16644E-09   -0.92491E-13 26208   0.269E-10    0.779E-05
DAV:   4    -0.208322744900E+03   -0.11460E-09   -0.34676E-12 26208   0.204E-10    0.779E-05
DAV:   5    -0.208322744900E+03   -0.15189E-09   -0.39615E-12 26208   0.287E-10    0.779E-05
DAV:   6    -0.208322744899E+03    0.73032E-09   -0.32009E-12 26208   0.145E-10
  45 F= -.20832274E+03 E0= -.20832274E+03  d E =0.000000E+00
       N       E                     dE             d eps       ncg     rms          rms(c)
DAV:   1    -0.208322744900E+03    0.13370E-09   -0.31110E-12 26208   0.153E-10    0.779E-05
DAV:   2    -0.208322744900E+03    0.60027E-10   -0.40205E-12 26208   0.245E-10    0.779E-05
DAV:   3    -0.208322744900E+03   -0.33651E-10   -0.27477E-12 26208   0.169E-10    0.779E-05
DAV:   4    -0.208322744900E+03    0.51296E-09   -0.30611E-12 26208   0.175E-10    0.779E-05
DAV:   5    -0.208322744900E+03   -0.39108E-10   -0.39948E-12 26208   0.219E-10    0.779E-05
DAV:   6    -0.208322744900E+03   -0.62937E-09   -0.27759E-12 26208   0.151E-10
  46 F= -.20832274E+03 E0= -.20832274E+03  d E =0.000000E+00
       N       E                     dE             d eps       ncg     rms          rms(c)
DAV:   1    -0.208322744900E+03   -0.12005E-09   -0.32732E-12 26208   0.312E-10    0.779E-05
DAV:   2    -0.208322744900E+03   -0.75306E-09   -0.32528E-12 26208   0.319E-10    0.779E-05
DAV:   3    -0.208322744900E+03    0.36198E-09   -0.12371E-12 26208   0.272E-10    0.779E-05
DAV:   4    -0.208322744900E+03   -0.30832E-09   -0.20149E-12 26208   0.199E-10    0.779E-05
DAV:   5    -0.208322744900E+03    0.67939E-09   -0.35770E-12 26208   0.187E-10    0.779E-05
DAV:   6    -0.208322744900E+03    0.18190E-09   -0.23433E-12 26208   0.227E-10
  47 F= -.20832274E+03 E0= -.20832274E+03  d E =0.000000E+00
       N       E                     dE             d eps       ncg     rms          rms(c)
DAV:   1    -0.208322744900E+03   -0.13461E-09   -0.19661E-12 26208   0.216E-10    0.779E-05
DAV:   2    -0.208322744900E+03    0.30195E-09   -0.27207E-12 26208   0.166E-10    0.779E-05
DAV:   3    -0.208322744901E+03   -0.10259E-08   -0.26389E-12 26208   0.215E-10    0.779E-05
DAV:   4    -0.208322744900E+03    0.10677E-08   -0.20084E-12 26208   0.244E-10    0.779E-05
DAV:   5    -0.208322744900E+03   -0.83855E-09   -0.20130E-12 26208   0.213E-10    0.779E-05
DAV:   6    -0.208322744900E+03    0.25193E-09   -0.36289E-12 26208   0.167E-10
  48 F= -.20832274E+03 E0= -.20832274E+03  d E =0.000000E+00
       N       E                     dE             d eps       ncg     rms          rms(c)
DAV:   1    -0.208322744900E+03    0.72760E-09   -0.26362E-12 26208   0.221E-10    0.779E-05
DAV:   2    -0.208322744899E+03    0.23283E-09   -0.23093E-12 26208   0.256E-10    0.779E-05
DAV:   3    -0.208322744900E+03   -0.27649E-09   -0.54524E-15 26208   0.194E-10    0.779E-05
DAV:   4    -0.208322744900E+03   -0.16098E-09   -0.25784E-12 26208   0.280E-10    0.779E-05
DAV:   5    -0.208322744901E+03   -0.68303E-09   -0.16051E-12 26208   0.212E-10    0.779E-05
DAV:   6    -0.208322744900E+03    0.96225E-09   -0.25996E-12 26208   0.183E-10
  49 F= -.20832274E+03 E0= -.20832274E+03  d E =0.000000E+00
       N       E                     dE             d eps       ncg     rms          rms(c)
DAV:   1    -0.208322744901E+03   -0.67303E-10   -0.12326E-12 26208   0.218E-10    0.779E-05
DAV:   2    -0.208322744901E+03    0.52751E-10   -0.27958E-12 26208   0.496E-10    0.779E-05
DAV:   3    -0.208322744900E+03    0.77034E-09   -0.31093E-12 26208   0.337E-10    0.779E-05
DAV:   4    -0.208322744900E+03   -0.45384E-09   -0.57129E-13 26208   0.257E-10    0.779E-05
DAV:   5    -0.208322744900E+03    0.10004E-09   -0.27872E-12 26208   0.231E-10    0.779E-05
DAV:   6    -0.208322744900E+03    0.23465E-09   -0.24499E-12 26208   0.186E-10
  50 F= -.20832274E+03 E0= -.20832274E+03  d E =0.000000E+00
       N       E                     dE             d eps       ncg     rms          rms(c)
DAV:   1    -0.208322744900E+03    0.31105E-09   -0.29186E-12 26208   0.147E-10    0.779E-05
DAV:   2    -0.208322744900E+03    0.11642E-09   -0.33045E-12 26208   0.228E-10    0.779E-05
DAV:   3    -0.208322744900E+03   -0.25739E-09   -0.88055E-13 26208   0.225E-10    0.779E-05
DAV:   4    -0.208322744900E+03    0.13188E-09   -0.20820E-12 26208   0.260E-10    0.779E-05
DAV:   5    -0.208322744900E+03   -0.40018E-10   -0.35792E-12 26208   0.199E-10    0.779E-05
DAV:   6    -0.208322744900E+03   -0.20009E-09   -0.30946E-12 26208   0.158E-10
  51 F= -.20832274E+03 E0= -.20832274E+03  d E =0.000000E+00
       N       E                     dE             d eps       ncg     rms          rms(c)
DAV:   1    -0.208322744900E+03   -0.34015E-09   -0.38037E-12 26208   0.267E-10    0.779E-05
DAV:   2    -0.208322744899E+03    0.75124E-09   -0.10529E-12 26208   0.275E-10    0.779E-05
DAV:   3    -0.208322744900E+03   -0.54479E-09   -0.33280E-12 26208   0.271E-10    0.779E-05
DAV:   4    -0.208322744900E+03   -0.39745E-09   -0.27636E-12 26208   0.213E-10    0.779E-05
DAV:   5    -0.208322744900E+03    0.43656E-10   -0.36535E-12 26208   0.205E-10    0.779E-05
DAV:   6    -0.208322744900E+03    0.30923E-10   -0.42208E-12 26208   0.284E-10
  52 F= -.20832274E+03 E0= -.20832274E+03  d E =0.000000E+00
       N       E                     dE             d eps       ncg     rms          rms(c)
DAV:   1    -0.208322744900E+03    0.24374E-09   -0.35117E-12 26208   0.227E-10    0.779E-05
DAV:   2    -0.208322744900E+03    0.38381E-09   -0.19045E-12 26208   0.190E-10    0.779E-05
DAV:   3    -0.208322744900E+03   -0.40291E-09   -0.27570E-12 26208   0.196E-10    0.779E-05
DAV:   4    -0.208322744900E+03   -0.12005E-09   -0.15737E-12 26208   0.219E-10    0.779E-05
DAV:   5    -0.208322744899E+03    0.86220E-09   -0.16807E-12 26208   0.177E-10    0.779E-05
DAV:   6    -0.208322744899E+03    0.11823E-10   -0.32382E-12 26208   0.164E-10
  53 F= -.20832274E+03 E0= -.20832274E+03  d E =0.000000E+00
       N       E                     dE             d eps       ncg     rms          rms(c)
DAV:   1    -0.208322744900E+03   -0.41473E-09   -0.23562E-12 26208   0.244E-10    0.779E-05
DAV:   2    -0.208322744901E+03   -0.77489E-09   -0.32522E-12 26208   0.249E-10    0.779E-05
DAV:   3    -0.208322744900E+03    0.60481E-09   -0.48057E-13 26208   0.194E-10    0.779E-05
DAV:   4    -0.208322744899E+03    0.53660E-09   -0.27307E-12 26208   0.170E-10    0.779E-05
DAV:   5    -0.208322744900E+03   -0.36016E-09   -0.35540E-12 26208   0.216E-10    0.779E-05
DAV:   6    -0.208322744900E+03   -0.51841E-09   -0.17076E-12 26208   0.250E-10
  54 F= -.20832274E+03 E0= -.20832274E+03  d E =0.000000E+00
       N       E                     dE             d eps       ncg     rms          rms(c)
DAV:   1    -0.208322744900E+03   -0.68030E-09   -0.36923E-12 26208   0.151E-10    0.779E-05
DAV:   2    -0.208322744900E+03    0.93314E-09   -0.19060E-12 26208   0.280E-10    0.779E-05
DAV:   3    -0.208322744900E+03   -0.32742E-09   -0.35367E-12 26208   0.338E-10    0.779E-05
DAV:   4    -0.208322744900E+03    0.25648E-09   -0.16324E-12 26208   0.273E-10    0.779E-05
DAV:   5    -0.208322744900E+03   -0.78307E-09   -0.24044E-12 26208   0.179E-10    0.779E-05
DAV:   6    -0.208322744900E+03    0.73305E-09   -0.26716E-12 26208   0.230E-10
  55 F= -.20832274E+03 E0= -.20832274E+03  d E =0.000000E+00
       N       E                     dE             d eps       ncg     rms          rms(c)
DAV:   1    -0.208322744900E+03    0.30013E-10   -0.33915E-12 26208   0.173E-10    0.779E-05
DAV:   2    -0.208322744900E+03    0.32560E-09   -0.30238E-12 26208   0.194E-10    0.779E-05
DAV:   3    -0.208322744900E+03   -0.40382E-09   -0.39728E-12 26208   0.241E-10    0.779E-05
DAV:   4    -0.208322744900E+03    0.49840E-09   -0.25385E-12 26208   0.217E-10    0.779E-05
DAV:   5    -0.208322744900E+03   -0.10368E-09   -0.19735E-12 26208   0.218E-10    0.779E-05
DAV:   6    -0.208322744900E+03    0.19099E-10   -0.33050E-12 26208   0.189E-10
  56 F= -.20832274E+03 E0= -.20832274E+03  d E =0.000000E+00
       N       E                     dE             d eps       ncg     rms          rms(c)
DAV:   1    -0.208322744900E+03   -0.99135E-10   -0.19158E-12 26208   0.187E-10    0.779E-05
DAV:   2    -0.208322744900E+03   -0.25739E-09   -0.28310E-12 26208   0.208E-10    0.779E-05
DAV:   3    -0.208322744900E+03   -0.29104E-10   -0.20637E-12 26208   0.335E-10    0.779E-05
DAV:   4    -0.208322744900E+03    0.89403E-09   -0.92784E-13 26208   0.177E-10    0.779E-05
DAV:   5    -0.208322744900E+03   -0.61391E-09   -0.19015E-12 26208   0.365E-10    0.779E-05
DAV:   6    -0.208322744900E+03   -0.23829E-09   -0.33013E-12 26208   0.300E-10
  57 F= -.20832274E+03 E0= -.20832274E+03  d E =0.000000E+00
       N       E                     dE             d eps       ncg     rms          rms(c)
DAV:   1    -0.208322744900E+03    0.12733E-09   -0.32037E-12 26208   0.284E-10    0.779E-05
DAV:   2    -0.208322744900E+03    0.42473E-09   -0.11780E-12 26208   0.237E-10    0.779E-05
DAV:   3    -0.208322744900E+03   -0.27285E-09   -0.24807E-12 26208   0.266E-10    0.779E-05
DAV:   4    -0.208322744900E+03   -0.15916E-09   -0.18029E-12 26208   0.202E-10    0.779E-05
DAV:   5    -0.208322744900E+03   -0.31832E-09   -0.17838E-12 26208   0.151E-10    0.779E-05
DAV:   6    -0.208322744900E+03    0.58026E-09   -0.31373E-12 26208   0.257E-10
  58 F= -.20832274E+03 E0= -.20832274E+03  d E =0.000000E+00
       N       E                     dE             d eps       ncg     rms          rms(c)
DAV:   1    -0.208322744900E+03    0.52114E-09   -0.27894E-12 26208   0.211E-10    0.779E-05
DAV:   2    -0.208322744901E+03   -0.74670E-09   -0.20791E-12 26208   0.231E-10    0.779E-05
DAV:   3    -0.208322744901E+03    0.41837E-10   -0.42431E-13 26208   0.199E-10    0.779E-05
DAV:   4    -0.208322744900E+03    0.48021E-09   -0.23829E-12 26208   0.251E-10    0.779E-05
DAV:   5    -0.208322744900E+03   -0.65484E-10   -0.20695E-12 26208   0.291E-10    0.779E-05
DAV:   6    -0.208322744900E+03   -0.28740E-09   -0.17999E-12 26208   0.223E-10
  59 F= -.20832274E+03 E0= -.20832274E+03  d E =0.000000E+00
       N       E                     dE             d eps       ncg     rms          rms(c)
DAV:   1    -0.208322744900E+03    0.48749E-09   -0.36387E-12 26208   0.156E-10    0.779E-05
DAV:   2    -0.208322744900E+03   -0.16917E-09   -0.47729E-12 26208   0.351E-10    0.779E-05
DAV:   3    -0.208322744901E+03   -0.80036E-09   -0.12717E-12 26208   0.307E-10    0.779E-05
DAV:   4    -0.208322744900E+03    0.72487E-09   -0.17044E-12 26208   0.199E-10    0.779E-05
DAV:   5    -0.208322744900E+03    0.11823E-10   -0.30614E-12 26208   0.249E-10    0.779E-05
DAV:   6    -0.208322744900E+03   -0.17099E-09   -0.16165E-12 26208   0.220E-10
  60 F= -.20832274E+03 E0= -.20832274E+03  d E =0.000000E+00
       N       E                     dE             d eps       ncg     rms          rms(c)
DAV:   1    -0.208322744900E+03   -0.41018E-09   -0.20378E-12 26208   0.219E-10    0.779E-05
DAV:   2    -0.208322744900E+03    0.14097E-09   -0.27019E-12 26208   0.299E-10    0.779E-05
DAV:   3    -0.208322744900E+03    0.33651E-09   -0.29316E-12 26208   0.267E-10    0.779E-05
DAV:   4    -0.208322744900E+03   -0.46202E-09   -0.16456E-12 26208   0.183E-10    0.779E-05
DAV:   5    -0.208322744900E+03    0.60572E-09   -0.23775E-12 26208   0.209E-10    0.779E-05
DAV:   6    -0.208322744900E+03   -0.54479E-09   -0.30653E-12 26208   0.329E-10
  61 F= -.20832274E+03 E0= -.20832274E+03  d E =0.000000E+00
       N       E                     dE             d eps       ncg     rms          rms(c)
DAV:   1    -0.208322744900E+03   -0.67212E-09   -0.10940E-12 26208   0.302E-10    0.779E-05
DAV:   2    -0.208322744900E+03    0.12369E-09   -0.40952E-12 26208   0.207E-10    0.779E-05
DAV:   3    -0.208322744899E+03    0.69576E-09   -0.26220E-12 26208   0.284E-10    0.779E-05
DAV:   4    -0.208322744900E+03   -0.83128E-09   -0.21401E-12 26208   0.229E-10    0.779E-05
DAV:   5    -0.208322744900E+03    0.25284E-09   -0.25349E-12 26208   0.200E-10    0.779E-05
DAV:   6    -0.208322744900E+03   -0.34652E-09   -0.20933E-12 26208   0.186E-10
  62 F= -.20832274E+03 E0= -.20832274E+03  d E =0.000000E+00
       N       E                     dE             d eps       ncg     rms          rms(c)
DAV:   1    -0.208322744900E+03   -0.23465E-09   -0.11729E-12 26208   0.240E-10    0.779E-05
DAV:   2    -0.208322744900E+03    0.43656E-10   -0.19055E-12 26208   0.311E-10    0.779E-05
DAV:   3    -0.208322744900E+03   -0.74579E-10   -0.17914E-12 26208   0.167E-10    0.779E-05
DAV:   4    -0.208322744900E+03   -0.10368E-09   -0.17939E-12 26208   0.190E-10    0.779E-05
DAV:   5    -0.208322744901E+03   -0.60027E-10   -0.16798E-12 26208   0.194E-10    0.779E-05
DAV:   6    -0.208322744899E+03    0.10214E-08   -0.11713E-12 26208   0.229E-10
  63 F= -.20832274E+03 E0= -.20832274E+03  d E =0.000000E+00
       N       E                     dE             d eps       ncg     rms          rms(c)
DAV:   1    -0.208322744900E+03    0.32378E-09   -0.27871E-12 26208   0.211E-10    0.779E-05
DAV:   2    -0.208322744900E+03   -0.21373E-09   -0.20733E-12 26208   0.257E-10    0.779E-05
DAV:   3    -0.208322744900E+03    0.45748E-09   -0.20082E-12 26208   0.219E-10    0.779E-05
DAV:   4    -0.208322744900E+03   -0.19099E-09   -0.38403E-12 26208   0.259E-10    0.779E-05
DAV:   5    -0.208322744900E+03    0.41109E-09   -0.36717E-12 26208   0.255E-10    0.779E-05
DAV:   6    -0.208322744900E+03   -0.66757E-09   -0.22227E-12 26208   0.269E-10
  64 F= -.20832274E+03 E0= -.20832274E+03  d E =0.000000E+00
       N       E                     dE             d eps       ncg     rms          rms(c)
DAV:   1    -0.208322744900E+03   -0.37653E-09   -0.13568E-12 26208   0.246E-10    0.779E-05
DAV:   2    -0.208322744900E+03   -0.20009E-10   -0.36516E-12 26208   0.231E-10    0.779E-05
DAV:   3    -0.208322744900E+03   -0.21100E-09   -0.26952E-12 26208   0.232E-10    0.779E-05
DAV:   4    -0.208322744900E+03    0.18190E-11   -0.24615E-12 26208   0.206E-10    0.779E-05
DAV:   5    -0.208322744899E+03    0.88039E-09   -0.28231E-12 26208   0.149E-10    0.779E-05
DAV:   6    -0.208322744900E+03   -0.73487E-09   -0.34530E-12 26208   0.178E-10
  65 F= -.20832274E+03 E0= -.20832274E+03  d E =0.000000E+00
       N       E                     dE             d eps       ncg     rms          rms(c)
DAV:   1    -0.208322744900E+03   -0.94224E-09   -0.33297E-12 26208   0.190E-10    0.779E-05
DAV:   2    -0.208322744901E+03   -0.14006E-09   -0.28820E-12 26208   0.185E-10    0.779E-05
DAV:   3    -0.208322744900E+03    0.32560E-09   -0.33269E-12 26208   0.171E-10    0.779E-05
DAV:   4    -0.208322744900E+03    0.50932E-10   -0.24136E-12 26208   0.201E-10    0.779E-05
DAV:   5    -0.208322744900E+03    0.15280E-09   -0.21217E-12 26208   0.172E-10    0.779E-05
DAV:   6    -0.208322744900E+03    0.25830E-09   -0.19992E-12 26208   0.211E-10
  66 F= -.20832274E+03 E0= -.20832274E+03  d E =0.000000E+00
       N       E                     dE             d eps       ncg     rms          rms(c)
DAV:   1    -0.208322744899E+03    0.52751E-09   -0.23836E-12 26208   0.193E-10    0.779E-05
DAV:   2    -0.208322744899E+03    0.44565E-10   -0.15948E-12 26208   0.445E-10    0.779E-05
DAV:   3    -0.208322744899E+03   -0.48203E-10    0.10271E-12 26208   0.333E-10    0.779E-05
DAV:   4    -0.208322744900E+03   -0.13006E-09   -0.20212E-12 26208   0.197E-10    0.779E-05
DAV:   5    -0.208322744899E+03    0.30468E-09   -0.16563E-12 26208   0.187E-10    0.779E-05
DAV:   6    -0.208322744900E+03   -0.42564E-09   -0.27018E-12 26208   0.173E-10
  67 F= -.20832274E+03 E0= -.20832274E+03  d E =0.000000E+00
       N       E                     dE             d eps       ncg     rms          rms(c)
DAV:   1    -0.208322744900E+03   -0.35106E-09   -0.23473E-12 26208   0.190E-10    0.779E-05
DAV:   2    -0.208322744900E+03   -0.61846E-09   -0.32744E-12 26208   0.168E-10    0.779E-05
DAV:   3    -0.208322744900E+03    0.46202E-09   -0.35323E-12 26208   0.198E-10    0.779E-05
DAV:   4    -0.208322744900E+03    0.18190E-10   -0.12299E-12 26208   0.226E-10    0.779E-05
DAV:   5    -0.208322744900E+03   -0.75488E-10   -0.35550E-12 26208   0.285E-10    0.779E-05
DAV:   6    -0.208322744900E+03    0.22555E-09   -0.44584E-13 26208   0.381E-10
  68 F= -.20832274E+03 E0= -.20832274E+03  d E =0.000000E+00
       N       E                     dE             d eps       ncg     rms          rms(c)
DAV:   1    -0.208322744899E+03    0.38290E-09   -0.27407E-12 26208   0.217E-10    0.779E-05
DAV:   2    -0.208322744900E+03   -0.10823E-09   -0.32897E-12 26208   0.246E-10    0.779E-05
DAV:   3    -0.208322744900E+03   -0.79399E-09   -0.25142E-12 26208   0.235E-10    0.779E-05
DAV:   4    -0.208322744900E+03    0.21646E-09   -0.12873E-12 26208   0.189E-10    0.779E-05
DAV:   5    -0.208322744899E+03    0.72396E-09   -0.25513E-12 26208   0.166E-10    0.779E-05
DAV:   6    -0.208322744899E+03   -0.50932E-10   -0.67385E-13 26208   0.179E-10
  69 F= -.20832274E+03 E0= -.20832274E+03  d E =0.000000E+00
       N       E                     dE             d eps       ncg     rms          rms(c)
DAV:   1    -0.208322744899E+03    0.11096E-09   -0.18875E-12 26208   0.196E-10    0.779E-05
DAV:   2    -0.208322744900E+03   -0.30741E-09   -0.27090E-12 26208   0.222E-10    0.779E-05
DAV:   3    -0.208322744900E+03   -0.56207E-09   -0.18093E-12 26208   0.229E-10    0.779E-05
DAV:   4    -0.208322744900E+03   -0.17280E-10   -0.21540E-12 26208   0.228E-10    0.779E-05
DAV:   5    -0.208322744899E+03    0.76307E-09   -0.26390E-12 26208   0.227E-10    0.779E-05
DAV:   6    -0.208322744900E+03   -0.20646E-09   -0.20357E-12 26208   0.229E-10
  70 F= -.20832274E+03 E0= -.20832274E+03  d E =0.000000E+00
       N       E                     dE             d eps       ncg     rms          rms(c)
DAV:   1    -0.208322744900E+03   -0.19645E-09   -0.26269E-12 26208   0.214E-10    0.779E-05
DAV:   2    -0.208322744900E+03    0.14916E-09   -0.12876E-12 26208   0.177E-10    0.779E-05
DAV:   3    -0.208322744900E+03   -0.41655E-09   -0.20155E-12 26208   0.210E-10    0.779E-05
DAV:   4    -0.208322744900E+03   -0.49658E-09   -0.29020E-12 26208   0.259E-10    0.779E-05
DAV:   5    -0.208322744900E+03    0.57298E-09   -0.15305E-12 26208   0.205E-10    0.779E-05
DAV:   6    -0.208322744900E+03   -0.42928E-09   -0.13256E-12 26208   0.154E-10
  71 F= -.20832274E+03 E0= -.20832274E+03  d E =0.000000E+00
       N       E                     dE             d eps       ncg     rms          rms(c)
DAV:   1    -0.208322744900E+03    0.27831E-09   -0.32798E-12 26208   0.256E-10    0.779E-05
DAV:   2    -0.208322744900E+03   -0.50022E-09   -0.31139E-12 26208   0.179E-10    0.779E-05
DAV:   3    -0.208322744900E+03   -0.17553E-09   -0.19446E-12 26208   0.238E-10    0.779E-05
DAV:   4    -0.208322744900E+03   -0.69122E-10   -0.28042E-12 26208   0.256E-10    0.779E-05
DAV:   5    -0.208322744900E+03    0.62482E-09   -0.30442E-12 26208   0.202E-10    0.779E-05
DAV:   6    -0.208322744900E+03    0.17462E-09   -0.44286E-12 26208   0.231E-10
  72 F= -.20832274E+03 E0= -.20832274E+03  d E =0.000000E+00
       N       E                     dE             d eps       ncg     rms          rms(c)
DAV:   1    -0.208322744899E+03    0.31287E-09   -0.15530E-12 26208   0.218E-10    0.779E-05
DAV:   2    -0.208322744901E+03   -0.11760E-08   -0.26088E-12 26208   0.257E-10    0.779E-05
DAV:   3    -0.208322744900E+03    0.70668E-09   -0.27109E-12 26208   0.255E-10    0.779E-05
DAV:   4    -0.208322744900E+03    0.20555E-09   -0.20841E-12 26208   0.210E-10    0.779E-05
DAV:   5    -0.208322744900E+03   -0.33288E-09   -0.10625E-12 26208   0.191E-10    0.779E-05
DAV:   6    -0.208322744900E+03    0.38017E-09   -0.31637E-12 26208   0.239E-10
  73 F= -.20832274E+03 E0= -.20832274E+03  d E =0.000000E+00
       N       E                     dE             d eps       ncg     rms          rms(c)
DAV:   1    -0.208322744900E+03    0.12733E-09   -0.16305E-12 26208   0.227E-10    0.779E-05
DAV:   2    -0.208322744900E+03   -0.52933E-09   -0.73216E-13 26208   0.236E-10    0.779E-05
DAV:   3    -0.208322744900E+03   -0.47294E-10   -0.21626E-12 26208   0.265E-10    0.779E-05
DAV:   4    -0.208322744901E+03   -0.13733E-09   -0.28238E-12 26208   0.252E-10    0.779E-05
DAV:   5    -0.208322744899E+03    0.12515E-08   -0.23632E-12 26208   0.243E-10    0.779E-05
DAV:   6    -0.208322744900E+03   -0.67485E-09   -0.21398E-12 26208   0.264E-10
  74 F= -.20832274E+03 E0= -.20832274E+03  d E =0.000000E+00
       N       E                     dE             d eps       ncg     rms          rms(c)
DAV:   1    -0.208322744900E+03   -0.49749E-09   -0.24982E-12 26208   0.377E-10    0.779E-05
DAV:   2    -0.208322744900E+03   -0.66484E-09   -0.39125E-12 26208   0.364E-10    0.779E-05
DAV:   3    -0.208322744900E+03    0.66120E-09   -0.11434E-12 26208   0.234E-10    0.779E-05
DAV:   4    -0.208322744900E+03    0.11642E-09   -0.25276E-12 26208   0.181E-10    0.779E-05
DAV:   5    -0.208322744900E+03   -0.26557E-09   -0.26637E-12 26208   0.202E-10    0.779E-05
DAV:   6    -0.208322744900E+03    0.40018E-10   -0.28260E-12 26208   0.214E-10
  75 F= -.20832274E+03 E0= -.20832274E+03  d E =0.000000E+00
       N       E                     dE             d eps       ncg     rms          rms(c)
DAV:   1    -0.208322744900E+03    0.34197E-09   -0.20678E-12 26208   0.190E-10    0.779E-05
DAV:   2    -0.208322744900E+03   -0.36380E-11   -0.17698E-12 26208   0.189E-10    0.779E-05
DAV:   3    -0.208322744900E+03   -0.29740E-09   -0.13402E-12 26208   0.247E-10    0.779E-05
DAV:   4    -0.208322744899E+03    0.53024E-09   -0.13542E-12 26208   0.241E-10    0.779E-05
DAV:   5    -0.208322744900E+03   -0.66757E-09   -0.13599E-12 26208   0.232E-10    0.779E-05
DAV:   6    -0.208322744900E+03    0.23283E-09   -0.38000E-12 26208   0.250E-10
  76 F= -.20832274E+03 E0= -.20832274E+03  d E =0.000000E+00
       N       E                     dE             d eps       ncg     rms          rms(c)
DAV:   1    -0.208322744900E+03    0.11278E-09   -0.17427E-12 26208   0.182E-10    0.779E-05
DAV:   2    -0.208322744900E+03    0.26193E-09   -0.12972E-12 26208   0.200E-10    0.779E-05
DAV:   3    -0.208322744900E+03   -0.56025E-09   -0.40927E-12 26208   0.221E-10    0.779E-05
DAV:   4    -0.208322744900E+03    0.44747E-09   -0.35447E-12 26208   0.224E-10    0.779E-05
DAV:   5    -0.208322744900E+03   -0.36198E-09   -0.20335E-12 26208   0.242E-10    0.779E-05
DAV:   6    -0.208322744900E+03    0.51296E-09   -0.23094E-12 26208   0.208E-10
  77 F= -.20832274E+03 E0= -.20832274E+03  d E =0.000000E+00
       N       E                     dE             d eps       ncg     rms          rms(c)
DAV:   1    -0.208322744900E+03    0.49113E-10   -0.34806E-12 26208   0.179E-10    0.779E-05
DAV:   2    -0.208322744900E+03   -0.29468E-09   -0.15527E-12 26208   0.247E-10    0.779E-05
DAV:   3    -0.208322744900E+03   -0.48203E-10   -0.29392E-12 26208   0.206E-10    0.779E-05
DAV:   4    -0.208322744900E+03    0.37380E-09   -0.27090E-12 26208   0.197E-10    0.779E-05
DAV:   5    -0.208322744900E+03    0.33651E-09   -0.17206E-12 26208   0.256E-10    0.779E-05
DAV:   6    -0.208322744899E+03    0.33288E-09   -0.13566E-12 26208   0.239E-10
  78 F= -.20832274E+03 E0= -.20832274E+03  d E =0.000000E+00
       N       E                     dE             d eps       ncg     rms          rms(c)
DAV:   1    -0.208322744900E+03   -0.42564E-09   -0.13074E-12 26208   0.292E-10    0.779E-05
DAV:   2    -0.208322744900E+03    0.20918E-09   -0.44949E-12 26208   0.298E-10    0.779E-05
DAV:   3    -0.208322744900E+03    0.36471E-09   -0.32012E-12 26208   0.193E-10    0.779E-05
DAV:   4    -0.208322744900E+03   -0.28831E-09   -0.28291E-12 26208   0.197E-10    0.779E-05
DAV:   5    -0.208322744901E+03   -0.66029E-09   -0.20484E-12 26208   0.187E-10    0.779E-05
DAV:   6    -0.208322744900E+03    0.47476E-09   -0.26014E-12 26208   0.200E-10
  79 F= -.20832274E+03 E0= -.20832274E+03  d E =0.000000E+00
       N       E                     dE             d eps       ncg     rms          rms(c)
DAV:   1    -0.208322744899E+03    0.11605E-08   -0.31032E-12 26208   0.168E-10    0.779E-05
DAV:   2    -0.208322744900E+03   -0.33288E-09   -0.34324E-12 26208   0.406E-10    0.779E-05
DAV:   3    -0.208322744900E+03   -0.89130E-10   -0.18322E-12 26208   0.348E-10    0.779E-05
DAV:   4    -0.208322744900E+03   -0.31196E-09   -0.26563E-12 26208   0.235E-10    0.779E-05
DAV:   5    -0.208322744900E+03    0.54297E-09   -0.25146E-12 26208   0.195E-10    0.779E-05
DAV:   6    -0.208322744900E+03   -0.74579E-09   -0.30710E-12 26208   0.215E-10
  80 F= -.20832274E+03 E0= -.20832274E+03  d E =0.000000E+00
       N       E                     dE             d eps       ncg     rms          rms(c)
DAV:   1    -0.208322744900E+03   -0.10732E-09   -0.10145E-12 26208   0.334E-10    0.779E-05
DAV:   2    -0.208322744900E+03    0.76398E-10   -0.40071E-12 26208   0.262E-10    0.779E-05
DAV:   3    -0.208322744899E+03    0.29831E-09   -0.37269E-12 26208   0.185E-10    0.779E-05
DAV:   4    -0.208322744900E+03   -0.84765E-09   -0.14116E-12 26208   0.228E-10    0.779E-05
DAV:   5    -0.208322744900E+03    0.25102E-09   -0.25708E-12 26208   0.151E-10    0.779E-05
DAV:   6    -0.208322744900E+03   -0.18190E-11   -0.43265E-12 26208   0.196E-10
  81 F= -.20832274E+03 E0= -.20832274E+03  d E =0.000000E+00
       N       E                     dE             d eps       ncg     rms          rms(c)
DAV:   1    -0.208322744900E+03   -0.78217E-10   -0.23585E-12 26208   0.198E-10    0.779E-05
DAV:   2    -0.208322744900E+03    0.70941E-10   -0.26662E-12 26208   0.369E-10    0.779E-05
DAV:   3    -0.208322744900E+03   -0.44747E-09   -0.23678E-12 26208   0.301E-10    0.779E-05
DAV:   4    -0.208322744900E+03    0.86402E-10   -0.24700E-12 26208   0.203E-10    0.779E-05
DAV:   5    -0.208322744900E+03   -0.81855E-11   -0.22812E-12 26208   0.210E-10    0.779E-05
DAV:   6    -0.208322744900E+03    0.38744E-09   -0.21278E-12 26208   0.198E-10
  82 F= -.20832274E+03 E0= -.20832274E+03  d E =0.000000E+00
       N       E                     dE             d eps       ncg     rms          rms(c)
DAV:   1    -0.208322744901E+03   -0.29468E-09   -0.27768E-12 26208   0.179E-10    0.779E-05
DAV:   2    -0.208322744900E+03    0.71668E-09   -0.31668E-12 26208   0.355E-10    0.779E-05
DAV:   3    -0.208322744900E+03    0.31287E-09   -0.23925E-12 26208   0.314E-10    0.779E-05
DAV:   4    -0.208322744900E+03   -0.72851E-09   -0.18556E-12 26208   0.211E-10    0.779E-05
DAV:   5    -0.208322744899E+03    0.84492E-09   -0.11440E-12 26208   0.200E-10    0.779E-05
DAV:   6    -0.208322744900E+03   -0.61664E-09   -0.30627E-12 26208   0.180E-10
  83 F= -.20832274E+03 E0= -.20832274E+03  d E =0.000000E+00
       N       E                     dE             d eps       ncg     rms          rms(c)
DAV:   1    -0.208322744900E+03   -0.60209E-09   -0.36877E-12 26208   0.198E-10    0.779E-05
DAV:   2    -0.208322744900E+03    0.37835E-09   -0.21157E-12 26208   0.193E-10    0.779E-05
DAV:   3    -0.208322744900E+03   -0.65575E-09   -0.13123E-12 26208   0.271E-10    0.779E-05
DAV:   4    -0.208322744899E+03    0.84674E-09   -0.49120E-12 26208   0.166E-10    0.779E-05
DAV:   5    -0.208322744900E+03   -0.85674E-09   -0.43146E-12 26208   0.176E-10    0.779E-05
DAV:   6    -0.208322744900E+03    0.51659E-09   -0.24461E-12 26208   0.191E-10
  84 F= -.20832274E+03 E0= -.20832274E+03  d E =0.000000E+00
       N       E                     dE             d eps       ncg     rms          rms(c)
DAV:   1    -0.208322744900E+03    0.27467E-09   -0.22360E-12 26208   0.201E-10    0.779E-05
DAV:   2    -0.208322744900E+03    0.25830E-09   -0.31573E-12 26208   0.239E-10    0.779E-05
DAV:   3    -0.208322744899E+03    0.35470E-09   -0.12890E-12 26208   0.144E-10    0.779E-05
DAV:   4    -0.208322744900E+03   -0.10059E-08    0.10773E-14 26208   0.185E-10    0.779E-05
DAV:   5    -0.208322744899E+03    0.10969E-08   -0.33743E-12 26208   0.195E-10    0.779E-05
DAV:   6    -0.208322744901E+03   -0.12960E-08   -0.22167E-12 26208   0.260E-10
  85 F= -.20832274E+03 E0= -.20832274E+03  d E =0.000000E+00
       N       E                     dE             d eps       ncg     rms          rms(c)
DAV:   1    -0.208322744899E+03   -0.30923E-10   -0.30075E-12 26208   0.250E-10    0.779E-05
DAV:   2    -0.208322744900E+03   -0.22283E-09   -0.27147E-12 26208   0.402E-10    0.779E-05
DAV:   3    -0.208322744900E+03   -0.45202E-09   -0.29198E-12 26208   0.264E-10    0.779E-05
DAV:   4    -0.208322744900E+03   -0.18190E-11   -0.56726E-13 26208   0.229E-10    0.779E-05
DAV:   5    -0.208322744900E+03   -0.13824E-09   -0.74851E-13 26208   0.237E-10    0.779E-05
DAV:   6    -0.208322744900E+03    0.26921E-09   -0.29629E-12 26208   0.226E-10
  86 F= -.20832274E+03 E0= -.20832274E+03  d E =0.000000E+00
       N       E                     dE             d eps       ncg     rms          rms(c)
DAV:   1    -0.208322744900E+03    0.42292E-09   -0.21091E-12 26208   0.180E-10    0.779E-05
DAV:   2    -0.208322744900E+03   -0.33560E-09   -0.27371E-12 26208   0.193E-10    0.779E-05
DAV:   3    -0.208322744900E+03   -0.10186E-09   -0.34872E-12 26208   0.202E-10    0.779E-05
DAV:   4    -0.208322744900E+03    0.51477E-09   -0.29725E-12 26208   0.323E-10    0.779E-05
DAV:   5    -0.208322744900E+03   -0.33288E-09   -0.29707E-12 26208   0.246E-10    0.779E-05
DAV:   6    -0.208322744900E+03    0.27831E-09   -0.26998E-12 26208   0.231E-10
  87 F= -.20832274E+03 E0= -.20832274E+03  d E =0.000000E+00
       N       E                     dE             d eps       ncg     rms          rms(c)
DAV:   1    -0.208322744900E+03    0.45111E-09   -0.17141E-12 26208   0.265E-10    0.779E-05
DAV:   2    -0.208322744900E+03   -0.40927E-09   -0.43438E-12 26208   0.257E-10    0.779E-05
DAV:   3    -0.208322744900E+03    0.41746E-09   -0.29689E-12 26208   0.236E-10    0.779E-05
DAV:   4    -0.208322744900E+03   -0.28649E-09   -0.23044E-12 26208   0.266E-10    0.779E-05
DAV:   5    -0.208322744900E+03    0.23738E-09   -0.24380E-12 26208   0.140E-10    0.779E-05
DAV:   6    -0.208322744900E+03   -0.56298E-09   -0.43340E-12 26208   0.209E-10
  88 F= -.20832274E+03 E0= -.20832274E+03  d E =0.000000E+00
       N       E                     dE             d eps       ncg     rms          rms(c)
DAV:   1    -0.208322744900E+03   -0.17099E-09   -0.27691E-12 26208   0.279E-10    0.779E-05
DAV:   2    -0.208322744900E+03   -0.58844E-09   -0.24397E-12 26208   0.247E-10    0.779E-05
DAV:   3    -0.208322744900E+03    0.59845E-09   -0.35981E-12 26208   0.218E-10    0.779E-05
DAV:   4    -0.208322744900E+03    0.62755E-10   -0.54669E-12 26208   0.197E-10    0.779E-05
DAV:   5    -0.208322744900E+03   -0.81855E-11   -0.18668E-12 26208   0.182E-10    0.779E-05
DAV:   6    -0.208322744900E+03   -0.50932E-10   -0.27323E-12 26208   0.170E-10
  89 F= -.20832274E+03 E0= -.20832274E+03  d E =0.000000E+00
       N       E                     dE             d eps       ncg     rms          rms(c)
DAV:   1    -0.208322744900E+03   -0.23647E-10   -0.24650E-12 26208   0.167E-10    0.779E-05
DAV:   2    -0.208322744900E+03    0.12733E-09   -0.21073E-12 26208   0.157E-10    0.779E-05
DAV:   3    -0.208322744900E+03   -0.67303E-09   -0.15144E-12 26208   0.198E-10    0.779E-05
DAV:   4    -0.208322744900E+03    0.65666E-09   -0.26856E-12 26208   0.255E-10    0.779E-05
DAV:   5    -0.208322744900E+03    0.63665E-10   -0.29567E-12 26208   0.214E-10    0.779E-05
DAV:   6    -0.208322744900E+03   -0.21828E-10   -0.25454E-12 26208   0.284E-10
  90 F= -.20832274E+03 E0= -.20832274E+03  d E =0.000000E+00
       N       E                     dE             d eps       ncg     rms          rms(c)
DAV:   1    -0.208322744900E+03   -0.84401E-09   -0.21802E-12 26208   0.255E-10    0.779E-05
DAV:   2    -0.208322744900E+03    0.28012E-09   -0.27220E-12 26208   0.430E-10    0.779E-05
DAV:   3    -0.208322744900E+03    0.59117E-09   -0.28186E-12 26208   0.270E-10    0.779E-05
DAV:   4    -0.208322744900E+03   -0.47476E-09   -0.13411E-12 26208   0.257E-10    0.779E-05
DAV:   5    -0.208322744900E+03   -0.36380E-09   -0.23081E-12 26208   0.252E-10    0.779E-05
DAV:   6    -0.208322744900E+03    0.60027E-10   -0.13201E-12 26208   0.224E-10
  91 F= -.20832274E+03 E0= -.20832274E+03  d E =0.000000E+00
       N       E                     dE             d eps       ncg     rms          rms(c)
DAV:   1    -0.208322744900E+03    0.32742E-10   -0.21749E-12 26208   0.185E-10    0.779E-05
DAV:   2    -0.208322744900E+03    0.62755E-09   -0.10982E-12 26208   0.235E-10    0.779E-05
DAV:   3    -0.208322744900E+03   -0.65666E-09   -0.42536E-12 26208   0.202E-10    0.779E-05
DAV:   4    -0.208322744900E+03    0.30559E-09   -0.33628E-12 26208   0.187E-10    0.779E-05
DAV:   5    -0.208322744900E+03    0.37289E-10   -0.11806E-12 26208   0.206E-10    0.779E-05
DAV:   6    -0.208322744900E+03   -0.33924E-09   -0.34679E-12 26208   0.201E-10
  92 F= -.20832274E+03 E0= -.20832274E+03  d E =0.000000E+00
       N       E                     dE             d eps       ncg     rms          rms(c)
DAV:   1    -0.208322744900E+03    0.93678E-10   -0.16314E-12 26208   0.197E-10    0.779E-05
DAV:   2    -0.208322744900E+03    0.12915E-09   -0.29688E-12 26208   0.222E-10    0.779E-05
DAV:   3    -0.208322744900E+03    0.11278E-09   -0.18987E-12 26208   0.236E-10    0.779E-05
DAV:   4    -0.208322744900E+03   -0.44292E-09   -0.12752E-12 26208   0.171E-10    0.779E-05
DAV:   5    -0.208322744900E+03    0.19463E-09   -0.21037E-12 26208   0.255E-10    0.779E-05
DAV:   6    -0.208322744900E+03   -0.21464E-09   -0.23352E-12 26208   0.320E-10
  93 F= -.20832274E+03 E0= -.20832274E+03  d E =0.000000E+00
       N       E                     dE             d eps       ncg     rms          rms(c)
DAV:   1    -0.208322744900E+03    0.35470E-10   -0.30368E-12 26208   0.221E-10    0.779E-05
DAV:   2    -0.208322744900E+03   -0.96406E-10   -0.15629E-12 26208   0.338E-10    0.779E-05
DAV:   3    -0.208322744900E+03    0.40473E-09    0.35089E-13 26208   0.327E-10    0.779E-05
DAV:   4    -0.208322744900E+03   -0.43565E-09   -0.28660E-12 26208   0.155E-10    0.779E-05
DAV:   5    -0.208322744899E+03    0.74760E-09   -0.11226E-12 26208   0.198E-10    0.779E-05
DAV:   6    -0.208322744899E+03   -0.16553E-09   -0.19367E-12 26208   0.253E-10
  94 F= -.20832274E+03 E0= -.20832274E+03  d E =0.000000E+00
       N       E                     dE             d eps       ncg     rms          rms(c)
DAV:   1    -0.208322744900E+03   -0.91222E-09   -0.33861E-12 26208   0.237E-10    0.779E-05
DAV:   2    -0.208322744900E+03   -0.13006E-09   -0.21571E-12 26208   0.259E-10    0.779E-05
DAV:   3    -0.208322744900E+03   -0.12187E-09   -0.22957E-12 26208   0.303E-10    0.779E-05
DAV:   4    -0.208322744900E+03    0.63483E-09   -0.41810E-12 26208   0.256E-10    0.779E-05
DAV:   5    -0.208322744900E+03   -0.87311E-10   -0.17494E-12 26208   0.231E-10    0.779E-05
DAV:   6    -0.208322744900E+03   -0.19827E-09   -0.31476E-12 26208   0.223E-10
  95 F= -.20832274E+03 E0= -.20832274E+03  d E =0.000000E+00
       N       E                     dE             d eps       ncg     rms          rms(c)
DAV:   1    -0.208322744899E+03    0.53478E-09   -0.21930E-12 26208   0.253E-10    0.779E-05
DAV:   2    -0.208322744900E+03   -0.81855E-09   -0.33886E-12 26208   0.436E-10    0.779E-05
DAV:   3    -0.208322744900E+03    0.37926E-09   -0.87687E-13 26208   0.321E-10    0.779E-05
DAV:   4    -0.208322744900E+03   -0.40927E-10   -0.26701E-12 26208   0.236E-10    0.779E-05
DAV:   5    -0.208322744900E+03   -0.38744E-09   -0.40029E-12 26208   0.187E-10    0.779E-05
DAV:   6    -0.208322744900E+03    0.43656E-09   -0.23220E-12 26208   0.229E-10
  96 F= -.20832274E+03 E0= -.20832274E+03  d E =0.000000E+00
       N       E                     dE             d eps       ncg     rms          rms(c)
DAV:   1    -0.208322744900E+03    0.67848E-09   -0.19344E-12 26208   0.199E-10    0.779E-05
DAV:   2    -0.208322744901E+03   -0.10568E-08   -0.23196E-12 26208   0.256E-10    0.779E-05
DAV:   3    -0.208322744900E+03    0.99863E-09   -0.27768E-12 26208   0.282E-10    0.779E-05
DAV:   4    -0.208322744900E+03   -0.22374E-09   -0.26737E-12 26208   0.221E-10    0.779E-05
DAV:   5    -0.208322744900E+03    0.12369E-09   -0.27572E-12 26208   0.210E-10    0.779E-05
DAV:   6    -0.208322744900E+03   -0.27103E-09   -0.35318E-12 26208   0.216E-10
  97 F= -.20832274E+03 E0= -.20832274E+03  d E =0.000000E+00
       N       E                     dE             d eps       ncg     rms          rms(c)
DAV:   1    -0.208322744900E+03   -0.16007E-09   -0.21363E-12 26208   0.189E-10    0.779E-05
DAV:   2    -0.208322744900E+03   -0.24193E-09   -0.32471E-12 26208   0.220E-10    0.779E-05
DAV:   3    -0.208322744900E+03    0.21646E-09   -0.31711E-12 26208   0.180E-10    0.779E-05
DAV:   4    -0.208322744900E+03   -0.22010E-09   -0.16385E-12 26208   0.168E-10    0.779E-05
DAV:   5    -0.208322744900E+03    0.57480E-09   -0.21172E-12 26208   0.126E-10    0.779E-05
DAV:   6    -0.208322744900E+03   -0.16007E-09   -0.32893E-12 26208   0.191E-10
  98 F= -.20832274E+03 E0= -.20832274E+03  d E =0.000000E+00
       N       E                     dE             d eps       ncg     rms          rms(c)
DAV:   1    -0.208322744899E+03    0.16371E-09   -0.21164E-12 26208   0.268E-10    0.779E-05
DAV:   2    -0.208322744900E+03   -0.11050E-08   -0.29156E-12 26208   0.341E-10    0.779E-05
DAV:   3    -0.208322744900E+03    0.83037E-09   -0.48594E-13 26208   0.293E-10    0.779E-05
DAV:   4    -0.208322744900E+03   -0.45839E-09   -0.39575E-12 26208   0.235E-10    0.779E-05
DAV:   5    -0.208322744900E+03    0.44929E-09   -0.24396E-12 26208   0.281E-10    0.779E-05
DAV:   6    -0.208322744900E+03   -0.92768E-10   -0.20792E-12 26208   0.232E-10
  99 F= -.20832274E+03 E0= -.20832274E+03  d E =0.000000E+00
       N       E                     dE             d eps       ncg     rms          rms(c)
DAV:   1    -0.208322744900E+03   -0.59572E-09   -0.21869E-12 26208   0.217E-10    0.779E-05
DAV:   2    -0.208322744900E+03    0.18736E-09   -0.21607E-12 26208   0.355E-10    0.779E-05
DAV:   3    -0.208322744900E+03   -0.33651E-09   -0.37923E-12 26208   0.247E-10    0.779E-05
DAV:   4    -0.208322744900E+03    0.55206E-09   -0.23103E-12 26208   0.252E-10    0.779E-05
DAV:   5    -0.208322744900E+03   -0.48203E-10   -0.29594E-12 26208   0.310E-10    0.779E-05
DAV:   6    -0.208322744900E+03   -0.18645E-09   -0.36236E-12 26208   0.256E-10
 100 F= -.20832274E+03 E0= -.20832274E+03  d E =0.000000E+00
