unknown system                          
   1.00000000000000     
     5.132346    0.000000    0.000000
     2.123045    4.392721    0.000000
     2.891501    1.121551    5.010470
   B    C 
    11     4
Direct
  0.311412  0.803393  0.803899
  0.803899  0.803393  0.311412
  0.809454  0.314013  0.809454
  0.685830  0.197132  0.197219
  0.197219  0.197132  0.685830
  0.189796  0.687426  0.189796
  0.670537  0.991490  0.994668
  0.994668  0.991490  0.670537
  0.992047  0.660490  0.992047
  0.326089  0.012321  0.003872
  0.003872  0.012321  0.326089
  0.005989  0.320841  0.005989
  0.620233  0.607417  0.620233
  0.384700  0.400833  0.384700
  0.504256  0.500308  0.504256
 
   72   64   80
  1.40223281780E+01  1.26938275310E+01  1.53407546880E+01  1.34245620600E+01  1.73256995370E+01
  1.69911113680E+01  2.15065380250E+01  2.24729397990E+01  2.78004468250E+01  3.01929945680E+01
  3.64382080320E+01  4.04496696400E+01  4.76305404930E+01  5.32543885220E+01  6.04431255110E+01
  6.64570522700E+01  7.16698732590E+01  7.60264765780E+01  7.52286189600E+01  7.48885142370E+01
  6.40092194540E+01  7.00468892340E+01  9.43346628350E+01  3.08190128770E+02  5.00994904350E+02
  2.32162335190E+02  8.68164620640E+01  6.09685341270E+01  8.48135937030E+01  9.66707226880E+01
  1.14107958080E+02  1.14297823710E+02  1.21646114440E+02  1.16102983150E+02  1.19838655330E+02
  1.13969515060E+02  1.18039704680E+02  1.13929630060E+02  1.18996825330E+02  1.15750759320E+02
  1.19374213880E+02  1.12976023500E+02  1.09500887490E+02  9.42632438580E+01  7.84292385770E+01
  6.62884325130E+01  1.09203733440E+02  3.41626060950E+02  6.15613396940E+02  2.84077731870E+02
  8.52711334440E+01  6.42354361450E+01  6.58916020650E+01  7.31652339860E+01  7.65818189020E+01
  7.41713157920E+01  7.19221251430E+01  6.43472728870E+01  6.00536521270E+01  5.11233690200E+01
  4.68988058970E+01  3.85658627270E+01  3.56418299220E+01  2.86433283990E+01  2.70288039360E+01
  2.13019436500E+01  2.08042697270E+01  1.62672193870E+01  1.66877180660E+01  1.32534119160E+01
  1.40756723600E+01  1.27955522430E+01  1.34775375490E+01  1.27387502720E+01  1.27838885750E+01
  1.69075774430E+01  1.58940355890E+01  2.09671790280E+01  2.03991149560E+01  2.71977240450E+01
  2.69664872170E+01  3.58003176300E+01  3.58376813610E+01  4.70450636970E+01  4.71241384930E+01
  6.06473368810E+01  5.89782049080E+01  7.38737647970E+01  6.80188455520E+01  8.21858596560E+01
  6.66868621710E+01  7.87619949070E+01  5.17479053340E+01  9.68743445930E+01  1.85126776910E+02
  6.99007928050E+02  6.95273059830E+02  1.68572654360E+02  8.82051899370E+01  5.86280643540E+01
  1.00680898560E+02  9.77667910180E+01  1.21898139380E+02  1.12483758450E+02  1.24565433730E+02
  1.13275255960E+02  1.20834461590E+02  1.11601496260E+02  1.18535110200E+02  1.12313894370E+02
  1.18995651330E+02  1.14036074790E+02  1.17727819300E+02  1.09414262040E+02  1.04973927030E+02
  8.80415301970E+01  7.34382839130E+01  6.31849817910E+01  9.57615462170E+01  1.61583915710E+02
  1.27019148050E+02  7.39089054570E+01  6.57235605690E+01  6.10146326970E+01  7.41607211710E+01
  7.43490832890E+01  7.85959557670E+01  7.26038769150E+01  7.05234971940E+01  6.18295372990E+01
  5.74582517120E+01  4.89726635570E+01  4.42615045770E+01  3.72116010090E+01  3.33495232470E+01
  2.80706128240E+01  2.50228482030E+01  2.13881893260E+01  1.90419124470E+01  1.69125150080E+01
  1.51470636220E+01  1.43890124160E+01  1.32573209290E+01  1.34448347040E+01  1.30123589060E+01
  1.64188777080E+01  1.60279275230E+01  1.73005577490E+01  1.89819308050E+01  2.18072348360E+01
  2.43726782800E+01  2.83230187370E+01  3.19825234350E+01  3.71236901670E+01  4.20200327650E+01
  4.84026751690E+01  5.44395204330E+01  6.11856836640E+01  6.70381025120E+01  7.25702632440E+01
  7.57207768140E+01  7.64815462060E+01  7.34102287300E+01  6.64320318810E+01  6.36280398280E+01
  8.74248886320E+01  2.03016931150E+02  3.32701408670E+02  1.93396693030E+02  7.81062613550E+01
  6.57402669070E+01  8.02536691810E+01  9.85942638880E+01  1.09141092460E+02  1.15100867830E+02
  1.16689694950E+02  1.16138003790E+02  1.14540525290E+02  1.12942275920E+02  1.11954642750E+02
  1.11696247590E+02  1.12186157210E+02  1.12629717280E+02  1.12680915150E+02  1.10750045290E+02
  1.06095561070E+02  9.74368094180E+01  8.44694193410E+01  6.91427975760E+01  5.89319548640E+01
  6.06801164050E+01  6.62039089580E+01  7.84721665810E+01  6.38729957710E+01  6.18358123960E+01
  7.28417977370E+01  7.67063692960E+01  7.97671445990E+01  7.69335399630E+01  7.38130774510E+01
  6.71086335570E+01  6.16368520710E+01  5.41697821940E+01  4.83187674620E+01  4.15329277040E+01
  3.69186961520E+01  3.14130285950E+01  2.80432477560E+01  2.37694098080E+01  2.15520679230E+01
  1.83937679550E+01  1.72420007710E+01  1.50597569260E+01  1.48539851970E+01  1.33656169270E+01
  1.46809744080E+01  1.59198923810E+01  1.44765859040E+01  1.73616506490E+01  1.97302012460E+01
  2.19124536720E+01  2.47474302600E+01  2.80787088170E+01  3.19709272730E+01  3.64421831090E+01
  4.15144903240E+01  4.71659424230E+01  5.34295061490E+01  5.98982897280E+01  6.62311506130E+01
  7.19034704440E+01  7.65398200330E+01  7.88157905170E+01  7.82085977850E+01  7.34514700050E+01
  6.59349575890E+01  5.98637953120E+01  6.93708403100E+01  8.87956075590E+01  8.66272080170E+01
  7.51611378980E+01  6.06029742150E+01  7.29350369610E+01  8.93235535560E+01  1.01812993170E+02
  1.08486785440E+02  1.11647783550E+02  1.11487923800E+02  1.10319913470E+02  1.08373393830E+02
  1.07030548910E+02  1.05960986920E+02  1.06187291160E+02  1.06369054430E+02  1.06891915980E+02
  1.06311717350E+02  1.04253251660E+02  9.94332575730E+01  9.17542797290E+01  8.11028366470E+01
  6.91860315610E+01  5.97652673290E+01  5.56317595730E+01  5.46999114220E+01  4.66979934840E+01
  6.28336247650E+01  7.51925273520E+01  7.89142792060E+01  8.21546106810E+01  8.05892444020E+01
  7.77535416730E+01  7.20488917300E+01  6.63339170740E+01  5.93519745300E+01  5.29971079140E+01
  4.64452148400E+01  4.10433025560E+01  3.56229412390E+01  3.14224510650E+01  2.72228303800E+01
  2.41778652190E+01  2.11358132480E+01  1.91837956330E+01  1.72012196860E+01  1.62502672720E+01
  1.52227104830E+01  1.52971106120E+01  1.44501684750E+01  1.79499077270E+01  2.16401148590E+01
  2.13397300410E+01  2.30152383190E+01  2.57955340370E+01  2.90045524100E+01  3.27685890630E+01
  3.70867571470E+01  4.19569041310E+01  4.73887436990E+01  5.33658899580E+01  5.97886914100E+01
  6.62809784340E+01  7.22501991300E+01  7.77569639410E+01  8.13505686810E+01  8.28590294770E+01
  8.07969323700E+01  7.57124133620E+01  6.68841627880E+01  5.89739525700E+01  5.32665155810E+01
  5.41736902200E+01  5.24341592010E+01  4.73270531920E+01  6.70996169400E+01  8.17823129020E+01
  9.36435788330E+01  1.00386951190E+02  1.04327464440E+02  1.04691218580E+02  1.04038377310E+02
  1.01991228450E+02  1.00541900510E+02  9.88366511760E+01  9.85663526420E+01  9.84948794170E+01
  9.90358990310E+01  9.90563563540E+01  9.85978905240E+01  9.64035349360E+01  9.25391376100E+01
  8.64724872360E+01  7.92419073000E+01  7.17586630130E+01  6.64314915090E+01  6.44078313740E+01
  6.77621360350E+01  8.13870182600E+01  7.97512388790E+01  8.10612434420E+01  8.47619185850E+01
  8.37674193340E+01  8.15800653100E+01  7.65742193450E+01  7.12247853300E+01  6.45753241990E+01
  5.83100344120E+01  5.16262573960E+01  4.58728704220E+01  4.02263204890E+01  3.56244865940E+01
  3.11303453520E+01  2.76553507670E+01  2.43230892990E+01  2.19646080590E+01  1.97584869370E+01
  1.84607294400E+01  1.72855652070E+01  1.69275298300E+01  1.65789268900E+01  1.77423556600E+01
  2.09266464760E+01  2.00027991310E+01  2.46770141010E+01  2.77501244660E+01  3.09033172150E+01
  3.45795365300E+01  3.88625049650E+01  4.35962972750E+01  4.89028336400E+01  5.46500832950E+01
  6.08348032630E+01  6.73214365380E+01  7.35356824090E+01  7.92760597680E+01  8.38186875760E+01
  8.68258350730E+01  8.71688290880E+01  8.47474676720E+01  7.89915034860E+01  7.14858457150E+01
  6.29036132720E+01  5.77510980970E+01  5.38621302550E+01  5.89270577780E+01  7.43969197010E+01
  7.74461766090E+01  8.59470813160E+01  9.16538388080E+01  9.56341182420E+01  9.63464878090E+01
  9.61182101870E+01  9.42410894300E+01  9.27966453490E+01  9.08140226430E+01  9.00061967720E+01
  8.95196595130E+01  9.00466067920E+01  9.00959922460E+01  9.04656579960E+01  8.97403296420E+01
  8.83847854930E+01  8.54950613000E+01  8.19323814980E+01  7.77593690470E+01  7.45670842900E+01
  7.28698435890E+01  7.39765701710E+01  7.56683595330E+01  7.29048449810E+01  8.25901356520E+01
  8.71179242440E+01  8.61091379180E+01  8.46373271420E+01  8.04022551560E+01  7.56741661730E+01
  6.95273013230E+01  6.34758524140E+01  5.68349429890E+01  5.10334757760E+01  4.52960873370E+01
  4.03831293220E+01  3.56071404730E+01  3.17618301210E+01  2.81183512290E+01  2.53937983590E+01
  2.29189586520E+01  2.13164367630E+01  1.99618396920E+01  1.93951991200E+01  1.90938935200E+01
  1.95238890130E+01  1.95404473320E+01  2.65087600350E+01  3.13688191350E+01  3.08899035710E+01
  3.37836262680E+01  3.74738361210E+01  4.18632635330E+01  4.65405217940E+01  5.18678188790E+01
  5.74105930030E+01  6.34444974250E+01  6.95706813200E+01  7.58612199430E+01  8.15811217760E+01
  8.65419907950E+01  9.03541590750E+01  9.21606739230E+01  9.17543626020E+01  8.85729460870E+01
  8.34253060810E+01  7.66126879330E+01  7.07551086990E+01  6.61840094380E+01  6.74770180020E+01
  6.85682575130E+01  6.75878955050E+01  7.89629320080E+01  8.34366378320E+01  8.67252594680E+01
  8.72685119180E+01  8.72294938850E+01  8.55593349030E+01  8.42579273760E+01  8.21665812430E+01
  8.10859328880E+01  8.01288931020E+01  8.03354657300E+01  8.05080554370E+01  8.10447904760E+01
  8.10421356880E+01  8.10566415390E+01  8.01337941950E+01  7.90573786350E+01  7.73775989130E+01
  7.62796266210E+01  7.57282446340E+01  7.68154891590E+01  7.87214877950E+01  8.28977674560E+01
  9.11329181370E+01  8.79936624370E+01  8.67380082770E+01  8.64119900620E+01  8.30678077860E+01
  7.92191528040E+01  7.38145466790E+01  6.82788711700E+01  6.20362286130E+01  5.64305936860E+01
  5.06432447940E+01  4.55236037420E+01  4.05700818940E+01  3.64236223480E+01  3.24977845470E+01
  2.94397061000E+01  2.66974957920E+01  2.48091822850E+01  2.32724544670E+01  2.25050569700E+01
  2.20980031580E+01  2.23026104960E+01  2.28993183370E+01  2.46558240780E+01  3.03996943870E+01
  3.03018897480E+01  3.74649642340E+01  4.15764688660E+01  4.61778357550E+01  5.09417672850E+01
  5.64377048350E+01  6.19336329970E+01  6.78923978880E+01  7.37033742680E+01  7.96445483120E+01
  8.51836188820E+01  9.00828105950E+01  9.38347334820E+01  9.62291648310E+01  9.68402384320E+01
  9.53488953020E+01  9.18292027060E+01  8.65765711860E+01  8.10121846060E+01  7.56690230030E+01
  7.28427504850E+01  7.03036232420E+01  7.30615448130E+01  8.00254308950E+01  7.66735634260E+01
  7.81406455120E+01  7.80379941130E+01  7.80108662650E+01  7.64775750880E+01  7.53562624290E+01
  7.32881573520E+01  7.21277769230E+01  7.08687440660E+01  7.07509871580E+01  7.05863608290E+01
  7.13648048550E+01  7.15759205810E+01  7.21969066240E+01  7.23097264940E+01  7.26422270140E+01
  7.25802581310E+01  7.30842924120E+01  7.37293968180E+01  7.54384508490E+01  7.75404534580E+01
  8.06518397570E+01  8.23260855620E+01  8.02610793640E+01  8.57959691260E+01  8.67564301290E+01
  8.41623244360E+01  8.14522191340E+01  7.70369144500E+01  7.23113206020E+01  6.67171390920E+01
  6.14779356680E+01  5.58614395600E+01  5.08348740540E+01  4.58752963050E+01  4.15151383570E+01
  3.73790387930E+01  3.40350716910E+01  3.10532962670E+01  2.89023836350E+01  2.71927166230E+01
  2.62463272760E+01  2.57584233020E+01  2.58952652240E+01  2.65810644550E+01  2.76950223420E+01
  2.88850565670E+01  4.08697178410E+01  4.75438636470E+01  4.71763411790E+01  5.19288361390E+01
  5.69574476990E+01  6.28804109120E+01  6.84998943360E+01  7.46153453730E+01  8.01712388680E+01
  8.58085795920E+01  9.06378710350E+01  9.51678804600E+01  9.84305315800E+01  1.00542504050E+02
  1.01211362480E+02  1.00176738770E+02  9.73940265870E+01  9.30633297350E+01  8.77950852170E+01
  8.21179546120E+01  7.74307145620E+01  7.34328331670E+01  7.25847664380E+01  6.98164984650E+01
  6.52892136980E+01  7.00516738470E+01  6.94930774010E+01  6.92084893430E+01  6.75834682550E+01
  6.65337611760E+01  6.45294790010E+01  6.33926801940E+01  6.20061823340E+01  6.16645083170E+01
  6.12255263690E+01  6.17334104130E+01  6.20670046920E+01  6.30579677340E+01  6.34918141750E+01
  6.45871906800E+01  6.53734113040E+01  6.68459354470E+01  6.82877624140E+01  7.06443519330E+01
  7.31084461050E+01  7.63409170200E+01  7.90467549360E+01  8.27485009230E+01  8.79900401730E+01
  8.47517717040E+01  8.31933484460E+01  8.21094401040E+01  7.88246505420E+01  7.52019400440E+01
  7.05456725020E+01  6.59992272840E+01  6.08941259510E+01  5.62048773850E+01  5.12960600640E+01
  4.68584067520E+01  4.26190110970E+01  3.90753187790E+01  3.58975066390E+01  3.35360780310E+01
  3.16664058770E+01  3.05764918970E+01  3.00240661030E+01  3.01140625840E+01  3.08016127700E+01
  3.19148966780E+01  3.38656834740E+01  3.66189823250E+01  4.66790919830E+01  4.81430640840E+01
  5.89684258520E+01  6.47133511810E+01  7.13010345610E+01  7.72817848690E+01  8.38226941510E+01
  8.93720601750E+01  9.48618765360E+01  9.90561578510E+01  1.02748000630E+02  1.04981054360E+02
  1.06416403890E+02  1.06019731620E+02  1.04515978480E+02  1.01494945630E+02  9.72620892740E+01
  9.19027757810E+01  8.59989288620E+01  8.02251010540E+01  7.48285943450E+01  7.08795069780E+01
  6.66071297020E+01  6.61046540690E+01  6.81319394680E+01  6.21953015060E+01  6.10911167060E+01
  5.91629509580E+01  5.81367921040E+01  5.61762033210E+01  5.51502604620E+01  5.37117736460E+01
  5.32844136660E+01  5.26280880540E+01  5.29349873860E+01  5.30434898470E+01  5.39993045080E+01
  5.47502935330E+01  5.61640147520E+01  5.72021299770E+01  5.91496519240E+01  6.10199249580E+01
  6.37985545470E+01  6.65527508780E+01  7.00448273660E+01  7.31307584820E+01  7.65591917690E+01
  7.80367767390E+01  7.69038346530E+01  8.09823949040E+01  8.12321694740E+01  7.89699135620E+01
  7.66923440980E+01  7.32163515360E+01  6.96298869450E+01  6.52789281100E+01  6.10751209070E+01
  5.64365584520E+01  5.22044562520E+01  4.80331907810E+01  4.43959436900E+01  4.11041455770E+01
  3.85844312000E+01  3.65989842710E+01  3.53986092530E+01  3.48081959620E+01  3.48846836500E+01
  3.56382963330E+01  3.68875020490E+01  3.90667851780E+01  4.14288020420E+01  4.45533929630E+01
  6.45914711010E+01  7.41837913270E+01  7.43282152460E+01  8.16358035860E+01  8.81904872600E+01
  9.54933766120E+01  1.01345918190E+02  1.07063559900E+02  1.10824080150E+02  1.13789120570E+02
  1.14708958380E+02  1.14704888590E+02  1.12883201850E+02  1.10175786690E+02  1.05825679350E+02
  1.00794387020E+02  9.47530258150E+01  8.83624095250E+01  8.17162446170E+01  7.53757314370E+01
  6.98083240580E+01  6.47993394910E+01  6.18985058710E+01  5.71795550020E+01  5.15119483330E+01
  5.37484104680E+01  5.17139435530E+01  5.06123348180E+01  4.85557120400E+01  4.76028736610E+01
  4.61266937610E+01  4.56898051440E+01  4.48866387530E+01  4.50665111300E+01  4.49617161760E+01
  4.57748141480E+01  4.63466515170E+01  4.77942190050E+01  4.90925473070E+01  5.12326548940E+01
  5.32104495630E+01  5.61103316220E+01  5.89740500060E+01  6.25980660320E+01  6.59592282070E+01
  6.97340254970E+01  7.25844866010E+01  7.61652722590E+01  8.02178605220E+01  7.79149290040E+01
  7.71709959210E+01  7.66709735990E+01  7.45020026140E+01  7.20901743060E+01  6.87229619830E+01
  6.52793106570E+01  6.12357762810E+01  5.74216710620E+01  5.33950619210E+01  4.97733667150E+01
  4.64779062340E+01  4.38844507890E+01  4.18365220190E+01  4.05710535190E+01  3.99805242020E+01
  4.00755594060E+01  4.09438737090E+01  4.23642536130E+01  4.47859618020E+01  4.75259622130E+01
  5.18031873310E+01  5.64764597530E+01  7.37944954140E+01  7.76172013800E+01  9.32098121080E+01
  1.00575272190E+02  1.08878344210E+02  1.15206560290E+02  1.21569503040E+02  1.25363106790E+02
  1.28131465490E+02  1.28080698760E+02  1.26658501230E+02  1.22777012960E+02  1.18106229470E+02
  1.11838117280E+02  1.05290802770E+02  9.77951475760E+01  9.03131702670E+01  8.26952300760E+01
  7.55350662610E+01  6.88034165310E+01  6.28150308820E+01  5.79559286830E+01  5.30316053210E+01
  5.13694774950E+01  5.16279009020E+01  4.54666471090E+01  4.39104502640E+01  4.17027312910E+01
  4.08445718430E+01  3.93493918850E+01  3.89310315750E+01  3.80317668690E+01  3.81362961180E+01
  3.78652367750E+01  3.85381106470E+01  3.89216901930E+01  4.02354637230E+01  4.13606090340E+01
  4.34143640620E+01  4.53942174710E+01  4.83207656630E+01  5.11604206810E+01  5.48205285050E+01
  5.82271681950E+01  6.22211609790E+01  6.55627530760E+01  6.90985622610E+01  7.07870528130E+01
  7.08052459330E+01  7.48423333020E+01  7.54726295770E+01  7.41873463120E+01  7.31796522150E+01
  7.09384352070E+01  6.84790273810E+01  6.51956670420E+01  6.19343606460E+01  5.82419131430E+01
  5.49253074400E+01  5.17898472790E+01  4.92102465090E+01  4.71739210820E+01  4.59034990810E+01
  4.53370119270E+01  4.55016601290E+01  4.65142002470E+01  4.81583964930E+01  5.09213463780E+01
  5.41935300040E+01  5.90642784050E+01  6.38753716560E+01  7.03787401870E+01  1.01526194820E+02
  1.14316763950E+02  1.13980915560E+02  1.23389431640E+02  1.30441740770E+02  1.37775801400E+02
  1.41892138870E+02  1.44834701190E+02  1.44170431440E+02  1.41814091330E+02  1.36322582620E+02
  1.29520668330E+02  1.20606103230E+02  1.11891195330E+02  1.02460386370E+02  9.28341516050E+01
  8.41081963590E+01  7.59936396730E+01  6.82116280020E+01  6.13656265870E+01  5.54701982820E+01
  5.02517893540E+01  4.68844492850E+01  4.19156626930E+01  3.66057149400E+01  3.80740869710E+01
  3.59624355710E+01  3.50797586490E+01  3.35108950800E+01  3.30195092050E+01  3.20818982710E+01
  3.20833273500E+01  3.17341696920E+01  3.22442196150E+01  3.25085004080E+01  3.36072937510E+01
  3.45722371180E+01  3.63836955460E+01  3.81904094380E+01  4.08357711720E+01  4.35207708030E+01
  4.69825864390E+01  5.04109561510E+01  5.43794456440E+01  5.80432435410E+01  6.19140469160E+01
  6.50811102950E+01  6.87620855100E+01  7.29434243010E+01  7.17591782480E+01  7.11077239430E+01
  7.26329361250E+01  7.17852908510E+01  7.03826122900E+01  6.80906920290E+01  6.55626243260E+01
  6.25344527190E+01  5.96403120070E+01  5.67524239690E+01  5.42574364880E+01  5.23702940060E+01
  5.11009322600E+01  5.06743499780E+01  5.08843542440E+01  5.21214323280E+01  5.39715680760E+01
  5.71858096390E+01  6.09725991390E+01  6.65896590550E+01  7.23508249230E+01  8.05826007620E+01
  8.81406418180E+01  1.12160863840E+02  1.17692544610E+02  1.38416135040E+02  1.45961431650E+02
  1.54590406210E+02  1.59142775260E+02  1.63017268930E+02  1.62210088100E+02  1.59521967680E+02
  1.52486919780E+02  1.44052170150E+02  1.32868618750E+02  1.21376223690E+02  1.09214761340E+02
  9.72238644890E+01  8.59612298730E+01  7.73111175430E+01  6.80125392110E+01  6.06578041590E+01
  5.35023158130E+01  4.79477342160E+01  4.29517649050E+01  3.85769171350E+01  3.67230531400E+01
  3.68311296680E+01  3.11901424860E+01  3.02841398520E+01  2.83136320740E+01  2.80837870360E+01
  2.68377417620E+01  2.70387840850E+01  2.63378951430E+01  2.70029218320E+01  2.68691132990E+01
  2.80678558330E+01  2.85729604080E+01  3.04353965850E+01  3.17077862990E+01  3.43612042060E+01
  3.64896845010E+01  3.99972778050E+01  4.29072760210E+01  4.70924857540E+01  5.04542135280E+01
  5.49238512440E+01  5.81394822140E+01  6.23794437110E+01  6.41751889810E+01  6.63306136280E+01
  6.82261001940E+01  6.93835469070E+01  7.13620514780E+01  7.07268648030E+01  6.97048584520E+01
  6.79571075460E+01  6.57752333810E+01  6.33776802190E+01  6.08979474760E+01  5.87471049450E+01
  5.70917841920E+01  5.59588486790E+01  5.56244504690E+01  5.59907024890E+01  5.73860270870E+01
  5.95396949910E+01  6.31134309740E+01  6.75439659580E+01  7.38841686670E+01  8.07999655800E+01
  8.99758865240E+01  9.81330447070E+01  1.08535088860E+02  1.49261356760E+02  1.64159726300E+02
  1.59752775350E+02  1.69390258420E+02  1.74272004650E+02  1.79660023740E+02  1.79656910320E+02
  1.77891881100E+02  1.70400089030E+02  1.60979681810E+02  1.47564993180E+02  1.34031209680E+02
  1.18764007230E+02  1.04767225700E+02  9.10425991110E+01  7.99190993760E+01  6.91140996620E+01
  6.06154284480E+01  5.25956400990E+01  4.63618512910E+01  4.06668811380E+01  3.62886246600E+01
  3.30902881590E+01  2.89492885300E+01  2.44210709250E+01  2.61552150240E+01  2.42318635870E+01
  2.39407351740E+01  2.25985868080E+01  2.26677959780E+01  2.19157019580E+01  2.24328869960E+01
  2.22296952060E+01  2.32238779820E+01  2.36155526070E+01  2.51904264920E+01  2.62814197180E+01
  2.85681885110E+01  3.04803173310E+01  3.35693875520E+01  3.62988543500E+01  4.01278325310E+01
  4.35048543900E+01  4.78019546240E+01  5.14069913120E+01  5.57261263850E+01  5.89495739990E+01
  6.33192435160E+01  6.67346931230E+01  6.69338736770E+01  6.90147894730E+01  6.98058477010E+01
  6.96582746150E+01  6.90293260480E+01  6.76390089900E+01  6.60277311540E+01  6.41072125060E+01
  6.24476304540E+01  6.09962243790E+01  6.00797125900E+01  5.99360604850E+01  6.04444324260E+01
  6.20341553980E+01  6.44187952930E+01  6.83851901610E+01  7.33243879770E+01  8.04707702270E+01
  8.83869752020E+01  9.86931037750E+01  1.08145525100E+02  1.20389558830E+02  1.30202300620E+02
  1.52776119280E+02  1.55720864740E+02  1.79276293000E+02  1.82756582240E+02  1.89673123460E+02
  1.91339685320E+02  1.92695886310E+02  1.86918786430E+02  1.78460494670E+02  1.63992812160E+02
  1.48763459050E+02  1.30964898740E+02  1.14775207800E+02  9.81336699380E+01  8.44891713330E+01
  7.16399189380E+01  6.19433290370E+01  5.27033124360E+01  4.58495489250E+01  3.93302116010E+01
  3.46175853630E+01  3.03239774390E+01  2.68363933890E+01  2.55096827910E+01  2.57761023770E+01
  2.09583937700E+01  2.05435248540E+01  1.89683336930E+01  1.90901612230E+01  1.81843826380E+01
  1.86836097660E+01  1.82963624560E+01  1.92214692820E+01  1.93875199060E+01  2.08169693330E+01
  2.16177225250E+01  2.36781439550E+01  2.52313845380E+01  2.80243219410E+01  3.03903001050E+01
  3.39427095740E+01  3.70403716990E+01  4.11871232970E+01  4.47524253250E+01  4.91648892850E+01
  5.27151325960E+01  5.69513319730E+01  5.93828134730E+01  6.18671920650E+01  6.58983874340E+01
  6.72668660500E+01  6.81431180070E+01  6.85032749900E+01  6.80513026490E+01  6.72525404640E+01
  6.60161923490E+01  6.48392394220E+01  6.37552371020E+01  6.31841242350E+01  6.32824816290E+01
  6.39385543930E+01  6.57314598560E+01  6.82715668850E+01  7.25530833800E+01  7.78812335130E+01
  8.57065981660E+01  9.45130042540E+01  1.05948916530E+02  1.16719666200E+02  1.30158597840E+02
  1.40562987470E+02  1.53821756940E+02  1.89563915620E+02  1.98323565900E+02  1.79569005800E+02
  1.86847671800E+02  1.89510442450E+02  1.96431590510E+02  1.95828570980E+02  1.92415570670E+02
  1.79619483580E+02  1.64632736290E+02  1.44799102360E+02  1.26668401660E+02  1.07393361250E+02
  9.14078859010E+01  7.61633707140E+01  6.47969774550E+01  5.39531776440E+01  4.63447896850E+01
  3.88930376980E+01  3.38236478200E+01  2.88002300530E+01  2.55270868580E+01  2.27831666160E+01
  1.95722608510E+01  1.57932904080E+01  1.78461279000E+01  1.61204900650E+01  1.63226186610E+01
  1.51559418660E+01  1.56524379290E+01  1.50441827250E+01  1.59380976400E+01  1.58566478120E+01
  1.71889292470E+01  1.76868652940E+01  1.95614849400E+01  2.07377287840E+01  2.32707752190E+01
  2.52218977130E+01  2.84771717800E+01  3.11889955460E+01  3.51053787250E+01  3.84270158240E+01
  4.27786171790E+01  4.63600149460E+01  5.07831892390E+01  5.40914253580E+01  5.85639414040E+01
  6.18629595890E+01  6.29188019130E+01  6.51651166570E+01  6.64487428160E+01  6.69063083290E+01
  6.69322450250E+01  6.64371265280E+01  6.58477202700E+01  6.52862619430E+01  6.50585138770E+01
  6.53581863010E+01  6.61896868600E+01  6.81805201050E+01  7.08080242620E+01  7.52856669000E+01
  8.08078661490E+01  8.91085334280E+01  9.85271426350E+01  1.11000908230E+02  1.22915519930E+02
  1.37657685990E+02  1.49307453910E+02  1.63364846170E+02  1.69369718840E+02  1.54771487960E+02
  1.44089496810E+02  1.71014806760E+02  1.69211522460E+02  1.81285041960E+02  1.88394325540E+02
  1.95935816290E+02  1.89917136740E+02  1.79116154820E+02  1.59133644040E+02  1.40028848650E+02
  1.18208367350E+02  1.00497217730E+02  8.23820993640E+01  6.91476676070E+01  5.63938616430E+01
  4.79696107580E+01  3.93328104590E+01  3.39222942580E+01  2.80601223390E+01  2.46792689890E+01
  2.08982260620E+01  1.85741491340E+01  1.75076082420E+01  1.82452528030E+01  1.38817278880E+01
  1.41204599770E+01  1.26256021140E+01  1.32565152170E+01  1.23825030520E+01  1.33184657590E+01
  1.29411637870E+01  1.42478374000E+01  1.44053005930E+01  1.61664130700E+01  1.69402965090E+01
  1.92743586230E+01  2.07659998980E+01  2.37535766770E+01  2.60025738440E+01  2.96573572390E+01
  3.25923144900E+01  3.67762771650E+01  4.01646124410E+01  4.45897421890E+01  4.80053457640E+01
  5.22711111490E+01  5.47339622100E+01  5.77603118800E+01  6.15547631120E+01  6.30410178120E+01
  6.42634543260E+01  6.50667919500E+01  6.53050934260E+01  6.53261538170E+01  6.52859659980E+01
  6.53876849860E+01  6.59874079200E+01  6.70532032180E+01  6.91733789880E+01  7.18030631910E+01
  7.63823231600E+01  8.18335097750E+01  9.03581818650E+01  9.99870970310E+01  1.13255496920E+02
  1.26026478340E+02  1.42082658550E+02  1.54835275870E+02  1.69279304910E+02  1.73519344930E+02
  1.79103065170E+02  1.81319446570E+02  1.86883071390E+02  1.49726726760E+02  1.55557588810E+02
  1.59580173410E+02  1.82011244940E+02  1.88509290440E+02  1.88559896170E+02  1.71721134490E+02
  1.54083475170E+02  1.30002875310E+02  1.11089371420E+02  9.02134768730E+01  7.53779402570E+01
  6.02845470040E+01  5.08604173240E+01  4.06202699110E+01  3.49166394010E+01  2.80039421300E+01
  2.46014379660E+01  1.99650656080E+01  1.80877515250E+01  1.54650011090E+01  1.33884138130E+01
  9.93086279200E+00  1.25354249220E+01  1.06897994670E+01  1.15494117620E+01  1.02515792530E+01
  1.13149857180E+01  1.05614641070E+01  1.19364636430E+01  1.16947254910E+01  1.34374027070E+01
  1.37659087240E+01  1.59797448890E+01  1.69677908370E+01  1.97527701990E+01  2.14782375850E+01
  2.48798170860E+01  2.73192074580E+01  3.12764604760E+01  3.42929166880E+01  3.86052350200E+01
  4.18845595550E+01  4.62314755870E+01  4.92964775980E+01  5.36610245070E+01  5.64606201540E+01
  5.78437354680E+01  6.03070222190E+01  6.17997033790E+01  6.27188591950E+01  6.32953830560E+01
  6.37956658090E+01  6.42266322530E+01  6.52148022210E+01  6.63509923600E+01  6.85865627690E+01
  7.12085543610E+01  7.57813330640E+01  8.08691035690E+01  8.93899776540E+01  9.86997575620E+01
  1.12442287700E+02  1.25534454870E+02  1.42789857450E+02  1.56441414860E+02  1.72210688250E+02
  1.76080438900E+02  1.79027651360E+02  1.61740268470E+02  1.26081785550E+02  2.20452996000E+02
  2.52702126890E+02  1.46226100980E+02  1.54582430830E+02  1.70052990530E+02  1.90316135610E+02
  1.79156294810E+02  1.68296377490E+02  1.41588538490E+02  1.23533512030E+02  9.86880587410E+01
  8.38670378660E+01  6.48816518230E+01  5.53280283970E+01  4.23839330520E+01  3.72054318950E+01
  2.82980872250E+01  2.55885845050E+01  1.93513843420E+01  1.82282339670E+01  1.39612419130E+01
  1.35349028380E+01  1.18256402400E+01  1.37437127830E+01  8.99215315580E+00  1.04505356600E+01
  8.34018089700E+00  9.97915382190E+00  8.52002851730E+00  1.03004083090E+01  9.38803454140E+00
  1.14015694740E+01  1.10697302240E+01  1.34069875970E+01  1.37322748350E+01  1.65008354660E+01
  1.75635125420E+01  2.08259642300E+01  2.26493325480E+01  2.64068898560E+01  2.89167452490E+01
  3.30366342680E+01  3.60187220180E+01  4.02352736490E+01  4.33057225640E+01  4.72657570810E+01
  4.95715806610E+01  5.26305301080E+01  5.61797252710E+01  5.73141155380E+01  5.89963289050E+01
  5.97857382130E+01  6.10713129350E+01  6.14690828250E+01  6.31476280690E+01  6.39011132490E+01
  6.68487875510E+01  6.91497427880E+01  7.36091457370E+01  7.75954052580E+01  8.66909097660E+01
  9.44372039560E+01  1.08983055180E+02  1.20921469470E+02  1.39988808660E+02  1.53100548690E+02
  1.72289696460E+02  1.75922602920E+02  1.80737684700E+02  1.56085348600E+02  1.51170810420E+02
  6.85294813320E+02  1.06852213900E+03  3.64689247200E+02  1.66869816980E+02  1.33744759500E+02
  1.90771144010E+02  1.74026264220E+02  1.87052761060E+02  1.47030738950E+02  1.42565982220E+02
  1.02882640150E+02  9.86814466610E+01  6.60658388700E+01  6.57622166910E+01  4.09715537210E+01
  4.46563733270E+01  2.52788878330E+01  3.12024823060E+01  1.55566696890E+01  2.26495748470E+01
  9.69747961340E+00  1.73810897660E+01  6.73745677890E+00  1.34270158550E+01  2.60419194110E+00
  1.29865807760E+01  3.86798248790E+00  1.21603257680E+01  3.99242701670E+00  1.20003670760E+01
  4.75898479350E+00  1.26052970420E+01  6.23036051660E+00  1.40046338480E+01  8.54309523610E+00
  1.63498936770E+01  1.18679481400E+01  1.97903297540E+01  1.63433559580E+01  2.44068397200E+01
  2.19622870760E+01  3.00950124760E+01  2.85252978670E+01  3.65186897390E+01  3.55501571450E+01
  4.31116511090E+01  4.23686288630E+01  4.94764837710E+01  4.86914312510E+01  5.27816550660E+01
  5.28584275430E+01  5.65460896360E+01  5.59589437640E+01  5.86350537510E+01  5.87716591270E+01
  6.11253887470E+01  6.28396773320E+01  6.60501936020E+01  6.90609286590E+01  7.11839703680E+01
  8.25543029210E+01  8.74515237020E+01  1.03765030970E+02  1.11701110890E+02  1.35126682960E+02
  1.42863496160E+02  1.71301134700E+02  1.68316367700E+02  1.90161911980E+02  1.49589120450E+02
  1.63915484830E+02  1.33668728490E+02  1.09202092130E+03  1.00771632870E+03  1.93350332960E+02
  1.72256091820E+02  1.39947927570E+02  2.06956872490E+02  1.67797608910E+02  1.83860058570E+02
  1.33451082480E+02  1.34256276960E+02  9.04285246810E+01  9.10040708750E+01  5.65583677610E+01
  6.02006368410E+01  3.43794355270E+01  4.05882004190E+01  2.08793405460E+01  2.82693855710E+01
  1.25314912510E+01  2.04436444810E+01  7.62574070770E+00  1.57209884510E+01  4.76722211760E+00
  1.38500252530E+01  5.94776948390E+00  1.09761532590E+01  3.83634638970E+00  1.01889986620E+01
  4.13901291280E+00  1.01245521380E+01  5.06051334790E+00  1.06710749010E+01  6.66238020350E+00
  1.19586205660E+01  9.05480958030E+00  1.41285801180E+01  1.23975113790E+01  1.73186446380E+01
  1.67921054220E+01  2.15657369510E+01  2.22346683250E+01  2.67652824700E+01  2.85100039710E+01
  3.25690769300E+01  3.51886169710E+01  3.83899004940E+01  4.16486835980E+01  4.32335024490E+01
  4.69553490990E+01  4.86472285380E+01  5.13406369370E+01  5.06790017890E+01  5.47501285590E+01
  5.29109708780E+01  5.84293807360E+01  5.59484653170E+01  6.38353094430E+01  6.11925966490E+01
  7.11879676340E+01  6.99838829590E+01  8.71194202680E+01  8.69048126540E+01  1.11446961880E+02
  1.13215313220E+02  1.45392285970E+02  1.45094220200E+02  1.81457866430E+02  1.64937052500E+02
  1.90300460810E+02  1.29753938760E+02  1.62856224470E+02  2.39300911430E+02  3.07781932620E+02
  1.63344972080E+02  1.48355701720E+02  1.59646235670E+02  1.92522128170E+02  1.90131190120E+02
  1.83762708020E+02  1.56905741930E+02  1.37322682500E+02  1.09556456180E+02  9.27736026840E+01
  7.09241224090E+01  5.97542175160E+01  4.46447830770E+01  3.87591703680E+01  2.84252277670E+01
  2.55739590160E+01  1.82022431740E+01  1.73831095890E+01  1.19690602220E+01  1.25106872920E+01
  8.37646487130E+00  1.00318769830E+01  5.55163722910E+00  6.34578139080E+00  5.90597183430E+00
  7.36941342210E+00  5.64413813940E+00  7.34943220130E+00  5.94080698780E+00  7.94602141530E+00
  6.89920824830E+00  9.14136804600E+00  8.54496794740E+00  1.10836229790E+01  1.10074418390E+01
  1.38958608870E+01  1.43933249760E+01  1.76659542240E+01  1.87422531100E+01  2.23429889670E+01
  2.39237738790E+01  2.77057309120E+01  2.96142311310E+01  3.33178144410E+01  3.53485896310E+01
  3.86378457490E+01  4.08777096110E+01  4.32651212440E+01  4.36461145340E+01  4.68282613800E+01
  4.76798863770E+01  4.97289773600E+01  5.09253216110E+01  5.31944632820E+01  5.54091009200E+01
  5.85221511060E+01  6.24020027510E+01  6.74261436470E+01  7.42468784520E+01  8.21925506910E+01
  9.42527429740E+01  1.06908939360E+02  1.24103473000E+02  1.39556884030E+02  1.59222751920E+02
  1.70337151850E+02  1.79851914110E+02  1.66055673970E+02  1.50088325940E+02  1.29593963010E+02
  2.41224022750E+02  1.75852996060E+02  1.97456143850E+02  1.74519125830E+02  2.01732783560E+02
  2.00617595160E+02  1.95022512520E+02  1.70415977240E+02  1.49326949020E+02  1.21754047420E+02
  1.02215958060E+02  8.01620262990E+01  6.60677177620E+01  5.08097703490E+01  4.24444009250E+01
  3.22919779720E+01  2.75807660100E+01  2.08104565980E+01  1.83442258050E+01  1.36497995940E+01
  1.27325155670E+01  9.44987920760E+00  9.56823550520E+00  6.90549447010E+00  8.74840093540E+00
  7.80833094300E+00  6.60382423620E+00  5.75445913160E+00  6.40767689460E+00  5.87745764160E+00
  6.79222829470E+00  6.46478452350E+00  7.67121613090E+00  7.70281985370E+00  9.18093559190E+00
  9.62905686090E+00  1.14295727210E+01  1.23512846380E+01  1.45078170860E+01  1.59176011890E+01
  1.84165766640E+01  2.02816924530E+01  2.30202315120E+01  2.52102642910E+01  2.79993666820E+01
  3.03290971720E+01  3.28819659340E+01  3.51598392130E+01  3.68949874520E+01  3.93052960760E+01
  4.18728385180E+01  4.23523265880E+01  4.40232055670E+01  4.54810280270E+01  4.73102538780E+01
  4.95475007580E+01  5.21036464950E+01  5.56796055540E+01  5.96068776460E+01  6.53189807290E+01
  7.21482311140E+01  8.21157997290E+01  9.31764037930E+01  1.08313718120E+02  1.23222422310E+02
  1.41961936500E+02  1.57387766530E+02  1.72972356870E+02  1.76117653970E+02  1.73216928210E+02
  1.52616073420E+02  1.45796170650E+02  1.37449042050E+02  1.67089172330E+02  1.70939232420E+02
  2.16506798170E+02  2.12335504070E+02  2.06330460230E+02  1.82637475940E+02  1.61367202210E+02
  1.33620504350E+02  1.12612676750E+02  8.97299287120E+01  7.37581583100E+01  5.74856191870E+01
  4.74720242350E+01  3.67371412650E+01  3.09114362960E+01  2.37463605620E+01  2.03187745380E+01
  1.55026894840E+01  1.38442726580E+01  1.05973256250E+01  1.01043037390E+01  7.80864689110E+00
  8.24322338770E+00  5.39301827260E+00  5.16086779250E+00  5.95787976460E+00  6.19490392840E+00
  5.75570739500E+00  6.14934231030E+00  6.10470744760E+00  6.90075132460E+00  6.96233813670E+00
  8.01401503220E+00  8.43120415610E+00  9.76100611250E+00  1.05713697800E+01  1.22097404340E+01
  1.34405123760E+01  1.53954763820E+01  1.70306199280E+01  1.92331568540E+01  2.11878897310E+01
  2.35000297170E+01  2.56242261470E+01  2.78380441280E+01  3.00001187510E+01  3.18805813990E+01
  3.42173021410E+01  3.51311763550E+01  3.60132700940E+01  3.84574800170E+01  3.98201869750E+01
  4.14769569630E+01  4.34333263070E+01  4.56553703950E+01  4.87173986730E+01  5.20502381490E+01
  5.69263093810E+01  6.24720773690E+01  7.03218171580E+01  7.94049184840E+01  9.22468998590E+01
  1.05720054100E+02  1.22653358830E+02  1.38856233720E+02  1.57296748630E+02  1.70115044240E+02
  1.80745268730E+02  1.79440644670E+02  1.78318127380E+02  1.70183096630E+02  1.84266838640E+02
  2.38553118460E+02  2.51789861540E+02  2.22232728350E+02  2.15495091500E+02  1.92535693130E+02
  1.72033717700E+02  1.44695799510E+02  1.23066756700E+02  9.95772914190E+01  8.22230915610E+01
  6.49467541840E+01  5.35075003710E+01  4.19994166110E+01  3.49802018790E+01  2.72159436770E+01
  2.29910466090E+01  1.79102353600E+01  1.55637174700E+01  1.21857875480E+01  1.11453146090E+01
  8.86968592840E+00  8.65611342050E+00  6.80915156110E+00  8.17323183250E+00  7.68728998570E+00
  6.19560065580E+00  5.90337152590E+00  5.86141007580E+00  6.62959633380E+00  6.81941062970E+00
  6.49850535690E+00  7.32078215540E+00  7.60272188840E+00  8.61479034790E+00  9.24258251580E+00
  1.05050067050E+01  1.14997761150E+01  1.30284748100E+01  1.43754699070E+01  1.61397919280E+01
  1.77909901500E+01  1.96904376250E+01  2.15323914910E+01  2.34154271860E+01  2.53219037630E+01
  2.69727227850E+01  2.88306441170E+01  2.98272777010E+01  3.21855463140E+01  3.40074012770E+01
  3.43299905770E+01  3.58303762720E+01  3.74592040530E+01  3.93769611590E+01  4.19254850800E+01
  4.47356618500E+01  4.86929706400E+01  5.30377323960E+01  5.92508273840E+01  6.66490771530E+01
  7.69290219910E+01  8.84274943350E+01  1.03215352670E+02  1.18169530440E+02  1.36348029710E+02
  1.52675465780E+02  1.70199122240E+02  1.81526220070E+02  1.92783387930E+02  1.96723160570E+02
  2.06824428640E+02  2.05841976070E+02  2.16744391730E+02  2.07429395410E+02  2.19844032210E+02
  1.98350418430E+02  1.80091440200E+02  1.53887885270E+02  1.32838611370E+02  1.09147410370E+02
  9.11361913120E+01  7.29459799690E+01  6.04522603620E+01  4.79668886610E+01  3.99713103100E+01
  3.15028136980E+01  2.66292005220E+01  2.09146277290E+01  1.79820368520E+01  1.42265750630E+01
  1.27837477110E+01  1.02886766840E+01  9.76718583320E+00  7.99689166240E+00  8.21128859310E+00
  5.80786988910E+00  5.49437110130E+00  6.49803936940E+00  6.23622848540E+00  6.58443304020E+00
  8.03553411260E+00  6.44574494950E+00  7.04045160660E+00  7.11628339510E+00  7.96290486170E+00
  8.30990718560E+00  9.36492904880E+00  1.00180920450E+01  1.12921959530E+01  1.22557497850E+01
  1.37405212760E+01  1.49774598750E+01  1.65999248570E+01  1.80311568920E+01  1.96805019210E+01
  2.12008305300E+01  2.27291447380E+01  2.42824807600E+01  2.55459486180E+01  2.73200280590E+01
  2.75481412160E+01  2.82774968530E+01  3.06237330870E+01  3.18267729570E+01  3.35532162610E+01
  3.55138090890E+01  3.79369949150E+01  4.10451982280E+01  4.46531906830E+01  4.95872875000E+01
  5.54244300590E+01  6.32327166820E+01  7.24772854810E+01  8.47775747570E+01  9.79787415040E+01
  1.14032346650E+02  1.30302968760E+02  1.49057282200E+02  1.65645682070E+02  1.83406555650E+02
  1.96171729940E+02  2.10873929560E+02  2.18685689790E+02  2.34568222150E+02  2.35493364020E+02
  2.32467581630E+02  1.98722145010E+02  1.84193808910E+02  1.60373885500E+02  1.41008307110E+02
  1.17997237980E+02  9.99635999360E+01  8.13920797700E+01  6.80339598500E+01  5.47845589090E+01
  4.57962743340E+01  3.66547078440E+01  3.08568009700E+01  2.45292984820E+01  2.09914118290E+01
  1.69122922100E+01  1.49496921810E+01  1.22442445830E+01  1.13282859670E+01  9.46004397430E+00
  9.19815771300E+00  7.63703764160E+00  8.85534894030E+00  8.35478861800E+00  6.91222630870E+00
  6.75079099800E+00  7.04279165460E+00  6.65241040950E+00  6.97099694570E+00  7.14720024980E+00
  7.59932235470E+00  7.92305490570E+00  8.58041039920E+00  9.13638926430E+00  9.99352269710E+00
  1.08001877450E+01  1.18419036430E+01  1.28766228040E+01  1.40631865710E+01  1.52801628640E+01
  1.65210713310E+01  1.78415370350E+01  1.90343193570E+01  2.03946505110E+01  2.13879794600E+01
  2.27458214280E+01  2.32420636270E+01  2.54663565790E+01  2.67629744580E+01  2.68060019960E+01
  2.82099618490E+01  2.97694913440E+01  3.16941089390E+01  3.42179378830E+01  3.70745272620E+01
  4.09867031590E+01  4.53726520770E+01  5.14470135600E+01  5.86884604400E+01  6.83918089020E+01
  7.93154395260E+01  9.31666487770E+01  1.07464240010E+02  1.24822604680E+02  1.41747727050E+02
  1.61035304470E+02  1.77518662920E+02  1.95338793610E+02  2.07084671150E+02  2.19555687750E+02
  2.17333098300E+02  1.92935369430E+02  1.80183788780E+02  1.84054817970E+02  1.63406461120E+02
  1.47049084930E+02  1.25509493760E+02  1.08372877910E+02  8.99067283260E+01  7.61713155700E+01
  6.22947239570E+01  5.24821363520E+01  4.25716513260E+01  3.59263599240E+01  2.90222274870E+01
  2.48950967330E+01  2.02707756660E+01  1.77617568340E+01  1.47520007010E+01  1.34466589500E+01
  1.14025515790E+01  1.08204964130E+01  9.32473838720E+00  9.37077175760E+00  7.17469378250E+00
  6.90308864790E+00  7.79186065810E+00  7.56319915740E+00  7.38133351270E+00  7.59723479710E+00
  7.48307892030E+00  7.72098456410E+00  7.87909584720E+00  8.30604039810E+00  8.65612177640E+00
  9.24836261720E+00  9.80433243980E+00  1.05494584450E+01  1.13092261660E+01  1.21852191700E+01
  1.31095405860E+01  1.40496198920E+01  1.50843133310E+01  1.60124218070E+01  1.71014283050E+01
  1.79241818780E+01  1.90778528540E+01  1.97203935400E+01  2.11513219840E+01  2.06765386170E+01
  2.14234961310E+01  2.35602899680E+01  2.46840983130E+01  2.62431238670E+01  2.81863790410E+01
  3.04703898150E+01  3.35433702940E+01  3.69928473740E+01  4.17874647660E+01  4.72954530620E+01
  5.46406742740E+01  6.31708396350E+01  7.44344332720E+01  8.67025089180E+01  1.01612042870E+02
  1.16875034360E+02  1.34843602010E+02  1.51587886010E+02  1.69953592030E+02  1.84082928160E+02
  1.98385596400E+02  2.04482570220E+02  2.13957167800E+02  1.96871267360E+02  1.91111883480E+02
  1.62583327240E+02  1.50453954900E+02  1.31210225200E+02  1.15971941470E+02  9.82418069540E+01
  8.46807916210E+01  7.04418291410E+01  5.99861369840E+01  4.93431606250E+01  4.19074145070E+01
  3.43373244540E+01  2.94485040510E+01  2.42092614410E+01  2.12403400910E+01  1.78928322790E+01
  1.61784629260E+01  1.38934066240E+01  1.29840271370E+01  1.13443781280E+01  1.09666925630E+01
  9.57976179720E+00  1.06011501810E+01  1.00221152180E+01  8.55812180870E+00  8.44252280370E+00
  8.32525874850E+00  8.09209769320E+00  8.23685923680E+00  8.26125081520E+00  8.46373306720E+00
  8.63009077020E+00  8.97338212800E+00  9.30884280790E+00  9.78370581900E+00  1.02939882890E+01
  1.08743581200E+01  1.15330442530E+01  1.21890401900E+01  1.29595133850E+01  1.36258681640E+01
  1.44673617960E+01  1.50861867770E+01  1.59866819750E+01  1.64539024410E+01  1.74200424870E+01
  1.75353435990E+01  1.97047846030E+01  2.05366649080E+01  2.03249963810E+01  2.15866877130E+01
  2.30155657680E+01  2.48161670390E+01  2.71997308590E+01  2.99098106720E+01  3.36159518340E+01
  3.77401506880E+01  4.33914225220E+01  5.00201153530E+01  5.87797762890E+01  6.85619247150E+01
  8.10842639270E+01  9.42558011370E+01  1.09836104540E+02  1.25144988930E+02  1.42402931200E+02
  1.57087464760E+02  1.72209607660E+02  1.81226518020E+02  1.89332393780E+02  1.84212047120E+02
  1.58207112650E+02  1.48069872520E+02  1.51421819400E+02  1.34931242330E+02  1.22525873500E+02
  1.06125708670E+02  9.33251199230E+01  7.90468651130E+01  6.82105378110E+01  5.69460439490E+01
  4.87760220200E+01  4.04822766860E+01  3.48525086870E+01  2.90901967670E+01  2.56285424610E+01
  2.17709146550E+01  1.95884805280E+01  1.70093726150E+01  1.57572914870E+01  1.39218044010E+01
  1.32486440250E+01  1.18648719310E+01  1.17306265770E+01  9.62734805430E+00  9.33571373140E+00
  1.00598800450E+01  9.59745723950E+00  9.37301231420E+00  9.30929008820E+00  9.09268484710E+00
  9.06769513080E+00  9.05706628800E+00  9.16538394560E+00  9.29277461150E+00  9.51252845420E+00
  9.78328979260E+00  1.01005500620E+01  1.05165068660E+01  1.08986547490E+01  1.14200387180E+01
  1.18351704330E+01  1.24358826490E+01  1.28345106380E+01  1.34994466640E+01  1.38299909180E+01
  1.46180798340E+01  1.48508669610E+01  1.59633037210E+01  1.49694272560E+01  1.57125004380E+01
  1.77316608740E+01  1.86932226260E+01  2.01029327390E+01  2.18974714170E+01  2.40178309700E+01
  2.68985917440E+01  3.01209381050E+01  3.45822025190E+01  3.96223231810E+01  4.62558066540E+01
  5.38411304790E+01  6.37734588170E+01  7.45395593440E+01  8.78624316560E+01  1.01295170750E+02
  1.16696702750E+02  1.30686851750E+02  1.45610001090E+02  1.56481269390E+02  1.67045191260E+02
  1.70706576070E+02  1.77631100510E+02  1.63740384500E+02  1.58960036990E+02  1.36152258220E+02
  1.27574015830E+02  1.12921238810E+02  1.01569797460E+02  8.77576628140E+01  7.69490532960E+01
  6.52927265910E+01  5.64928177450E+01  4.75182536780E+01  4.11941603530E+01  3.48384757210E+01
  3.07036636110E+01  2.62886466170E+01  2.37174809980E+01  2.08257081220E+01  1.92031161970E+01
  1.71252870800E+01  1.61408389690E+01  1.45904646170E+01  1.40616085390E+01  1.27319233010E+01
  1.35232572010E+01  1.27509579930E+01  1.12188011410E+01  1.10251282830E+01  1.06435731570E+01
  1.02930738350E+01  1.01348245680E+01  9.95911045360E+00  9.83398429100E+00  9.75849748040E+00
  9.73123614710E+00  9.77640385620E+00  9.85221499260E+00  1.00342416560E+01  1.01080586710E+01
  1.04139862750E+01  1.06028043800E+01  1.09762994950E+01  1.11603761510E+01  1.16128745050E+01
  1.17814013100E+01  1.23376696880E+01  1.24095821730E+01  1.31003962200E+01  1.29512033420E+01
  1.51445328950E+01  1.55841607450E+01  1.51474488860E+01  1.62775064210E+01  1.75566352760E+01
  1.92024971750E+01  2.14132593390E+01  2.39306521830E+01  2.73830788960E+01  3.11902070000E+01
  3.63604145040E+01  4.23180066890E+01  5.00655385400E+01  5.85758203320E+01  6.93675341920E+01
  8.06367819280E+01  9.40527343480E+01  1.06903841500E+02  1.21023762500E+02  1.32594635470E+02
  1.44412496530E+02  1.50988125830E+02  1.56929366120E+02  1.51784554460E+02  1.33590187740E+02
  1.26611413980E+02  1.30806032900E+02  1.18048656320E+02  1.08715080580E+02  9.56488260000E+01
  8.53556585110E+01  7.35914087470E+01  6.46730181060E+01  5.53023670570E+01  4.84069002450E+01
  4.14316336950E+01  3.66799373770E+01  3.18113668310E+01  2.88203716180E+01  2.54403270300E+01
  2.33923455450E+01  2.10209793620E+01  1.97137655690E+01  1.79517849200E+01  1.71359537760E+01
  1.57605756340E+01  1.54003975650E+01  1.32815775050E+01  1.29081394670E+01  1.33570702260E+01
  1.26025941880E+01  1.22059515450E+01  1.18104414820E+01  1.13796307100E+01  1.10044541450E+01
  1.07291196270E+01  1.04452224680E+01  1.02769229790E+01  1.00730320550E+01  1.00539035950E+01
  9.77606638570E+00  9.81401619060E+00  9.89681322200E+00  1.00340386780E+01  1.00242363990E+01
  1.02540845210E+01  1.02529972600E+01  1.05885506210E+01  1.05679222700E+01  1.10984422060E+01
  1.10533783330E+01  1.19375077380E+01  1.05306018560E+01  1.13204730510E+01  1.32757771800E+01
  1.40847800110E+01  1.53662522200E+01  1.70056753140E+01  1.89695755700E+01  2.16543012040E+01
  2.46620947260E+01  2.88070395270E+01  3.34249229640E+01  3.94083102980E+01  4.61218812120E+01
  5.47663622270E+01  6.39530563410E+01  7.51896233780E+01  8.63774631530E+01  9.91961607700E+01
  1.10646747240E+02  1.22853481470E+02  1.31563945560E+02  1.40316432840E+02  1.43656373100E+02
  1.50551940690E+02  1.43124403620E+02  1.39493214550E+02  1.20764961280E+02  1.14266197110E+02
  1.02301245920E+02  9.30162844420E+01  8.15189047120E+01  7.26634810420E+01  6.30576958930E+01
  5.60107072950E+01  4.88219055420E+01  4.35928346750E+01  3.82311045830E+01  3.46567792790E+01
  3.07498604400E+01  2.83578140910E+01  2.56699789620E+01  2.40147884340E+01  2.19974790480E+01
  2.08840972720E+01  1.93196042540E+01  1.85947362680E+01  1.72146822730E+01  1.77165651620E+01
  1.66414935590E+01  1.49724937430E+01  1.45787263840E+01  1.38615870050E+01  1.32557790380E+01
  1.27173820530E+01  1.22282891780E+01  1.16968283440E+01  1.12830758080E+01  1.08297065730E+01
  1.05299204290E+01  1.01473137480E+01  9.89672306830E+00  9.65488739200E+00  9.60735641080E+00
  9.36707127840E+00  9.40767576150E+00  9.21414310660E+00  9.37221466940E+00  9.21558212090E+00
  9.53496266180E+00  9.33547481330E+00  9.85475558080E+00  9.54995541790E+00  1.18384917980E+01
  1.19617282900E+01  1.13469571840E+01  1.23853413840E+01  1.35422692340E+01  1.50609204090E+01
  1.71232927450E+01  1.94832323280E+01  2.27354072400E+01  2.62955355040E+01  3.10966880250E+01
  3.65293752630E+01  4.34727019480E+01  5.09246186710E+01  6.02497874770E+01  6.97950962150E+01
  8.11111079250E+01  9.18246767230E+01  1.03745129180E+02  1.13546344940E+02  1.23823937450E+02
  1.29738546390E+02  1.35087271600E+02  1.30669869850E+02  1.19020350800E+02  1.13675726860E+02
  1.17523591910E+02  1.06502565680E+02  9.87651266880E+01  8.79669572520E+01  7.98080256230E+01
  7.04903395030E+01  6.36266258150E+01  5.62674197520E+01  5.10265010730E+01  4.54846802050E+01
  4.13926204030E+01  3.71187091600E+01  3.43215870730E+01  3.11584329140E+01  2.90780922410E+01
  2.67725419520E+01  2.53385187240E+01  2.35622369200E+01  2.25517303170E+01  2.10954830030E+01
  2.04477958490E+01  1.82130685740E+01  1.76804024400E+01  1.77428581620E+01  1.66109543560E+01
  1.59122347020E+01  1.50986259460E+01  1.43210132770E+01  1.35090430790E+01  1.28524728320E+01
  1.21208551610E+01  1.15633624150E+01  1.09192131830E+01  1.04851899250E+01  9.94470857710E+00
  9.64253633170E+00  9.18474552140E+00  9.02115230690E+00  8.63721266280E+00  8.61104177930E+00
  8.29487717070E+00  8.42370947170E+00  8.14722319050E+00  8.54701965370E+00  8.31053482160E+00
  9.06711674480E+00  7.31565743890E+00  8.22883313870E+00  1.01671754810E+01  1.08806298530E+01
  1.20677012130E+01  1.36050485220E+01  1.54499983640E+01  1.80084448330E+01  2.08658240030E+01
  2.48139462930E+01  2.91491038100E+01  3.47081408240E+01  4.08207614770E+01  4.85866884810E+01
  5.66806845290E+01  6.65320161940E+01  7.62595963980E+01  8.74920619330E+01  9.75883120820E+01
  1.08528345640E+02  1.16341836830E+02  1.24241244340E+02  1.27747085990E+02  1.34814728030E+02
  1.28273079650E+02  1.23715447210E+02  1.06748258420E+02  1.01266810320E+02  9.15377987610E+01
  8.47642148590E+01  7.63960229990E+01  7.03760029270E+01  6.35375269810E+01  5.85546381900E+01
  5.29747577180E+01  4.89460014720E+01  4.43460368110E+01  4.09956266760E+01  3.73227186980E+01
  3.49055363790E+01  3.22833625950E+01  3.05066771710E+01  2.84806833840E+01  2.71848389890E+01
  2.55405924130E+01  2.45556149240E+01  2.30487740510E+01  2.31816943070E+01  2.17091781660E+01
  1.98085421860E+01  1.91054203420E+01  1.79439225760E+01  1.69566903890E+01  1.59290916580E+01
  1.50196526480E+01  1.39923242800E+01  1.31601689460E+01  1.22249481440E+01  1.15248745250E+01
  1.07047913630E+01  1.01555417340E+01  9.46666721930E+00  9.08138351520E+00  8.49799940390E+00
  8.28161333400E+00  7.80279338800E+00  7.76121257920E+00  7.37937492420E+00  7.56520439250E+00
  7.17462511810E+00  7.62278929630E+00  7.24653989350E+00  9.70908912430E+00  9.57393064150E+00
  8.84220399820E+00  9.84373243980E+00  1.09359217040E+01  1.23835265740E+01  1.43668864420E+01
  1.66415469890E+01  1.97916987520E+01  2.32242566570E+01  2.78314610870E+01  3.29747692380E+01
  3.94659005670E+01  4.63380034770E+01  5.48762598420E+01  6.35719476660E+01  7.38937407500E+01
  8.37384985950E+01  9.46622835180E+01  1.03447789850E+02  1.12557209090E+02  1.17712871890E+02
  1.21834084260E+02  1.16634537360E+02  1.02127439470E+02  9.64721506090E+01  9.94560488580E+01
  9.04989853630E+01  8.57636123360E+01  7.91077721640E+01  7.49451373520E+01  6.95038062430E+01
  6.55313665980E+01  6.05421984100E+01  5.66349170510E+01  5.21256766330E+01  4.85055638260E+01
  4.44538518190E+01  4.16613716730E+01  3.85371694110E+01  3.63624214700E+01  3.40534255760E+01
  3.24648343220E+01  3.06205182970E+01  2.93801236780E+01  2.77781542320E+01  2.67901834720E+01
  2.43593276690E+01  2.35885608100E+01  2.31533573530E+01  2.15373420210E+01  2.04156449970E+01
  1.90741590900E+01  1.78357229190E+01  1.64839967250E+01  1.53623352890E+01  1.41074253400E+01
  1.31157341620E+01  1.19919218450E+01  1.11784413340E+01  1.02141382060E+01  9.59048257700E+00
  8.78296685950E+00  8.36832156370E+00  7.70409035160E+00  7.49053630720E+00  6.95972728690E+00
  6.96033179200E+00  6.52079735730E+00  6.89121768280E+00  6.52823455770E+00  7.22332558460E+00
  5.19604201700E+00  6.29920186530E+00  8.28523733670E+00  8.96459710120E+00  1.01257550350E+01
  1.16357586290E+01  1.34439495120E+01  1.59697191920E+01  1.87827195880E+01  2.26679870880E+01
  2.68938324010E+01  3.22781036710E+01  3.81437958860E+01  4.55440422340E+01  5.32313937710E+01
  6.25595918700E+01  7.18067885370E+01  8.23147020510E+01  9.13402699840E+01  1.00939430800E+02
  1.07398516590E+02  1.13362711410E+02  1.15125732780E+02  1.20027248060E+02  1.04316277250E+02
  9.77631972180E+01  8.31557242120E+01  8.11424570680E+01  7.67802002120E+01  7.55417601660E+01
  7.26195110470E+01  7.08375380670E+01  6.72499663880E+01  6.42282408270E+01  5.99644757790E+01
  5.64511207440E+01  5.22861692770E+01  4.88971418460E+01  4.53036922340E+01  4.27942498400E+01
  4.02097844370E+01  3.82992430590E+01  3.62598725180E+01  3.47596173000E+01  3.30208016500E+01
  3.17382151850E+01  3.00595878160E+01  2.97524032970E+01  2.78036574470E+01  2.55716473760E+01
  2.44530607880E+01  2.27277367080E+01  2.12512548860E+01  1.96256366720E+01  1.82115177940E+01
  1.66052388390E+01  1.53014770830E+01  1.38370404200E+01  1.27272664780E+01  1.14516492590E+01
  1.05711727920E+01  9.50524174930E+00  8.86831434530E+00  7.99464640810E+00  7.59972906650E+00
  6.90487666450E+00  6.74971105700E+00  6.22217473310E+00  6.34536156300E+00  5.76292691770E+00
  6.30872378030E+00  5.90834184560E+00  8.61972257680E+00  8.27264869430E+00  7.49784799700E+00
  8.52684543770E+00  9.64507337300E+00  1.11030081350E+01  1.31181153300E+01  1.54063652870E+01
  1.85850176170E+01  2.20172821950E+01  2.66157872880E+01  3.16992989010E+01  3.80877517980E+01
  4.48319791730E+01  5.31730971350E+01  6.16648811760E+01  7.15033736390E+01  8.03298303600E+01
  8.98518382650E+01  9.68636873900E+01  1.03243333220E+02  1.05035457200E+02  1.04575702850E+02
  9.51438911090E+01  6.92137447440E+01  6.48752345790E+01  7.03672808380E+01  6.76826132170E+01
  7.03728659340E+01  7.12020838290E+01  7.28990538850E+01  7.19992406970E+01  7.07622319990E+01
  6.75229981340E+01  6.43439594960E+01  6.02603061050E+01  5.66812176120E+01  5.27412982160E+01
  4.98807340050E+01  4.68278128450E+01  4.45751278380E+01  4.23212779170E+01  4.05974891250E+01
  3.87251514460E+01  3.72454667950E+01  3.55096561000E+01  3.41305911650E+01  3.14721702370E+01
  3.03708279620E+01  2.93543956470E+01  2.71336175140E+01  2.54987222670E+01  2.35133261040E+01
  2.17390597900E+01  1.97528897070E+01  1.81224398570E+01  1.62827587750E+01  1.48506143390E+01
  1.32216139850E+01  1.20571101820E+01  1.06800703580E+01  9.80139124920E+00  8.67713322170E+00
  8.09492687920E+00  7.19409411250E+00  6.89060295640E+00  6.19124446610E+00  6.13475932930E+00
  5.42531607490E+00  6.47752348720E+00  5.80437592180E+00  6.25197936420E+00  4.04674639880E+00
  5.39027157710E+00  7.51441276530E+00  8.23183145450E+00  9.46834445010E+00  1.10570822300E+01
  1.29492110100E+01  1.55702975680E+01  1.84727144380E+01  2.24474729750E+01  2.67404550280E+01
  3.21857572360E+01  3.81028898410E+01  4.55151537570E+01  5.31914717930E+01  6.22442470480E+01
  7.06146153420E+01  7.97643386520E+01  8.68795230550E+01  9.32596655050E+01  9.53781842200E+01
  9.56023018450E+01  9.18526984410E+01  9.14920048760E+01  7.16607957740E+01  6.69456375240E+01
  5.60442321170E+01  5.94780519820E+01  6.38465649780E+01  7.04148428080E+01  7.34499362100E+01
  7.51945152940E+01  7.38828769800E+01  7.17140506980E+01  6.80279616860E+01  6.44863334220E+01
  6.04599948850E+01  5.69657400130E+01  5.35710615700E+01  5.10304575610E+01  4.86562911300E+01
  4.66496256440E+01  4.47420203030E+01  4.30411272400E+01  4.13146269430E+01  3.96815940030E+01
  3.78897206230E+01  3.70243946510E+01  3.45998026910E+01  3.18839065960E+01  3.03366849470E+01
  2.78788194080E+01  2.59084390560E+01  2.35304550740E+01  2.16420767000E+01  1.93245586470E+01
  1.76214189000E+01  1.55223665020E+01  1.41184511930E+01  1.23027377040E+01  1.12486589510E+01
  9.73009860990E+00  9.03872297000E+00  7.77847869350E+00  7.45416434050E+00  6.38991099320E+00
  6.46732124020E+00  5.33752942500E+00  6.64146507860E+00  7.16262507140E+00  5.70234418490E+00
  5.48659169290E+00  8.42591449530E+00  8.00556804860E+00  7.20366229800E+00  8.39871277770E+00
  9.62272325810E+00  1.12391660410E+01  1.34117515790E+01  1.58697794320E+01  1.92317757480E+01
  2.28322812050E+01  2.76249599960E+01  3.28722063210E+01  3.94394468410E+01  4.63115024330E+01
  5.46329160420E+01  6.24500790680E+01  7.11268144350E+01  7.81442761520E+01  8.44386576200E+01
  8.67095547000E+01  8.64297129810E+01  8.04147926860E+01  7.13506920640E+01  5.80391470220E+01
  8.06363505910E+01  7.28115422070E+01  5.87397026760E+01  5.38643111310E+01  6.28125725030E+01
  7.08157951090E+01  7.65333274120E+01  7.81847712670E+01  7.77493632450E+01  7.50540848100E+01
  7.17544453250E+01  6.78648809710E+01  6.40757141830E+01  6.04726405380E+01  5.76824817410E+01
  5.49506864280E+01  5.27558364130E+01  5.07626458880E+01  4.89971847880E+01  4.72414487300E+01
  4.55670164620E+01  4.37627619760E+01  4.19688301320E+01  3.90695036660E+01  3.75725151800E+01
  3.59133999250E+01  3.30057311050E+01  3.07982803660E+01  2.81066395270E+01  2.57520748180E+01
  2.31021485540E+01  2.09430551510E+01  1.85276172360E+01  1.66608551070E+01  1.45718916550E+01
  1.30790939420E+01  1.13639587170E+01  1.02600754920E+01  8.91084790020E+00  8.18558390500E+00
  7.15774046270E+00  6.77352212880E+00  6.01741993420E+00  5.95546673770E+00  5.82342783510E+00
  5.82933909120E+00  5.34106211350E+00  6.24060252440E+00  3.74497890150E+00  5.50916197990E+00
  7.80028917050E+00  8.70181474780E+00  1.01116287230E+01  1.19411406150E+01  1.40672943530E+01
  1.69592873220E+01  2.01399169020E+01  2.43984327010E+01  2.89980813050E+01  3.47346003780E+01
  4.09661254930E+01  4.85540656070E+01  5.59602000730E+01  6.40793194780E+01  7.11002769470E+01
  7.73382109600E+01  8.01171087180E+01  7.97352518650E+01  7.35127650310E+01  6.47166919760E+01
  6.23605164980E+01  8.16390835640E+01  2.78776122300E+02  1.39512664280E+02  6.18189060350E+01
  5.41356646380E+01  6.49879462770E+01  7.39565803200E+01  8.02876003920E+01  8.12784171730E+01
  8.10898721890E+01  7.76229922590E+01  7.48349072450E+01  7.03496876520E+01  6.72832668250E+01
  6.33754798370E+01  6.10465526150E+01  5.82549673760E+01  5.68221183030E+01  5.44863733330E+01
  5.33057315850E+01  5.11480209630E+01  4.98871698650E+01  4.76259381390E+01  4.60401510390E+01
  4.43243627710E+01  4.16261454780E+01  3.81665508510E+01  3.63592167890E+01  3.29547375940E+01
  3.06192846080E+01  2.73462059890E+01  2.50922658750E+01  2.19971848310E+01  1.99790859580E+01
  1.72567040330E+01  1.56112490320E+01  1.33376568930E+01  1.21104724500E+01  1.02993536320E+01
  9.47876392810E+00  8.08615836300E+00  7.63808456520E+00  6.61261393150E+00  6.49433386700E+00
  5.80061712230E+00  5.93545668390E+00  5.55025060770E+00  6.10748389260E+00  5.83919968380E+00
  9.27141040840E+00  8.73381280880E+00  8.02480528580E+00  9.54169392040E+00  1.09197177040E+01
  1.29997803450E+01  1.53156089600E+01  1.83870094580E+01  2.18518463760E+01  2.62136580680E+01
  3.10511669620E+01  3.72031958030E+01  4.36440266110E+01  5.12795897500E+01  5.83257850440E+01
  6.61190680420E+01  7.17143342450E+01  7.63662415320E+01  7.55339679520E+01  7.18296956070E+01
  6.03473988200E+01  5.88285210850E+01  8.89009744530E+01  2.09558361740E+02  4.53654124600E+02
  1.03983133800E+02  6.87172274530E+01  5.04143727770E+01  7.52625036610E+01  7.46459443360E+01
  8.65344127880E+01  8.17048898600E+01  8.47610078480E+01  7.81276206160E+01  7.75412543350E+01
  7.15260180610E+01  6.98421267700E+01  6.56167443150E+01  6.43299705690E+01  6.14504816240E+01
  6.01231095290E+01  5.84072819750E+01  5.67573340900E+01  5.55070586150E+01  5.32998407650E+01
  5.21195975550E+01  4.91512248480E+01  4.69953886960E+01  4.40140691980E+01  4.29410801650E+01
  3.79503945620E+01  3.67006934830E+01  3.16743925930E+01  3.05370139540E+01  2.53697749740E+01
  2.47395641720E+01  1.96821007110E+01  1.96785306080E+01  1.48494659430E+01  1.55524884680E+01
  1.10020247290E+01  1.24175103260E+01  8.12033035810E+00  1.02185442990E+01  6.10690726510E+00
  8.83564080940E+00  4.83896905460E+00  8.16988760820E+00  4.26689837000E+00  8.18668277170E+00
  4.27238900020E+00  8.98842922680E+00  2.48106343370E+00  8.74647923860E+00  7.17589071480E+00
  1.27076782500E+01  9.94808568710E+00  1.68798364760E+01  1.45546906900E+01  2.30379487880E+01
  2.14110245780E+01  3.18129453190E+01  3.11366717670E+01  4.36291675970E+01  4.38412788080E+01
  5.82704389660E+01  5.78958960880E+01  7.28141106620E+01  6.87630258200E+01  8.03228045120E+01
  6.65984434960E+01  7.03108825170E+01  4.78332243980E+01  8.62905736410E+01  2.25752007980E+02
  6.38185046910E+02  1.99638263340E+02  7.25526947810E+01  5.50300620380E+01  6.54701171130E+01
  7.53472513870E+01  8.34656586660E+01  8.48420832880E+01  8.62021837830E+01  8.25310739510E+01
  8.10210599160E+01  7.60480727120E+01  7.41278037380E+01  6.97363365730E+01  6.84545331290E+01
  6.43022318710E+01  6.52650404960E+01  6.21936517220E+01  6.24352866890E+01  5.95184646140E+01
  5.96597557420E+01  5.64503523410E+01  5.61234361850E+01  5.23822185250E+01  5.22247610670E+01
  4.69805439650E+01  4.51220180570E+01  4.08703786970E+01  3.87560767850E+01  3.39877407890E+01
  3.19826350360E+01  2.73901506900E+01  2.56016139290E+01  2.13921562480E+01  2.00408596670E+01
  1.63636112520E+01  1.55313917870E+01  1.24277203680E+01  1.21189776900E+01  9.56629157640E+00
  9.71507418190E+00  7.65961114040E+00  8.19202992450E+00  6.58006317020E+00  7.43012001380E+00
  6.21735759450E+00  7.36150218650E+00  6.62102152050E+00  7.97779527050E+00  1.05388996950E+01
  1.13422797060E+01  9.55581982290E+00  1.27363389920E+01  1.33308253210E+01  1.70729090370E+01
  1.88349551570E+01  2.35572112560E+01  2.67024226530E+01  3.26632320410E+01  3.74224302760E+01
  4.50023911940E+01  5.13130843520E+01  5.93065142390E+01  6.58014821540E+01  7.22216102270E+01
  7.56108510600E+01  7.54950964890E+01  7.07075157220E+01  5.99051925210E