       N       E                     dE             d eps       ncg     rms          rms(c)
DAV:   1     0.925827938085E+02    0.92583E+02   -0.20732E+04 42368   0.113E+03
DAV:   2    -0.107708954072E+03   -0.20029E+03   -0.19919E+03 58224   0.213E+02
DAV:   3    -0.113007647362E+03   -0.52987E+01   -0.52670E+01 60848   0.398E+01
DAV:   4    -0.113053879292E+03   -0.46232E-01   -0.46197E-01 59600   0.367E+00
DAV:   5    -0.113054755614E+03   -0.87632E-03   -0.87651E-03 61664   0.468E-01    0.129E+01
DAV:   6    -0.108999833435E+03    0.40549E+01   -0.59614E+00 56608   0.104E+01    0.717E+00
DAV:   7    -0.107944281174E+03    0.10556E+01   -0.27260E+00 59600   0.759E+00    0.231E+00
DAV:   8    -0.107924988350E+03    0.19293E-01   -0.20348E-01 60640   0.236E+00    0.835E-01
DAV:   9    -0.107926785012E+03   -0.17967E-02   -0.17414E-02 59344   0.686E-01    0.201E-01
DAV:  10    -0.107927493654E+03   -0.70864E-03   -0.20512E-03 59920   0.256E-01    0.599E-02
DAV:  11    -0.107927643112E+03   -0.14946E-03   -0.28053E-04 60096   0.956E-02    0.233E-02
DAV:  12    -0.107927677328E+03   -0.34215E-04   -0.49797E-05 60368   0.397E-02    0.102E-02
DAV:  13    -0.107927683934E+03   -0.66063E-05   -0.10648E-05 60736   0.191E-02    0.402E-03
DAV:  14    -0.107927684521E+03   -0.58659E-06   -0.13875E-06 62176   0.665E-03    0.973E-04
DAV:  15    -0.107927684556E+03   -0.35385E-07   -0.13974E-07 61936   0.204E-03    0.350E-04
DAV:  16    -0.107927684573E+03   -0.16843E-07   -0.19382E-08 49296   0.816E-04    0.145E-04
DAV:  17    -0.107927684592E+03   -0.19380E-07   -0.23365E-09 40624   0.294E-04    0.845E-05
DAV:  18    -0.107927684594E+03   -0.20486E-08   -0.38616E-10 37024   0.109E-04
   1 F= -.10792768E+03 E0= -.10792768E+03  d E =0.000000E+00
       N       E                     dE             d eps       ncg     rms          rms(c)
DAV:   1    -0.107927684593E+03   -0.11155E-08   -0.75813E-11 34176   0.504E-05    0.705E-05
DAV:   2    -0.107927684593E+03   -0.14461E-09   -0.90502E-12 32448   0.175E-05    0.702E-05
DAV:   3    -0.107927684593E+03    0.25011E-09   -0.38318E-12 30752   0.117E-05    0.700E-05
DAV:   4    -0.107927684593E+03   -0.24193E-09   -0.13468E-13 29456   0.542E-06    0.700E-05
DAV:   5    -0.107927684593E+03    0.61027E-09   -0.31028E-13 28464   0.265E-06    0.700E-05
DAV:   6    -0.107927684593E+03   -0.40882E-09    0.24167E-13 27472   0.127E-06
   2 F= -.10792768E+03 E0= -.10792768E+03  d E =0.000000E+00
       N       E                     dE             d eps       ncg     rms          rms(c)
DAV:   1    -0.107927684592E+03    0.30104E-09    0.10287E-12 26800   0.588E-07    0.700E-05
DAV:   2    -0.107927684593E+03   -0.72532E-09    0.11374E-12 25984   0.268E-07    0.700E-05
DAV:   3    -0.107927684593E+03    0.58481E-09    0.23833E-13 25360   0.156E-07    0.700E-05
DAV:   4    -0.107927684593E+03   -0.63210E-10    0.60212E-13 24960   0.804E-08    0.700E-05
DAV:   5    -0.107927684592E+03    0.34834E-09    0.74245E-13 24528   0.585E-08    0.700E-05
DAV:   6    -0.107927684593E+03   -0.66575E-09    0.10320E-12 24000   0.329E-08
   3 F= -.10792768E+03 E0= -.10792768E+03  d E =0.000000E+00
       N       E                     dE             d eps       ncg     rms          rms(c)
DAV:   1    -0.107927684593E+03   -0.10969E-08    0.15202E-13 24016   0.185E-08    0.700E-05
DAV:   2    -0.107927684594E+03   -0.16917E-09    0.10551E-12 23776   0.109E-08    0.700E-05
DAV:   3    -0.107927684593E+03    0.61436E-09    0.17274E-13 23712   0.963E-09    0.700E-05
DAV:   4    -0.107927684593E+03   -0.46248E-09    0.34569E-13 23216   0.597E-09    0.700E-05
DAV:   5    -0.107927684593E+03    0.62573E-09    0.10536E-12 23312   0.341E-09    0.700E-05
DAV:   6    -0.107927684593E+03    0.21919E-09    0.94539E-13 23104   0.265E-09
   4 F= -.10792768E+03 E0= -.10792768E+03  d E =0.000000E+00
       N       E                     dE             d eps       ncg     rms          rms(c)
DAV:   1    -0.107927684593E+03   -0.99135E-10    0.62618E-13 23056   0.238E-09    0.700E-05
DAV:   2    -0.107927684593E+03   -0.47294E-09   -0.89456E-13 22752   0.152E-09    0.700E-05
DAV:   3    -0.107927684594E+03   -0.10687E-09   -0.30210E-14 22816   0.115E-09    0.700E-05
DAV:   4    -0.107927684593E+03    0.54433E-09    0.39131E-13 22768   0.115E-09    0.700E-05
DAV:   5    -0.107927684593E+03   -0.43610E-09   -0.30453E-13 22640   0.603E-10    0.700E-05
DAV:   6    -0.107927684593E+03    0.18781E-09    0.57884E-13 22624   0.408E-10
   5 F= -.10792768E+03 E0= -.10792768E+03  d E =0.000000E+00
       N       E                     dE             d eps       ncg     rms          rms(c)
DAV:   1    -0.107927684593E+03    0.49431E-09    0.50424E-13 22544   0.292E-10    0.700E-05
DAV:   2    -0.107927684593E+03   -0.18781E-09   -0.18501E-13 22512   0.314E-10    0.700E-05
DAV:   3    -0.107927684593E+03   -0.21237E-09    0.10186E-12 22432   0.393E-10    0.700E-05
DAV:   4    -0.107927684593E+03    0.24011E-09    0.83596E-13 22400   0.287E-10    0.700E-05
DAV:   5    -0.107927684593E+03   -0.15143E-09   -0.53425E-14 22320   0.256E-10    0.700E-05
DAV:   6    -0.107927684592E+03    0.89449E-09    0.60333E-13 22224   0.280E-10
   6 F= -.10792768E+03 E0= -.10792768E+03  d E =0.000000E+00
       N       E                     dE             d eps       ncg     rms          rms(c)
DAV:   1    -0.107927684592E+03    0.95724E-09    0.99564E-14 22160   0.225E-10    0.700E-05
DAV:   2    -0.107927684593E+03   -0.79126E-09    0.39313E-13 22144   0.680E-10    0.700E-05
DAV:   3    -0.107927684593E+03    0.24374E-09    0.43656E-13 22128   0.424E-10    0.700E-05
DAV:   4    -0.107927684593E+03    0.15507E-09    0.37626E-13 22048   0.188E-10    0.700E-05
DAV:   5    -0.107927684593E+03    0.86402E-11    0.53681E-13 21904   0.114E-10    0.700E-05
DAV:   6    -0.107927684593E+03   -0.45475E-10    0.50055E-13 21824   0.235E-10
   7 F= -.10792768E+03 E0= -.10792768E+03  d E =0.000000E+00
       N       E                     dE             d eps       ncg     rms          rms(c)
DAV:   1    -0.107927684593E+03   -0.56843E-09    0.62214E-13 21776   0.269E-10    0.700E-05
DAV:   2    -0.107927684593E+03    0.77762E-10    0.76422E-13 21728   0.447E-10    0.700E-05
DAV:   3    -0.107927684593E+03    0.21964E-09   -0.72928E-14 21696   0.392E-10    0.700E-05
DAV:   4    -0.107927684592E+03    0.41837E-09    0.33514E-13 21712   0.178E-10    0.700E-05
DAV:   5    -0.107927684593E+03   -0.41655E-09    0.12069E-13 21712   0.295E-10    0.700E-05
DAV:   6    -0.107927684592E+03    0.43110E-09    0.94200E-13 21712   0.375E-10
   8 F= -.10792768E+03 E0= -.10792768E+03  d E =0.000000E+00
       N       E                     dE             d eps       ncg     rms          rms(c)
DAV:   1    -0.107927684593E+03    0.20918E-10    0.47151E-13 21712   0.220E-10    0.700E-05
DAV:   2    -0.107927684593E+03   -0.40382E-09    0.49161E-13 21712   0.144E-10    0.700E-05
DAV:   3    -0.107927684593E+03    0.85493E-10    0.52135E-13 21712   0.246E-10    0.700E-05
DAV:   4    -0.107927684592E+03    0.79990E-09    0.10216E-12 21712   0.300E-10    0.700E-05
DAV:   5    -0.107927684593E+03   -0.42246E-09   -0.81005E-14 21712   0.213E-10    0.700E-05
DAV:   6    -0.107927684593E+03   -0.13461E-09    0.47816E-13 21712   0.123E-10
   9 F= -.10792768E+03 E0= -.10792768E+03  d E =0.000000E+00
       N       E                     dE             d eps       ncg     rms          rms(c)
DAV:   1    -0.107927684593E+03    0.24102E-09    0.27175E-13 21712   0.158E-10    0.700E-05
DAV:   2    -0.107927684593E+03   -0.45065E-09    0.44205E-13 21712   0.178E-10    0.700E-05
DAV:   3    -0.107927684593E+03   -0.16826E-09    0.58980E-13 21712   0.205E-10    0.700E-05
DAV:   4    -0.107927684593E+03    0.92768E-10    0.11364E-12 21664   0.166E-10    0.700E-05
DAV:   5    -0.107927684593E+03    0.22601E-09    0.50613E-13 21584   0.159E-10    0.700E-05
DAV:   6    -0.107927684593E+03   -0.39017E-09    0.22271E-13 21568   0.150E-10
  10 F= -.10792768E+03 E0= -.10792768E+03  d E =0.000000E+00
       N       E                     dE             d eps       ncg     rms          rms(c)
DAV:   1    -0.107927684593E+03   -0.11732E-09    0.59131E-13 21568   0.130E-10    0.700E-05
DAV:   2    -0.107927684594E+03   -0.54206E-09    0.93447E-13 21568   0.169E-10    0.700E-05
DAV:   3    -0.107927684592E+03    0.12174E-08    0.35259E-13 21536   0.188E-10    0.700E-05
DAV:   4    -0.107927684593E+03   -0.64483E-09    0.40759E-13 21520   0.295E-10    0.700E-05
DAV:   5    -0.107927684593E+03    0.15416E-09    0.99942E-13 21520   0.203E-10    0.700E-05
DAV:   6    -0.107927684593E+03   -0.24920E-09    0.89968E-13 21504   0.155E-10
  11 F= -.10792768E+03 E0= -.10792768E+03  d E =0.000000E+00
       N       E                     dE             d eps       ncg     rms          rms(c)
DAV:   1    -0.107927684593E+03   -0.31196E-09    0.88740E-13 21472   0.185E-10    0.700E-05
DAV:   2    -0.107927684593E+03    0.65029E-10    0.76491E-13 21472   0.263E-10    0.700E-05
DAV:   3    -0.107927684593E+03    0.36971E-09    0.10854E-12 21472   0.205E-10    0.700E-05
DAV:   4    -0.107927684593E+03    0.39108E-10    0.17134E-13 21440   0.287E-10    0.700E-05
DAV:   5    -0.107927684593E+03   -0.73078E-09    0.89524E-13 21424   0.146E-10    0.700E-05
DAV:   6    -0.107927684593E+03    0.43019E-09    0.59696E-13 21424   0.308E-10
  12 F= -.10792768E+03 E0= -.10792768E+03  d E =0.000000E+00
       N       E                     dE             d eps       ncg     rms          rms(c)
DAV:   1    -0.107927684593E+03    0.44065E-09    0.40220E-13 21424   0.361E-10    0.700E-05
DAV:   2    -0.107927684593E+03   -0.97316E-10    0.10517E-12 21424   0.128E-10    0.700E-05
DAV:   3    -0.107927684593E+03    0.29559E-09    0.74632E-13 21424   0.267E-10    0.700E-05
DAV:   4    -0.107927684593E+03   -0.24647E-09    0.43309E-13 21424   0.142E-10    0.700E-05
DAV:   5    -0.107927684593E+03    0.14188E-09    0.42954E-13 21424   0.133E-10    0.700E-05
DAV:   6    -0.107927684593E+03   -0.31059E-09    0.10186E-13 21424   0.186E-10
  13 F= -.10792768E+03 E0= -.10792768E+03  d E =0.000000E+00
       N       E                     dE             d eps       ncg     rms          rms(c)
DAV:   1    -0.107927684593E+03    0.67303E-10    0.78085E-13 21424   0.135E-10    0.700E-05
DAV:   2    -0.107927684593E+03   -0.47976E-09    0.54425E-13 21392   0.189E-10    0.700E-05
DAV:   3    -0.107927684593E+03    0.47930E-09    0.97531E-13 21376   0.257E-10    0.700E-05
DAV:   4    -0.107927684593E+03    0.39563E-10    0.67104E-13 21376   0.213E-10    0.700E-05
DAV:   5    -0.107927684593E+03   -0.21555E-09    0.12765E-12 21376   0.182E-10    0.700E-05
DAV:   6    -0.107927684593E+03    0.21100E-09    0.82682E-13 21344   0.148E-10
  14 F= -.10792768E+03 E0= -.10792768E+03  d E =0.000000E+00
       N       E                     dE             d eps       ncg     rms          rms(c)
DAV:   1    -0.107927684593E+03   -0.32378E-09    0.65133E-13 21328   0.118E-10    0.700E-05
DAV:   2    -0.107927684593E+03    0.14643E-09    0.37786E-13 21328   0.323E-10    0.700E-05
DAV:   3    -0.107927684593E+03    0.17462E-09    0.37393E-13 21328   0.217E-10    0.700E-05
DAV:   4    -0.107927684593E+03    0.48203E-10    0.46734E-13 21328   0.207E-10    0.700E-05
DAV:   5    -0.107927684592E+03    0.60118E-09    0.90680E-13 21328   0.159E-10    0.700E-05
DAV:   6    -0.107927684593E+03   -0.99317E-09    0.46075E-13 21328   0.157E-10
  15 F= -.10792768E+03 E0= -.10792768E+03  d E =0.000000E+00
       N       E                     dE             d eps       ncg     rms          rms(c)
DAV:   1    -0.107927684594E+03   -0.12446E-08    0.78756E-13 21328   0.201E-10    0.700E-05
DAV:   2    -0.107927684593E+03    0.35243E-09    0.75274E-13 21328   0.411E-10    0.700E-05
DAV:   3    -0.107927684592E+03    0.95861E-09    0.61862E-13 21296   0.274E-10    0.700E-05
DAV:   4    -0.107927684593E+03   -0.99044E-09   -0.32237E-14 21280   0.356E-10    0.700E-05
DAV:   5    -0.107927684592E+03    0.10036E-08    0.47926E-13 21280   0.260E-10    0.700E-05
DAV:   6    -0.107927684593E+03   -0.74442E-09    0.10464E-12 21280   0.232E-10
  16 F= -.10792768E+03 E0= -.10792768E+03  d E =0.000000E+00
       N       E                     dE             d eps       ncg     rms          rms(c)
DAV:   1    -0.107927684593E+03   -0.39518E-09    0.77584E-13 21280   0.282E-10    0.700E-05
DAV:   2    -0.107927684592E+03    0.18281E-09    0.43507E-13 21280   0.368E-10    0.700E-05
DAV:   3    -0.107927684593E+03   -0.52887E-09    0.39095E-13 21280   0.304E-10    0.700E-05
DAV:   4    -0.107927684593E+03    0.21328E-09    0.18675E-13 21280   0.290E-10    0.700E-05
DAV:   5    -0.107927684592E+03    0.44747E-09    0.89995E-15 21280   0.143E-10    0.700E-05
DAV:   6    -0.107927684593E+03   -0.38290E-09    0.89751E-13 21280   0.205E-10
  17 F= -.10792768E+03 E0= -.10792768E+03  d E =0.000000E+00
       N       E                     dE             d eps       ncg     rms          rms(c)
DAV:   1    -0.107927684593E+03   -0.11541E-08    0.24832E-13 21280   0.188E-10    0.700E-05
DAV:   2    -0.107927684593E+03    0.24193E-09    0.73108E-13 21280   0.452E-10    0.700E-05
DAV:   3    -0.107927684593E+03    0.45475E-11    0.21004E-13 21280   0.266E-10    0.700E-05
DAV:   4    -0.107927684592E+03    0.77125E-09   -0.22586E-13 21280   0.441E-10    0.700E-05
DAV:   5    -0.107927684593E+03   -0.44747E-09    0.19627E-13 21280   0.358E-10    0.700E-05
DAV:   6    -0.107927684593E+03   -0.13415E-09    0.58549E-13 21280   0.143E-10
  18 F= -.10792768E+03 E0= -.10792768E+03  d E =0.000000E+00
       N       E                     dE             d eps       ncg     rms          rms(c)
DAV:   1    -0.107927684593E+03    0.21464E-09    0.60846E-13 21280   0.282E-10    0.700E-05
DAV:   2    -0.107927684594E+03   -0.83946E-09    0.10104E-12 21280   0.498E-10    0.700E-05
DAV:   3    -0.107927684593E+03    0.35197E-09    0.13561E-13 21280   0.387E-10    0.700E-05
DAV:   4    -0.107927684593E+03   -0.17280E-09    0.82262E-13 21280   0.168E-10    0.700E-05
DAV:   5    -0.107927684593E+03    0.34561E-09    0.91622E-13 21280   0.209E-10    0.700E-05
DAV:   6    -0.107927684592E+03    0.55843E-09    0.70098E-13 21280   0.170E-10
  19 F= -.10792768E+03 E0= -.10792768E+03  d E =0.000000E+00
       N       E                     dE             d eps       ncg     rms          rms(c)
DAV:   1    -0.107927684593E+03   -0.42201E-09    0.55100E-13 21280   0.181E-10    0.700E-05
DAV:   2    -0.107927684593E+03    0.68030E-09    0.44857E-13 21280   0.387E-10    0.700E-05
DAV:   3    -0.107927684593E+03    0.22737E-10    0.77297E-13 21280   0.276E-10    0.700E-05
DAV:   4    -0.107927684593E+03    0.61846E-10    0.73518E-13 21280   0.127E-10    0.700E-05
DAV:   5    -0.107927684593E+03   -0.57980E-09    0.85330E-13 21280   0.950E-11    0.700E-05
DAV:   6    -0.107927684593E+03    0.32469E-09    0.71606E-13 21280   0.175E-10
  20 F= -.10792768E+03 E0= -.10792768E+03  d E =0.000000E+00
       N       E                     dE             d eps       ncg     rms          rms(c)
DAV:   1    -0.107927684593E+03   -0.10323E-09    0.62685E-15 21280   0.258E-10    0.700E-05
DAV:   2    -0.107927684593E+03    0.67939E-09    0.20855E-13 21280   0.391E-10    0.700E-05
DAV:   3    -0.107927684593E+03   -0.34379E-09    0.54405E-13 21280   0.192E-10    0.700E-05
DAV:   4    -0.107927684593E+03   -0.41018E-09    0.36084E-13 21264   0.131E-10    0.700E-05
DAV:   5    -0.107927684592E+03    0.10587E-08    0.65547E-14 21280   0.173E-10    0.700E-05
DAV:   6    -0.107927684593E+03   -0.93951E-09    0.11020E-13 21280   0.245E-10
  21 F= -.10792768E+03 E0= -.10792768E+03  d E =0.000000E+00
       N       E                     dE             d eps       ncg     rms          rms(c)
DAV:   1    -0.107927684593E+03   -0.10468E-08    0.34480E-13 21280   0.293E-10    0.700E-05
DAV:   2    -0.107927684594E+03   -0.13915E-09    0.36313E-13 21280   0.144E-10    0.700E-05
DAV:   3    -0.107927684593E+03    0.59754E-09    0.11293E-13 21280   0.215E-10    0.700E-05
DAV:   4    -0.107927684593E+03   -0.11960E-09    0.15131E-13 21280   0.336E-10    0.700E-05
DAV:   5    -0.107927684593E+03   -0.95042E-10    0.10739E-13 21280   0.326E-10    0.700E-05
DAV:   6    -0.107927684593E+03    0.70941E-10   -0.49843E-13 21280   0.202E-10
  22 F= -.10792768E+03 E0= -.10792768E+03  d E =0.000000E+00
       N       E                     dE             d eps       ncg     rms          rms(c)
DAV:   1    -0.107927684593E+03   -0.28922E-09    0.40969E-14 21280   0.110E-10    0.700E-05
DAV:   2    -0.107927684593E+03   -0.45475E-10   -0.64300E-13 21280   0.164E-10    0.700E-05
DAV:   3    -0.107927684593E+03    0.15280E-09    0.55352E-14 21280   0.133E-10    0.700E-05
DAV:   4    -0.107927684593E+03    0.55115E-09    0.15258E-13 21280   0.280E-10    0.700E-05
DAV:   5    -0.107927684593E+03   -0.44110E-10    0.39100E-13 21280   0.194E-10    0.700E-05
DAV:   6    -0.107927684593E+03   -0.46066E-09    0.67480E-13 21280   0.252E-10
  23 F= -.10792768E+03 E0= -.10792768E+03  d E =0.000000E+00
       N       E                     dE             d eps       ncg     rms          rms(c)
DAV:   1    -0.107927684593E+03    0.15416E-09    0.71014E-13 21280   0.200E-10    0.700E-05
DAV:   2    -0.107927684593E+03   -0.36562E-09    0.12404E-13 21280   0.435E-10    0.700E-05
DAV:   3    -0.107927684592E+03    0.77944E-09    0.75696E-13 21280   0.237E-10    0.700E-05
DAV:   4    -0.107927684592E+03   -0.12278E-09    0.71801E-13 21280   0.236E-10    0.700E-05
DAV:   5    -0.107927684593E+03   -0.44292E-09    0.15844E-13 21280   0.133E-10    0.700E-05
DAV:   6    -0.107927684593E+03   -0.32014E-09    0.43173E-13 21280   0.365E-10
  24 F= -.10792768E+03 E0= -.10792768E+03  d E =0.000000E+00
       N       E                     dE             d eps       ncg     rms          rms(c)
DAV:   1    -0.107927684594E+03   -0.80081E-09    0.49825E-13 21280   0.384E-10    0.700E-05
DAV:   2    -0.107927684593E+03    0.46248E-09    0.48079E-13 21280   0.536E-10    0.700E-05
DAV:   3    -0.107927684593E+03    0.52569E-09    0.95133E-13 21280   0.321E-10    0.700E-05
DAV:   4    -0.107927684593E+03   -0.30468E-09   -0.19286E-13 21280   0.309E-10    0.700E-05
DAV:   5    -0.107927684593E+03    0.13097E-09   -0.37455E-13 21280   0.126E-10    0.700E-05
DAV:   6    -0.107927684593E+03    0.25693E-09   -0.48294E-13 21280   0.171E-10
  25 F= -.10792768E+03 E0= -.10792768E+03  d E =0.000000E+00
       N       E                     dE             d eps       ncg     rms          rms(c)
DAV:   1    -0.107927684593E+03   -0.13097E-09   -0.10957E-13 21280   0.175E-10    0.700E-05
DAV:   2    -0.107927684593E+03    0.70941E-10   -0.84545E-14 21280   0.299E-10    0.700E-05
DAV:   3    -0.107927684593E+03   -0.51614E-09    0.89631E-13 21280   0.376E-10    0.700E-05
DAV:   4    -0.107927684593E+03    0.63437E-09    0.50372E-13 21280   0.345E-10    0.700E-05
DAV:   5    -0.107927684593E+03   -0.80490E-10    0.21936E-15 21280   0.150E-10    0.700E-05
DAV:   6    -0.107927684593E+03   -0.45929E-10    0.40295E-13 21280   0.218E-10
  26 F= -.10792768E+03 E0= -.10792768E+03  d E =0.000000E+00
       N       E                     dE             d eps       ncg     rms          rms(c)
DAV:   1    -0.107927684592E+03    0.37880E-09    0.72002E-13 21280   0.122E-10    0.700E-05
DAV:   2    -0.107927684593E+03   -0.62300E-09    0.11613E-12 21280   0.519E-10    0.700E-05
DAV:   3    -0.107927684593E+03   -0.11005E-09    0.60429E-13 21280   0.324E-10    0.700E-05
DAV:   4    -0.107927684593E+03    0.24056E-09    0.26918E-13 21280   0.268E-10    0.700E-05
DAV:   5    -0.107927684593E+03    0.68212E-11    0.67792E-13 21280   0.155E-10    0.700E-05
DAV:   6    -0.107927684593E+03   -0.56389E-10   -0.96082E-14 21280   0.294E-10
  27 F= -.10792768E+03 E0= -.10792768E+03  d E =0.000000E+00
       N       E                     dE             d eps       ncg     rms          rms(c)
DAV:   1    -0.107927684593E+03    0.25830E-09    0.97361E-13 21280   0.162E-10    0.700E-05
DAV:   2    -0.107927684593E+03   -0.36380E-11    0.53541E-13 21280   0.278E-10    0.700E-05
DAV:   3    -0.107927684593E+03   -0.13188E-10    0.35610E-13 21264   0.140E-10    0.700E-05
DAV:   4    -0.107927684593E+03   -0.21419E-09    0.10710E-13 21232   0.148E-10    0.700E-05
DAV:   5    -0.107927684593E+03   -0.44656E-09    0.11258E-12 21232   0.216E-10    0.700E-05
DAV:   6    -0.107927684593E+03    0.24102E-09    0.39360E-13 21232   0.138E-10
  28 F= -.10792768E+03 E0= -.10792768E+03  d E =0.000000E+00
       N       E                     dE             d eps       ncg     rms          rms(c)
DAV:   1    -0.107927684593E+03    0.22737E-10    0.34409E-13 21232   0.189E-10    0.700E-05
DAV:   2    -0.107927684593E+03    0.41973E-09    0.76349E-13 21232   0.468E-10    0.700E-05
DAV:   3    -0.107927684593E+03   -0.40609E-09    0.37979E-13 21232   0.274E-10    0.700E-05
DAV:   4    -0.107927684593E+03    0.48158E-09    0.13763E-13 21232   0.147E-10    0.700E-05
DAV:   5    -0.107927684593E+03    0.25057E-09    0.51778E-13 21232   0.170E-10    0.700E-05
DAV:   6    -0.107927684593E+03    0.54570E-11    0.66089E-13 21232   0.126E-10
  29 F= -.10792768E+03 E0= -.10792768E+03  d E =0.000000E+00
       N       E                     dE             d eps       ncg     rms          rms(c)
DAV:   1    -0.107927684593E+03   -0.41837E-09    0.63985E-13 21232   0.229E-10    0.700E-05
DAV:   2    -0.107927684593E+03    0.18099E-09    0.52578E-13 21232   0.331E-10    0.700E-05
DAV:   3    -0.107927684593E+03    0.33560E-09    0.62133E-13 21232   0.165E-10    0.700E-05
DAV:   4    -0.107927684593E+03   -0.40018E-10    0.41295E-13 21232   0.164E-10    0.700E-05
DAV:   5    -0.107927684592E+03    0.28922E-09    0.76530E-13 21200   0.234E-10    0.700E-05
DAV:   6    -0.107927684593E+03   -0.70213E-09    0.79127E-13 21184   0.367E-10
  30 F= -.10792768E+03 E0= -.10792768E+03  d E =0.000000E+00
       N       E                     dE             d eps       ncg     rms          rms(c)
DAV:   1    -0.107927684593E+03   -0.44975E-09    0.31936E-13 21184   0.184E-10    0.700E-05
DAV:   2    -0.107927684593E+03   -0.52705E-09    0.64489E-13 21184   0.449E-10    0.700E-05
DAV:   3    -0.107927684593E+03    0.18645E-10    0.36998E-13 21184   0.226E-10    0.700E-05
DAV:   4    -0.107927684593E+03   -0.24829E-09    0.54254E-13 21184   0.190E-10    0.700E-05
DAV:   5    -0.107927684593E+03    0.83219E-10    0.41348E-13 21184   0.261E-10    0.700E-05
DAV:   6    -0.107927684593E+03   -0.76398E-10    0.83629E-13 21184   0.104E-10
  31 F= -.10792768E+03 E0= -.10792768E+03  d E =0.000000E+00
       N       E                     dE             d eps       ncg     rms          rms(c)
DAV:   1    -0.107927684593E+03    0.50477E-09    0.10504E-12 21184   0.146E-10    0.700E-05
DAV:   2    -0.107927684594E+03   -0.69394E-09    0.63540E-13 21184   0.187E-10    0.700E-05
DAV:   3    -0.107927684593E+03    0.77716E-09    0.50496E-13 21184   0.247E-10    0.700E-05
DAV:   4    -0.107927684593E+03   -0.25420E-09   -0.15374E-13 21184   0.368E-10    0.700E-05
DAV:   5    -0.107927684593E+03   -0.19463E-09    0.56818E-13 21184   0.240E-10    0.700E-05
DAV:   6    -0.107927684594E+03   -0.27194E-09    0.68970E-13 21184   0.195E-10
  32 F= -.10792768E+03 E0= -.10792768E+03  d E =0.000000E+00
       N       E                     dE             d eps       ncg     rms          rms(c)
DAV:   1    -0.107927684593E+03    0.27330E-09    0.87627E-13 21184   0.182E-10    0.700E-05
DAV:   2    -0.107927684592E+03    0.66848E-09    0.92722E-13 21184   0.143E-10    0.700E-05
DAV:   3    -0.107927684593E+03   -0.41155E-09    0.16052E-13 21184   0.208E-10    0.700E-05
DAV:   4    -0.107927684593E+03   -0.24284E-09    0.71477E-13 21184   0.187E-10    0.700E-05
DAV:   5    -0.107927684593E+03    0.14143E-09    0.10987E-12 21184   0.963E-11    0.700E-05
DAV:   6    -0.107927684593E+03    0.16780E-09    0.65493E-13 21184   0.110E-10
  33 F= -.10792768E+03 E0= -.10792768E+03  d E =0.000000E+00
       N       E                     dE             d eps       ncg     rms          rms(c)
DAV:   1    -0.107927684593E+03   -0.49431E-09    0.82897E-13 21184   0.152E-10    0.700E-05
DAV:   2    -0.107927684593E+03    0.14825E-09    0.85107E-13 21184   0.323E-10    0.700E-05
DAV:   3    -0.107927684593E+03   -0.25057E-09   -0.10357E-13 21184   0.254E-10    0.700E-05
DAV:   4    -0.107927684594E+03   -0.15052E-09    0.75585E-13 21184   0.206E-10    0.700E-05
DAV:   5    -0.107927684593E+03    0.10086E-08    0.25858E-13 21184   0.139E-10    0.700E-05
DAV:   6    -0.107927684592E+03    0.30695E-09    0.11906E-14 21184   0.209E-10
  34 F= -.10792768E+03 E0= -.10792768E+03  d E =0.000000E+00
       N       E                     dE             d eps       ncg     rms          rms(c)
DAV:   1    -0.107927684592E+03    0.14188E-09    0.25606E-13 21184   0.125E-10    0.700E-05
DAV:   2    -0.107927684593E+03   -0.84992E-09    0.48755E-13 21184   0.674E-10    0.700E-05
DAV:   3    -0.107927684593E+03    0.69031E-09    0.22178E-13 21184   0.464E-10    0.700E-05
DAV:   4    -0.107927684593E+03   -0.16689E-09   -0.26544E-14 21184   0.245E-10    0.700E-05
DAV:   5    -0.107927684593E+03   -0.90949E-11    0.87648E-13 21184   0.984E-11    0.700E-05
DAV:   6    -0.107927684593E+03   -0.25648E-09   -0.29498E-13 21184   0.989E-11
  35 F= -.10792768E+03 E0= -.10792768E+03  d E =0.000000E+00
       N       E                     dE             d eps       ncg     rms          rms(c)
DAV:   1    -0.107927684593E+03   -0.29831E-09    0.58839E-13 21184   0.132E-10    0.700E-05
DAV:   2    -0.107927684593E+03   -0.11005E-09    0.83428E-13 21184   0.185E-10    0.700E-05
DAV:   3    -0.107927684593E+03    0.69576E-10    0.83438E-13 21184   0.167E-10    0.700E-05
DAV:   4    -0.107927684593E+03    0.31514E-09    0.96235E-13 21184   0.105E-10    0.700E-05
DAV:   5    -0.107927684593E+03    0.80945E-10    0.31601E-13 21184   0.177E-10    0.700E-05
DAV:   6    -0.107927684593E+03   -0.76398E-10    0.56139E-13 21184   0.281E-10
  36 F= -.10792768E+03 E0= -.10792768E+03  d E =0.000000E+00
       N       E                     dE             d eps       ncg     rms          rms(c)
DAV:   1    -0.107927684594E+03   -0.88221E-09    0.61819E-13 21184   0.202E-10    0.700E-05
DAV:   2    -0.107927684593E+03    0.35334E-09    0.77999E-13 21184   0.456E-10    0.700E-05
DAV:   3    -0.107927684593E+03    0.84128E-10    0.15004E-13 21184   0.261E-10    0.700E-05
DAV:   4    -0.107927684593E+03    0.28467E-09    0.50996E-14 21184   0.298E-10    0.700E-05
DAV:   5    -0.107927684593E+03   -0.24102E-09    0.31675E-13 21184   0.300E-10    0.700E-05
DAV:   6    -0.107927684592E+03    0.76170E-09    0.67192E-13 21184   0.178E-10
  37 F= -.10792768E+03 E0= -.10792768E+03  d E =0.000000E+00
       N       E                     dE             d eps       ncg     rms          rms(c)
DAV:   1    -0.107927684593E+03    0.96861E-10    0.19356E-14 21184   0.177E-10    0.700E-05
DAV:   2    -0.107927684593E+03    0.50022E-11    0.34403E-13 21184   0.344E-10    0.700E-05
DAV:   3    -0.107927684592E+03    0.56389E-09    0.40546E-13 21184   0.169E-10    0.700E-05
DAV:   4    -0.107927684593E+03   -0.10632E-08    0.60088E-13 21184   0.132E-10    0.700E-05
DAV:   5    -0.107927684593E+03    0.39381E-09    0.52121E-13 21184   0.405E-10    0.700E-05
DAV:   6    -0.107927684593E+03   -0.10732E-09    0.43932E-13 21184   0.570E-10
  38 F= -.10792768E+03 E0= -.10792768E+03  d E =0.000000E+00
       N       E                     dE             d eps       ncg     rms          rms(c)
DAV:   1    -0.107927684592E+03    0.69122E-09    0.78385E-13 21184   0.371E-10    0.700E-05
DAV:   2    -0.107927684593E+03   -0.77307E-09    0.87824E-13 21184   0.534E-10    0.700E-05
DAV:   3    -0.107927684593E+03    0.27558E-09    0.55248E-13 21184   0.425E-10    0.700E-05
DAV:   4    -0.107927684593E+03    0.42746E-10   -0.60332E-14 21184   0.295E-10    0.700E-05
DAV:   5    -0.107927684593E+03   -0.12460E-09    0.14508E-12 21184   0.226E-10    0.700E-05
DAV:   6    -0.107927684593E+03    0.24784E-09    0.23252E-13 21184   0.169E-10
  39 F= -.10792768E+03 E0= -.10792768E+03  d E =0.000000E+00
       N       E                     dE             d eps       ncg     rms          rms(c)
DAV:   1    -0.107927684593E+03   -0.13097E-09    0.23909E-14 21184   0.194E-10    0.700E-05
DAV:   2    -0.107927684594E+03   -0.46475E-09    0.20411E-13 21184   0.227E-10    0.700E-05
DAV:   3    -0.107927684593E+03    0.22737E-09    0.69003E-13 21184   0.309E-10    0.700E-05
DAV:   4    -0.107927684593E+03    0.75215E-09    0.14174E-13 21184   0.238E-10    0.700E-05
DAV:   5    -0.107927684592E+03    0.14188E-09    0.47836E-13 21184   0.177E-10    0.700E-05
DAV:   6    -0.107927684593E+03   -0.69576E-10    0.76870E-13 21184   0.105E-10
  40 F= -.10792768E+03 E0= -.10792768E+03  d E =0.000000E+00
       N       E                     dE             d eps       ncg     rms          rms(c)
DAV:   1    -0.107927684593E+03   -0.73760E-09    0.94534E-13 21184   0.281E-10    0.700E-05
DAV:   2    -0.107927684593E+03   -0.27831E-09    0.31223E-13 21184   0.307E-10    0.700E-05
DAV:   3    -0.107927684593E+03    0.34106E-09    0.77969E-13 21184   0.702E-10    0.700E-05
DAV:   4    -0.107927684592E+03    0.79399E-09    0.41824E-13 21184   0.718E-10    0.700E-05
DAV:   5    -0.107927684592E+03    0.61846E-10   -0.26503E-14 21184   0.342E-10    0.700E-05
DAV:   6    -0.107927684594E+03   -0.12997E-08    0.70297E-13 21184   0.168E-10
  41 F= -.10792768E+03 E0= -.10792768E+03  d E =0.000000E+00
       N       E                     dE             d eps       ncg     rms          rms(c)
DAV:   1    -0.107927684593E+03   -0.74851E-09    0.36059E-13 21184   0.326E-10    0.700E-05
DAV:   2    -0.107927684593E+03    0.21828E-10    0.12794E-13 21184   0.170E-10    0.700E-05
DAV:   3    -0.107927684593E+03    0.16462E-09    0.56511E-13 21184   0.305E-10    0.700E-05
DAV:   4    -0.107927684593E+03    0.15552E-09    0.92894E-13 21184   0.255E-10    0.700E-05
DAV:   5    -0.107927684593E+03   -0.14734E-09    0.53735E-13 21184   0.116E-10    0.700E-05
DAV:   6    -0.107927684593E+03   -0.59117E-10    0.66233E-13 21184   0.978E-11
  42 F= -.10792768E+03 E0= -.10792768E+03  d E =0.000000E+00
       N       E                     dE             d eps       ncg     rms          rms(c)
DAV:   1    -0.107927684593E+03    0.13597E-09    0.80162E-13 21184   0.120E-10    0.700E-05
DAV:   2    -0.107927684593E+03   -0.29331E-09   -0.27509E-14 21184   0.296E-10    0.700E-05
DAV:   3    -0.107927684593E+03    0.14097E-09    0.51563E-13 21184   0.181E-10    0.700E-05
DAV:   4    -0.107927684594E+03   -0.68439E-09    0.68591E-13 21184   0.308E-10    0.700E-05
DAV:   5    -0.107927684593E+03    0.19645E-09    0.10993E-12 21184   0.422E-10    0.700E-05
DAV:   6    -0.107927684593E+03    0.46839E-10    0.93616E-13 21184   0.225E-10
  43 F= -.10792768E+03 E0= -.10792768E+03  d E =0.000000E+00
       N       E                     dE             d eps       ncg     rms          rms(c)
DAV:   1    -0.107927684593E+03    0.48658E-10    0.12232E-12 21184   0.250E-10    0.700E-05
DAV:   2    -0.107927684593E+03    0.15780E-09    0.59179E-13 21184   0.235E-10    0.700E-05
DAV:   3    -0.107927684593E+03    0.38790E-09   -0.39523E-13 21184   0.161E-10    0.700E-05
DAV:   4    -0.107927684593E+03    0.10823E-09    0.45344E-13 21184   0.137E-10    0.700E-05
DAV:   5    -0.107927684593E+03    0.94587E-10    0.10260E-12 21184   0.162E-10    0.700E-05
DAV:   6    -0.107927684594E+03   -0.10327E-08    0.10152E-12 21184   0.192E-10
  44 F= -.10792768E+03 E0= -.10792768E+03  d E =0.000000E+00
       N       E                     dE             d eps       ncg     rms          rms(c)
DAV:   1    -0.107927684593E+03   -0.39017E-09    0.88670E-13 21184   0.204E-10    0.700E-05
DAV:   2    -0.107927684593E+03   -0.14825E-09    0.42335E-13 21184   0.178E-10    0.700E-05
DAV:   3    -0.107927684593E+03    0.24647E-09    0.80756E-13 21184   0.107E-10    0.700E-05
DAV:   4    -0.107927684593E+03   -0.35379E-09    0.62784E-13 21184   0.266E-10    0.700E-05
DAV:   5    -0.107927684593E+03    0.29058E-09    0.31555E-13 21184   0.400E-10    0.700E-05
DAV:   6    -0.107927684593E+03   -0.47339E-09    0.53286E-13 21184   0.190E-10
  45 F= -.10792768E+03 E0= -.10792768E+03  d E =0.000000E+00
       N       E                     dE             d eps       ncg     rms          rms(c)
DAV:   1    -0.107927684593E+03    0.38062E-09    0.62679E-13 21184   0.136E-10    0.700E-05
DAV:   2    -0.107927684593E+03   -0.25648E-09    0.37996E-13 21184   0.449E-10    0.700E-05
DAV:   3    -0.107927684593E+03    0.35470E-10    0.14311E-13 21184   0.237E-10    0.700E-05
DAV:   4    -0.107927684593E+03   -0.47521E-09    0.55156E-13 21184   0.239E-10    0.700E-05
DAV:   5    -0.107927684592E+03    0.94360E-09    0.47360E-13 21184   0.170E-10    0.700E-05
DAV:   6    -0.107927684592E+03   -0.20327E-09    0.19627E-13 21184   0.257E-10
  46 F= -.10792768E+03 E0= -.10792768E+03  d E =0.000000E+00
       N       E                     dE             d eps       ncg     rms          rms(c)
DAV:   1    -0.107927684593E+03   -0.12406E-08    0.24888E-13 21184   0.136E-10    0.700E-05
DAV:   2    -0.107927684592E+03    0.12360E-08    0.65347E-13 21184   0.548E-10    0.700E-05
DAV:   3    -0.107927684593E+03   -0.95497E-09    0.74902E-13 21184   0.455E-10    0.700E-05
DAV:   4    -0.107927684593E+03    0.23738E-09    0.28849E-13 21184   0.227E-10    0.700E-05
DAV:   5    -0.107927684593E+03   -0.22737E-10   -0.10869E-13 21184   0.339E-10    0.700E-05
DAV:   6    -0.107927684593E+03    0.17189E-09    0.83385E-13 21184   0.284E-10
  47 F= -.10792768E+03 E0= -.10792768E+03  d E =0.000000E+00
       N       E                     dE             d eps       ncg     rms          rms(c)
DAV:   1    -0.107927684593E+03    0.22828E-09    0.69784E-13 21184   0.163E-10    0.700E-05
DAV:   2    -0.107927684593E+03   -0.20646E-09    0.21763E-13 21184   0.412E-10    0.700E-05
DAV:   3    -0.107927684593E+03    0.41928E-09   -0.26423E-13 21184   0.404E-10    0.700E-05
DAV:   4    -0.107927684594E+03   -0.96861E-09    0.98788E-13 21184   0.279E-10    0.700E-05
DAV:   5    -0.107927684593E+03    0.63528E-09    0.58740E-13 21184   0.251E-10    0.700E-05
DAV:   6    -0.107927684592E+03    0.56707E-09    0.11095E-12 21184   0.186E-10
  48 F= -.10792768E+03 E0= -.10792768E+03  d E =0.000000E+00
       N       E                     dE             d eps       ncg     rms          rms(c)
DAV:   1    -0.107927684593E+03    0.24784E-09    0.11109E-12 21184   0.157E-10    0.700E-05
DAV:   2    -0.107927684593E+03   -0.55479E-10    0.68875E-13 21184   0.375E-10    0.700E-05
DAV:   3    -0.107927684593E+03   -0.63574E-09    0.58222E-14 21184   0.252E-10    0.700E-05
DAV:   4    -0.107927684593E+03    0.41837E-09    0.31116E-13 21184   0.178E-10    0.700E-05
DAV:   5    -0.107927684592E+03    0.68121E-09    0.19065E-13 21184   0.161E-10    0.700E-05
DAV:   6    -0.107927684593E+03   -0.60390E-09    0.60236E-13 21184   0.149E-10
  49 F= -.10792768E+03 E0= -.10792768E+03  d E =0.000000E+00
       N       E                     dE             d eps       ncg     rms          rms(c)
DAV:   1    -0.107927684593E+03   -0.89631E-09    0.39398E-13 21184   0.180E-10    0.700E-05
DAV:   2    -0.107927684593E+03    0.22510E-09    0.81372E-13 21184   0.385E-10    0.700E-05
DAV:   3    -0.107927684592E+03    0.47203E-09    0.11291E-13 21184   0.303E-10    0.700E-05
DAV:   4    -0.107927684593E+03   -0.37289E-09    0.75868E-13 21184   0.196E-10    0.700E-05
DAV:   5    -0.107927684593E+03    0.16644E-09    0.72919E-13 21184   0.180E-10    0.700E-05
DAV:   6    -0.107927684592E+03    0.29468E-09    0.27674E-13 21184   0.189E-10
  50 F= -.10792768E+03 E0= -.10792768E+03  d E =0.000000E+00
       N       E                     dE             d eps       ncg     rms          rms(c)
DAV:   1    -0.107927684593E+03   -0.23647E-10    0.77522E-13 21184   0.214E-10    0.700E-05
DAV:   2    -0.107927684593E+03   -0.35652E-09   -0.11334E-14 21184   0.356E-10    0.700E-05
DAV:   3    -0.107927684593E+03   -0.36380E-10    0.98285E-13 21184   0.510E-10    0.700E-05
DAV:   4    -0.107927684593E+03   -0.33651E-09    0.72452E-13 21184   0.193E-10    0.700E-05
DAV:   5    -0.107927684593E+03    0.82173E-09    0.66871E-13 21184   0.178E-10    0.700E-05
DAV:   6    -0.107927684593E+03   -0.10050E-09    0.37628E-13 21184   0.230E-10
  51 F= -.10792768E+03 E0= -.10792768E+03  d E =0.000000E+00
       N       E                     dE             d eps       ncg     rms          rms(c)
DAV:   1    -0.107927684593E+03   -0.61573E-09    0.83024E-13 21184   0.146E-10    0.700E-05
DAV:   2    -0.107927684593E+03   -0.65938E-10    0.67120E-13 21184   0.325E-10    0.700E-05
DAV:   3    -0.107927684593E+03   -0.92768E-10    0.42048E-13 21184   0.253E-10    0.700E-05
DAV:   4    -0.107927684594E+03   -0.25921E-09    0.35482E-13 21184   0.170E-10    0.700E-05
DAV:   5    -0.107927684593E+03    0.83173E-09    0.79082E-13 21184   0.239E-10    0.700E-05
DAV:   6    -0.107927684593E+03   -0.17644E-09   -0.97742E-14 21184   0.339E-10
  52 F= -.10792768E+03 E0= -.10792768E+03  d E =0.000000E+00
       N       E                     dE             d eps       ncg     rms          rms(c)
DAV:   1    -0.107927684592E+03    0.36880E-09    0.56238E-13 21184   0.274E-10    0.700E-05
DAV:   2    -0.107927684593E+03   -0.73214E-09   -0.78321E-14 21184   0.578E-10    0.700E-05
DAV:   3    -0.107927684593E+03    0.33378E-09    0.36227E-13 21184   0.359E-10    0.700E-05
DAV:   4    -0.107927684593E+03   -0.35743E-09    0.60502E-13 21184   0.282E-10    0.700E-05
DAV:   5    -0.107927684593E+03    0.50113E-09    0.30294E-13 21184   0.166E-10    0.700E-05
DAV:   6    -0.107927684593E+03   -0.73760E-09    0.54291E-13 21184   0.212E-10
  53 F= -.10792768E+03 E0= -.10792768E+03  d E =0.000000E+00
       N       E                     dE             d eps       ncg     rms          rms(c)
DAV:   1    -0.107927684593E+03   -0.30968E-09    0.89343E-13 21184   0.284E-10    0.700E-05
DAV:   2    -0.107927684592E+03    0.58708E-09    0.73680E-13 21184   0.170E-10    0.700E-05
DAV:   3    -0.107927684593E+03   -0.89403E-09    0.49869E-13 21184   0.144E-10    0.700E-05
DAV:   4    -0.107927684593E+03    0.63210E-09    0.92280E-13 21184   0.227E-10    0.700E-05
DAV:   5    -0.107927684593E+03   -0.77443E-09    0.11540E-12 21184   0.163E-10    0.700E-05
DAV:   6    -0.107927684593E+03    0.82173E-09    0.69536E-13 21184   0.204E-10
  54 F= -.10792768E+03 E0= -.10792768E+03  d E =0.000000E+00
       N       E                     dE             d eps       ncg     rms          rms(c)
DAV:   1    -0.107927684593E+03    0.75215E-09    0.11555E-12 21184   0.169E-10    0.700E-05
DAV:   2    -0.107927684593E+03   -0.22965E-09    0.43192E-13 21184   0.287E-10    0.700E-05
DAV:   3    -0.107927684593E+03   -0.18190E-09    0.10036E-12 21184   0.164E-10    0.700E-05
DAV:   4    -0.107927684593E+03    0.46521E-09    0.69770E-13 21184   0.328E-10    0.700E-05
DAV:   5    -0.107927684594E+03   -0.10064E-08    0.62460E-13 21184   0.175E-10    0.700E-05
DAV:   6    -0.107927684593E+03    0.93041E-09    0.25774E-13 21184   0.320E-10
  55 F= -.10792768E+03 E0= -.10792768E+03  d E =0.000000E+00
       N       E                     dE             d eps       ncg     rms          rms(c)
DAV:   1    -0.107927684593E+03    0.62755E-09    0.59406E-14 21184   0.250E-10    0.700E-05
DAV:   2    -0.107927684593E+03   -0.30332E-09    0.92019E-13 21184   0.213E-10    0.700E-05
DAV:   3    -0.107927684593E+03    0.71441E-09    0.93859E-13 21184   0.147E-10    0.700E-05
DAV:   4    -0.107927684593E+03   -0.58299E-09    0.39674E-13 21184   0.206E-10    0.700E-05
DAV:   5    -0.107927684593E+03    0.22828E-09    0.58861E-13 21184   0.156E-10    0.700E-05
DAV:   6    -0.107927684592E+03    0.48885E-09   -0.77044E-15 21184   0.890E-11
  56 F= -.10792768E+03 E0= -.10792768E+03  d E =0.000000E+00
       N       E                     dE             d eps       ncg     rms          rms(c)
DAV:   1    -0.107927684593E+03   -0.30923E-10    0.36483E-13 21184   0.134E-10    0.700E-05
DAV:   2    -0.107927684593E+03    0.13279E-09    0.10449E-12 21184   0.212E-10    0.700E-05
DAV:   3    -0.107927684593E+03    0.30423E-09    0.83092E-13 21184   0.205E-10    0.700E-05
DAV:   4    -0.107927684593E+03   -0.39836E-09    0.82041E-13 21184   0.260E-10    0.700E-05
DAV:   5    -0.107927684593E+03   -0.28240E-09    0.41817E-13 21184   0.231E-10    0.700E-05
DAV:   6    -0.107927684593E+03    0.34925E-09    0.74264E-13 21184   0.178E-10
  57 F= -.10792768E+03 E0= -.10792768E+03  d E =0.000000E+00
       N       E                     dE             d eps       ncg     rms          rms(c)
DAV:   1    -0.107927684593E+03    0.69667E-09    0.42635E-14 21184   0.145E-10    0.700E-05
DAV:   2    -0.107927684593E+03   -0.54661E-09    0.11569E-12 21184   0.439E-10    0.700E-05
DAV:   3    -0.107927684593E+03    0.40654E-09    0.27414E-13 21184   0.328E-10    0.700E-05
DAV:   4    -0.107927684593E+03   -0.80399E-09    0.61498E-13 21184   0.222E-10    0.700E-05
DAV:   5    -0.107927684593E+03    0.19782E-09    0.80541E-13 21184   0.172E-10    0.700E-05
DAV:   6    -0.107927684593E+03   -0.21373E-10   -0.15056E-13 21184   0.111E-10
  58 F= -.10792768E+03 E0= -.10792768E+03  d E =0.000000E+00
       N       E                     dE             d eps       ncg     rms          rms(c)
DAV:   1    -0.107927684593E+03    0.70895E-09    0.49347E-13 21184   0.386E-10    0.700E-05
DAV:   2    -0.107927684593E+03   -0.42292E-09    0.89625E-13 21184   0.380E-10    0.700E-05
DAV:   3    -0.107927684593E+03   -0.37289E-09    0.20194E-13 21184   0.262E-10    0.700E-05
DAV:   4    -0.107927684593E+03    0.44474E-09   -0.20764E-15 21184   0.197E-10    0.700E-05
DAV:   5    -0.107927684593E+03   -0.45611E-09    0.85020E-14 21184   0.162E-10    0.700E-05
DAV:   6    -0.107927684593E+03    0.26421E-09    0.50993E-13 21184   0.210E-10
  59 F= -.10792768E+03 E0= -.10792768E+03  d E =0.000000E+00
       N       E                     dE             d eps       ncg     rms          rms(c)
DAV:   1    -0.107927684593E+03    0.48067E-09    0.51243E-13 21184   0.169E-10    0.700E-05
DAV:   2    -0.107927684593E+03    0.33015E-09    0.91114E-13 21184   0.284E-10    0.700E-05
DAV:   3    -0.107927684593E+03    0.18645E-10    0.76208E-13 21184   0.164E-10    0.700E-05
DAV:   4    -0.107927684593E+03   -0.30968E-09    0.29528E-13 21184   0.169E-10    0.700E-05
DAV:   5    -0.107927684593E+03    0.31696E-09    0.34493E-13 21184   0.153E-10    0.700E-05
DAV:   6    -0.107927684593E+03   -0.40882E-09    0.11871E-12 21184   0.177E-10
  60 F= -.10792768E+03 E0= -.10792768E+03  d E =0.000000E+00
       N       E                     dE             d eps       ncg     rms          rms(c)
DAV:   1    -0.107927684593E+03   -0.79808E-09    0.41833E-13 21184   0.326E-10    0.700E-05
DAV:   2    -0.107927684592E+03    0.85038E-09    0.12080E-13 21184   0.399E-10    0.700E-05
DAV:   3    -0.107927684593E+03   -0.52478E-09    0.44395E-13 21184   0.322E-10    0.700E-05
DAV:   4    -0.107927684593E+03    0.34561E-09    0.52963E-13 21184   0.188E-10    0.700E-05
DAV:   5    -0.107927684593E+03   -0.47112E-09    0.10200E-12 21184   0.102E-10    0.700E-05
DAV:   6    -0.107927684592E+03    0.63210E-09    0.12222E-12 21184   0.136E-10
  61 F= -.10792768E+03 E0= -.10792768E+03  d E =0.000000E+00
       N       E                     dE             d eps       ncg     rms          rms(c)
DAV:   1    -0.107927684593E+03    0.28831E-09    0.10234E-12 21184   0.167E-10    0.700E-05
DAV:   2    -0.107927684593E+03   -0.58117E-09    0.32258E-13 21184   0.137E-10    0.700E-05
DAV:   3    -0.107927684593E+03    0.22283E-09    0.78120E-13 21184   0.168E-10    0.700E-05
DAV:   4    -0.107927684593E+03    0.20464E-10    0.81537E-13 21184   0.189E-10    0.700E-05
DAV:   5    -0.107927684593E+03    0.34652E-09    0.60699E-13 21184   0.275E-10    0.700E-05
DAV:   6    -0.107927684592E+03    0.54979E-09    0.35709E-13 21184   0.237E-10
  62 F= -.10792768E+03 E0= -.10792768E+03  d E =0.000000E+00
       N       E                     dE             d eps       ncg     rms          rms(c)
DAV:   1    -0.107927684593E+03   -0.43383E-09    0.27037E-13 21184   0.146E-10    0.700E-05
DAV:   2    -0.107927684592E+03    0.10009E-08    0.41732E-13 21184   0.450E-10    0.700E-05
DAV:   3    -0.107927684593E+03   -0.47385E-09    0.40426E-13 21184   0.316E-10    0.700E-05
DAV:   4    -0.107927684593E+03   -0.60209E-09    0.46242E-13 21184   0.233E-10    0.700E-05
DAV:   5    -0.107927684592E+03    0.10750E-08    0.14003E-12 21184   0.140E-10    0.700E-05
DAV:   6    -0.107927684593E+03   -0.56571E-09    0.63958E-13 21184   0.286E-10
  63 F= -.10792768E+03 E0= -.10792768E+03  d E =0.000000E+00
       N       E                     dE             d eps       ncg     rms          rms(c)
DAV:   1    -0.107927684593E+03   -0.10750E-08    0.45239E-13 21184   0.230E-10    0.700E-05
DAV:   2    -0.107927684593E+03    0.15598E-09    0.77361E-13 21184   0.327E-10    0.700E-05
DAV:   3    -0.107927684593E+03   -0.10095E-09    0.34198E-13 21184   0.195E-10    0.700E-05
DAV:   4    -0.107927684593E+03    0.46703E-09   -0.91793E-15 21184   0.155E-10    0.700E-05
DAV:   5    -0.107927684593E+03   -0.59117E-09    0.31940E-13 21184   0.221E-10    0.700E-05
DAV:   6    -0.107927684593E+03    0.34015E-09    0.31109E-13 21184   0.157E-10
  64 F= -.10792768E+03 E0= -.10792768E+03  d E =0.000000E+00
       N       E                     dE             d eps       ncg     rms          rms(c)
DAV:   1    -0.107927684593E+03    0.34470E-09    0.40392E-13 21184   0.262E-10    0.700E-05
DAV:   2    -0.107927684592E+03    0.79626E-09    0.73653E-13 21184   0.160E-10    0.700E-05
DAV:   3    -0.107927684592E+03   -0.17735E-10   -0.74587E-14 21184   0.287E-10    0.700E-05
DAV:   4    -0.107927684593E+03   -0.67757E-09   -0.12393E-13 21184   0.223E-10    0.700E-05
DAV:   5    -0.107927684593E+03    0.32742E-10    0.79592E-13 21184   0.164E-10    0.700E-05
DAV:   6    -0.107927684593E+03    0.28922E-09    0.54499E-13 21184   0.116E-10
  65 F= -.10792768E+03 E0= -.10792768E+03  d E =0.000000E+00
       N       E                     dE             d eps       ncg     rms          rms(c)
DAV:   1    -0.107927684593E+03   -0.20191E-09    0.89505E-13 21184   0.140E-10    0.700E-05
DAV:   2    -0.107927684592E+03    0.76943E-09    0.85729E-13 21184   0.200E-10    0.700E-05
DAV:   3    -0.107927684593E+03   -0.53751E-09    0.27393E-13 21184   0.207E-10    0.700E-05
DAV:   4    -0.107927684593E+03    0.31150E-09    0.88247E-13 21184   0.148E-10    0.700E-05
DAV:   5    -0.107927684593E+03   -0.56161E-09    0.66438E-14 21184   0.168E-10    0.700E-05
DAV:   6    -0.107927684593E+03    0.39290E-09    0.44427E-13 21184   0.161E-10
  66 F= -.10792768E+03 E0= -.10792768E+03  d E =0.000000E+00
       N       E                     dE             d eps       ncg     rms          rms(c)
DAV:   1    -0.107927684593E+03    0.27740E-09    0.11099E-12 21184   0.175E-10    0.700E-05
DAV:   2    -0.107927684593E+03   -0.21191E-09    0.44760E-13 21184   0.257E-10    0.700E-05
DAV:   3    -0.107927684593E+03   -0.31378E-09    0.91112E-13 21184   0.200E-10    0.700E-05
DAV:   4    -0.107927684593E+03    0.19827E-09    0.82612E-13 21184   0.187E-10    0.700E-05
DAV:   5    -0.107927684593E+03   -0.25921E-10    0.86741E-13 21184   0.138E-10    0.700E-05
DAV:   6    -0.107927684593E+03    0.16826E-09    0.82406E-13 21184   0.210E-10
  67 F= -.10792768E+03 E0= -.10792768E+03  d E =0.000000E+00
       N       E                     dE             d eps       ncg     rms          rms(c)
DAV:   1    -0.107927684593E+03    0.24511E-09    0.75293E-13 21184   0.594E-10    0.700E-05
DAV:   2    -0.107927684592E+03    0.49477E-09    0.35759E-13 21184   0.440E-10    0.700E-05
DAV:   3    -0.107927684593E+03   -0.59572E-09    0.35315E-13 21184   0.171E-10    0.700E-05
DAV:   4    -0.107927684593E+03   -0.34743E-09    0.46413E-13 21184   0.179E-10    0.700E-05
DAV:   5    -0.107927684593E+03    0.91404E-09    0.54416E-13 21184   0.160E-10    0.700E-05
DAV:   6    -0.107927684593E+03   -0.83128E-09    0.17864E-13 21184   0.222E-10
  68 F= -.10792768E+03 E0= -.10792768E+03  d E =0.000000E+00
       N       E                     dE             d eps       ncg     rms          rms(c)
DAV:   1    -0.107927684594E+03   -0.11132E-08    0.12381E-12 21184   0.161E-10    0.700E-05
DAV:   2    -0.107927684593E+03    0.66939E-09    0.52980E-13 21184   0.460E-10    0.700E-05
DAV:   3    -0.107927684593E+03    0.13597E-09    0.11426E-13 21184   0.306E-10    0.700E-05
DAV:   4    -0.107927684593E+03   -0.36243E-09    0.83274E-14 21184   0.178E-10    0.700E-05
DAV:   5    -0.107927684593E+03    0.63665E-10    0.58013E-13 21184   0.158E-10    0.700E-05
DAV:   6    -0.107927684592E+03    0.67575E-09    0.60625E-13 21184   0.255E-10
  69 F= -.10792768E+03 E0= -.10792768E+03  d E =0.000000E+00
       N       E                     dE             d eps       ncg     rms          rms(c)
DAV:   1    -0.107927684592E+03    0.68076E-09    0.36587E-13 21184   0.310E-10    0.700E-05
DAV:   2    -0.107927684593E+03   -0.88266E-09    0.21330E-13 21184   0.498E-10    0.700E-05
DAV:   3    -0.107927684593E+03    0.52387E-09    0.29805E-13 21184   0.362E-10    0.700E-05
DAV:   4    -0.107927684593E+03   -0.35016E-10    0.36109E-13 21184   0.308E-10    0.700E-05
DAV:   5    -0.107927684593E+03   -0.32105E-09    0.26562E-14 21184   0.258E-10    0.700E-05
DAV:   6    -0.107927684593E+03   -0.86857E-10    0.55749E-13 21184   0.115E-10
  70 F= -.10792768E+03 E0= -.10792768E+03  d E =0.000000E+00
       N       E                     dE             d eps       ncg     rms          rms(c)
DAV:   1    -0.107927684593E+03    0.39699E-09    0.59062E-13 21184   0.169E-10    0.700E-05
DAV:   2    -0.107927684593E+03   -0.27012E-09    0.79873E-13 21184   0.307E-10    0.700E-05
DAV:   3    -0.107927684593E+03   -0.20646E-09    0.27395E-13 21184   0.263E-10    0.700E-05
DAV:   4    -0.107927684593E+03    0.66211E-09   -0.18662E-13 21184   0.180E-10    0.700E-05
DAV:   5    -0.107927684593E+03   -0.55024E-09    0.81870E-13 21184   0.152E-10    0.700E-05
DAV:   6    -0.107927684593E+03   -0.34379E-09    0.48295E-13 21184   0.176E-10
  71 F= -.10792768E+03 E0= -.10792768E+03  d E =0.000000E+00
       N       E                     dE             d eps       ncg     rms          rms(c)
DAV:   1    -0.107927684593E+03    0.38472E-09    0.36179E-13 21184   0.363E-10    0.700E-05
DAV:   2    -0.107927684593E+03    0.18281E-09    0.74655E-13 21184   0.285E-10    0.700E-05
DAV:   3    -0.107927684593E+03   -0.36380E-09    0.55589E-13 21184   0.361E-10    0.700E-05
DAV:   4    -0.107927684593E+03    0.59117E-10    0.52628E-13 21184   0.296E-10    0.700E-05
DAV:   5    -0.107927684593E+03   -0.58117E-09    0.38056E-13 21184   0.123E-10    0.700E-05
DAV:   6    -0.107927684593E+03    0.47385E-09   -0.38133E-14 21184   0.272E-10
  72 F= -.10792768E+03 E0= -.10792768E+03  d E =0.000000E+00
       N       E                     dE             d eps       ncg     rms          rms(c)
DAV:   1    -0.107927684593E+03    0.23920E-09    0.14664E-13 21184   0.234E-10    0.700E-05
DAV:   2    -0.107927684593E+03   -0.52296E-10    0.51965E-13 21184   0.349E-10    0.700E-05
DAV:   3    -0.107927684594E+03   -0.31878E-09    0.49215E-13 21184   0.261E-10    0.700E-05
DAV:   4    -0.107927684593E+03    0.50113E-09    0.13643E-13 21184   0.208E-10    0.700E-05
DAV:   5    -0.107927684592E+03    0.58026E-09    0.38899E-13 21184   0.313E-10    0.700E-05
DAV:   6    -0.107927684593E+03   -0.22737E-09    0.78824E-13 21184   0.218E-10
  73 F= -.10792768E+03 E0= -.10792768E+03  d E =0.000000E+00
       N       E                     dE             d eps       ncg     rms          rms(c)
DAV:   1    -0.107927684593E+03   -0.36289E-09   -0.18794E-13 21184   0.220E-10    0.700E-05
DAV:   2    -0.107927684592E+03    0.43383E-09   -0.23756E-13 21184   0.234E-10    0.700E-05
DAV:   3    -0.107927684593E+03   -0.29650E-09    0.36757E-13 21184   0.395E-10    0.700E-05
DAV:   4    -0.107927684593E+03   -0.27831E-09    0.61985E-14 21184   0.280E-10    0.700E-05
DAV:   5    -0.107927684593E+03   -0.46384E-09    0.13741E-12 21184   0.160E-10    0.700E-05
DAV:   6    -0.107927684592E+03    0.11360E-08    0.35394E-13 21184   0.174E-10
  74 F= -.10792768E+03 E0= -.10792768E+03  d E =0.000000E+00
       N       E                     dE             d eps       ncg     rms          rms(c)
DAV:   1    -0.107927684592E+03    0.10250E-08   -0.40861E-14 21184   0.229E-10    0.700E-05
DAV:   2    -0.107927684594E+03   -0.11660E-08    0.30573E-13 21184   0.397E-10    0.700E-05
DAV:   3    -0.107927684593E+03    0.86538E-09    0.51994E-13 21184   0.380E-10    0.700E-05
DAV:   4    -0.107927684593E+03   -0.69213E-09   -0.14722E-13 21184   0.195E-10    0.700E-05
DAV:   5    -0.107927684593E+03    0.36835E-09    0.63554E-13 21184   0.218E-10    0.700E-05
DAV:   6    -0.107927684593E+03   -0.13506E-09    0.92474E-13 21184   0.258E-10
  75 F= -.10792768E+03 E0= -.10792768E+03  d E =0.000000E+00
       N       E                     dE             d eps       ncg     rms          rms(c)
DAV:   1    -0.107927684592E+03    0.63619E-09    0.62699E-13 21184   0.242E-10    0.700E-05
DAV:   2    -0.107927684593E+03   -0.28513E-09    0.10011E-12 21184   0.389E-10    0.700E-05
DAV:   3    -0.107927684594E+03   -0.79899E-09    0.40028E-14 21184   0.248E-10    0.700E-05
DAV:   4    -0.107927684593E+03    0.48203E-10    0.97790E-14 21184   0.326E-10    0.700E-05
DAV:   5    -0.107927684593E+03    0.48567E-09    0.64134E-13 21184   0.318E-10    0.700E-05
DAV:   6    -0.107927684592E+03    0.72987E-09    0.91873E-13 21184   0.165E-10
  76 F= -.10792768E+03 E0= -.10792768E+03  d E =0.000000E+00
       N       E                     dE             d eps       ncg     rms          rms(c)
DAV:   1    -0.107927684593E+03   -0.27376E-09    0.70073E-13 21184   0.140E-10    0.700E-05
DAV:   2    -0.107927684592E+03    0.78353E-09    0.86427E-13 21184   0.342E-10    0.700E-05
DAV:   3    -0.107927684593E+03   -0.80581E-09    0.86533E-13 21184   0.276E-10    0.700E-05
DAV:   4    -0.107927684593E+03    0.25875E-09    0.11137E-12 21184   0.185E-10    0.700E-05
DAV:   5    -0.107927684593E+03   -0.26830E-10    0.24711E-13 21184   0.275E-10    0.700E-05
DAV:   6    -0.107927684594E+03   -0.50704E-09    0.75902E-13 21184   0.102E-10
  77 F= -.10792768E+03 E0= -.10792768E+03  d E =0.000000E+00
       N       E                     dE             d eps       ncg     rms          rms(c)
DAV:   1    -0.107927684592E+03    0.54797E-09    0.16810E-12 21184   0.176E-10    0.700E-05
DAV:   2    -0.107927684593E+03   -0.20327E-09    0.78751E-13 21184   0.478E-10    0.700E-05
DAV:   3    -0.107927684593E+03   -0.47794E-09    0.19991E-13 21184   0.243E-10    0.700E-05
DAV:   4    -0.107927684593E+03    0.25557E-09    0.60885E-13 21184   0.228E-10    0.700E-05
DAV:   5    -0.107927684592E+03    0.52114E-09    0.38226E-13 21184   0.187E-10    0.700E-05
DAV:   6    -0.107927684593E+03   -0.39108E-09    0.35392E-13 21184   0.154E-10
  78 F= -.10792768E+03 E0= -.10792768E+03  d E =0.000000E+00
       N       E                     dE             d eps       ncg     rms          rms(c)
DAV:   1    -0.107927684593E+03   -0.92314E-09    0.30341E-13 21184   0.163E-10    0.700E-05
DAV:   2    -0.107927684593E+03    0.71577E-09    0.76724E-13 21184   0.424E-10    0.700E-05
DAV:   3    -0.107927684593E+03   -0.81445E-09    0.55586E-13 21184   0.374E-10    0.700E-05
DAV:   4    -0.107927684593E+03    0.37971E-09    0.14573E-12 21184   0.180E-10    0.700E-05
DAV:   5    -0.107927684593E+03    0.46384E-09    0.31375E-13 21184   0.185E-10    0.700E-05
DAV:   6    -0.107927684592E+03    0.10732E-09    0.20675E-13 21184   0.268E-10
  79 F= -.10792768E+03 E0= -.10792768E+03  d E =0.000000E+00
       N       E                     dE             d eps       ncg     rms          rms(c)
DAV:   1    -0.107927684593E+03   -0.91222E-09    0.68565E-13 21184   0.147E-10    0.700E-05
DAV:   2    -0.107927684593E+03    0.35834E-09    0.12217E-12 21184   0.550E-10    0.700E-05
DAV:   3    -0.107927684593E+03    0.60936E-09    0.60464E-13 21184   0.312E-10    0.700E-05
DAV:   4    -0.107927684593E+03   -0.17644E-09    0.82931E-13 21184   0.210E-10    0.700E-05
DAV:   5    -0.107927684593E+03   -0.29195E-09    0.23098E-13 21184   0.203E-10    0.700E-05
DAV:   6    -0.107927684594E+03   -0.62209E-09    0.59024E-13 21184   0.204E-10
  80 F= -.10792768E+03 E0= -.10792768E+03  d E =0.000000E+00
       N       E                     dE             d eps       ncg     rms          rms(c)
DAV:   1    -0.107927684593E+03   -0.36971E-09    0.63345E-13 21184   0.218E-10    0.700E-05
DAV:   2    -0.107927684593E+03    0.68803E-09    0.22600E-13 21184   0.353E-10    0.700E-05
DAV:   3    -0.107927684593E+03   -0.57253E-09    0.13989E-13 21184   0.316E-10    0.700E-05
DAV:   4    -0.107927684593E+03    0.58617E-09    0.56190E-13 21184   0.325E-10    0.700E-05
DAV:   5    -0.107927684593E+03   -0.53251E-09    0.11639E-12 21184   0.306E-10    0.700E-05
DAV:   6    -0.107927684593E+03    0.58662E-10    0.54882E-13 21184   0.247E-10
  81 F= -.10792768E+03 E0= -.10792768E+03  d E =0.000000E+00
       N       E                     dE             d eps       ncg     rms          rms(c)
DAV:   1    -0.107927684593E+03   -0.31605E-09    0.78977E-13 21184   0.269E-10    0.700E-05
DAV:   2    -0.107927684593E+03    0.63346E-09    0.61953E-13 21184   0.290E-10    0.700E-05
DAV:   3    -0.107927684593E+03   -0.34834E-09   -0.14508E-13 21184   0.196E-10    0.700E-05
DAV:   4    -0.107927684593E+03    0.46339E-09    0.82846E-13 21184   0.360E-10    0.700E-05
DAV:   5    -0.107927684593E+03    0.17099E-09    0.72059E-13 21184   0.188E-10    0.700E-05
DAV:   6    -0.107927684593E+03   -0.35925E-09    0.88611E-15 21184   0.260E-10
  82 F= -.10792768E+03 E0= -.10792768E+03  d E =0.000000E+00
       N       E                     dE             d eps       ncg     rms          rms(c)
DAV:   1    -0.107927684593E+03   -0.55661E-09   -0.55114E-14 21184   0.131E-10    0.700E-05
DAV:   2    -0.107927684593E+03    0.54160E-09    0.97281E-13 21184   0.142E-10    0.700E-05
DAV:   3    -0.107927684593E+03   -0.36653E-09    0.69494E-13 21184   0.183E-10    0.700E-05
DAV:   4    -0.107927684593E+03   -0.43201E-10    0.70964E-13 21184   0.105E-10    0.700E-05
DAV:   5    -0.107927684593E+03    0.39472E-09    0.77606E-13 21184   0.199E-10    0.700E-05
DAV:   6    -0.107927684592E+03    0.23283E-09   -0.10901E-13 21184   0.202E-10
  83 F= -.10792768E+03 E0= -.10792768E+03  d E =0.000000E+00
       N       E                     dE             d eps       ncg     rms          rms(c)
DAV:   1    -0.107927684593E+03   -0.32924E-09    0.58776E-13 21184   0.198E-10    0.700E-05
DAV:   2    -0.107927684592E+03    0.65666E-09    0.81457E-13 21184   0.256E-10    0.700E-05
DAV:   3    -0.107927684593E+03   -0.64119E-09    0.43218E-13 21184   0.460E-10    0.700E-05
DAV:   4    -0.107927684593E+03   -0.13006E-09    0.24740E-13 21184   0.343E-10    0.700E-05
DAV:   5    -0.107927684594E+03   -0.56161E-09    0.54215E-13 21184   0.190E-10    0.700E-05
DAV:   6    -0.107927684593E+03    0.56616E-09    0.65361E-13 21184   0.284E-10
  84 F= -.10792768E+03 E0= -.10792768E+03  d E =0.000000E+00
       N       E                     dE             d eps       ncg     rms          rms(c)
DAV:   1    -0.107927684593E+03    0.90176E-09    0.17889E-13 21184   0.285E-10    0.700E-05
DAV:   2    -0.107927684593E+03   -0.48976E-09    0.79271E-14 21184   0.440E-10    0.700E-05
DAV:   3    -0.107927684593E+03    0.25148E-09    0.30357E-13 21184   0.266E-10    0.700E-05
DAV:   4    -0.107927684593E+03   -0.14188E-09    0.59953E-13 21184   0.134E-10    0.700E-05
DAV:   5    -0.107927684593E+03    0.19554E-09    0.81540E-13 21184   0.165E-10    0.700E-05
DAV:   6    -0.107927684594E+03   -0.72851E-09    0.11794E-12 21184   0.166E-10
  85 F= -.10792768E+03 E0= -.10792768E+03  d E =0.000000E+00
       N       E                     dE             d eps       ncg     rms          rms(c)
DAV:   1    -0.107927684593E+03   -0.27285E-10    0.11598E-12 21184   0.201E-10    0.700E-05
DAV:   2    -0.107927684593E+03   -0.19190E-09    0.31530E-13 21184   0.255E-10    0.700E-05
DAV:   3    -0.107927684593E+03    0.46566E-09    0.82376E-13 21184   0.178E-10    0.700E-05
DAV:   4    -0.107927684594E+03   -0.89722E-09    0.22766E-13 21184   0.239E-10    0.700E-05
DAV:   5    -0.107927684593E+03    0.17872E-09    0.54100E-13 21184   0.262E-10    0.700E-05
DAV:   6    -0.107927684593E+03    0.14916E-09    0.22856E-13 21184   0.129E-10
  86 F= -.10792768E+03 E0= -.10792768E+03  d E =0.000000E+00
       N       E                     dE             d eps       ncg     rms          rms(c)
DAV:   1    -0.107927684593E+03    0.35106E-09    0.54863E-13 21184   0.934E-11    0.700E-05
DAV:   2    -0.107927684593E+03   -0.17553E-09    0.58933E-13 21184   0.249E-10    0.700E-05
DAV:   3    -0.107927684593E+03    0.45202E-09    0.93403E-13 21184   0.227E-10    0.700E-05
DAV:   4    -0.107927684593E+03   -0.37653E-09    0.58810E-13 21184   0.167E-10    0.700E-05
DAV:   5    -0.107927684594E+03   -0.45020E-09    0.76979E-13 21184   0.128E-10    0.700E-05
DAV:   6    -0.107927684593E+03    0.12551E-09    0.13597E-13 21184   0.961E-11
  87 F= -.10792768E+03 E0= -.10792768E+03  d E =0.000000E+00
       N       E                     dE             d eps       ncg     rms          rms(c)
DAV:   1    -0.107927684593E+03    0.85447E-09    0.69069E-13 21184   0.127E-10    0.700E-05
DAV:   2    -0.107927684593E+03   -0.56252E-09    0.68835E-13 21184   0.399E-10    0.700E-05
DAV:   3    -0.107927684593E+03   -0.12551E-09    0.53680E-13 21184   0.235E-10    0.700E-05
DAV:   4    -0.107927684593E+03    0.70668E-09    0.63189E-13 21184   0.142E-10    0.700E-05
DAV:   5    -0.107927684592E+03    0.19963E-09    0.55141E-13 21184   0.163E-10    0.700E-05
DAV:   6    -0.107927684592E+03    0.21600E-09    0.10240E-12 21184   0.125E-10
  88 F= -.10792768E+03 E0= -.10792768E+03  d E =0.000000E+00
       N       E                     dE             d eps       ncg     rms          rms(c)
DAV:   1    -0.107927684593E+03   -0.64620E-09    0.81533E-13 21184   0.198E-10    0.700E-05
DAV:   2    -0.107927684593E+03    0.39654E-09    0.59561E-13 21184   0.230E-10    0.700E-05
DAV:   3    -0.107927684593E+03   -0.37289E-09    0.59684E-13 21184   0.262E-10    0.700E-05
DAV:   4    -0.107927684593E+03   -0.74124E-10    0.78582E-13 21184   0.148E-10    0.700E-05
DAV:   5    -0.107927684593E+03    0.12142E-09    0.57234E-13 21184   0.413E-10    0.700E-05
DAV:   6    -0.107927684593E+03    0.34470E-09   -0.20681E-14 21184   0.391E-10
  89 F= -.10792768E+03 E0= -.10792768E+03  d E =0.000000E+00
       N       E                     dE             d eps       ncg     rms          rms(c)
DAV:   1    -0.107927684592E+03    0.78944E-09    0.36707E-13 21184   0.228E-10    0.700E-05
DAV:   2    -0.107927684593E+03   -0.83764E-09    0.10919E-12 21184   0.523E-10    0.700E-05
DAV:   3    -0.107927684593E+03    0.26012E-09    0.10677E-13 21184   0.371E-10    0.700E-05
DAV:   4    -0.107927684593E+03    0.47294E-10    0.65299E-13 21184   0.138E-10    0.700E-05
DAV:   5    -0.107927684593E+03   -0.21646E-09    0.60449E-13 21184   0.140E-10    0.700E-05
DAV:   6    -0.107927684593E+03    0.49749E-09    0.51017E-13 21184   0.241E-10
  90 F= -.10792768E+03 E0= -.10792768E+03  d E =0.000000E+00
       N       E                     dE             d eps       ncg     rms          rms(c)
DAV:   1    -0.107927684593E+03    0.16826E-09    0.90255E-13 21184   0.233E-10    0.700E-05
DAV:   2    -0.107927684592E+03    0.54115E-09    0.63534E-13 21184   0.199E-10    0.700E-05
DAV:   3    -0.107927684594E+03   -0.12651E-08    0.85260E-13 21184   0.166E-10    0.700E-05
DAV:   4    -0.107927684593E+03    0.36835E-09    0.62088E-13 21184   0.340E-10    0.700E-05
DAV:   5    -0.107927684593E+03    0.17008E-09    0.97062E-13 21184   0.179E-10    0.700E-05
DAV:   6    -0.107927684592E+03    0.65938E-09    0.40496E-13 21184   0.118E-10
  91 F= -.10792768E+03 E0= -.10792768E+03  d E =0.000000E+00
       N       E                     dE             d eps       ncg     rms          rms(c)
DAV:   1    -0.107927684593E+03    0.39199E-09    0.46012E-13 21184   0.137E-10    0.700E-05
DAV:   2    -0.107927684592E+03    0.15280E-09   -0.35153E-14 21184   0.194E-10    0.700E-05
DAV:   3    -0.107927684593E+03   -0.65620E-09    0.38736E-13 21184   0.292E-10    0.700E-05
DAV:   4    -0.107927684593E+03    0.58662E-10    0.48377E-13 21184   0.220E-10    0.700E-05
DAV:   5    -0.107927684593E+03   -0.41837E-10    0.43090E-13 21184   0.155E-10    0.700E-05
DAV:   6    -0.107927684593E+03    0.27103E-09    0.44408E-13 21184   0.821E-11
  92 F= -.10792768E+03 E0= -.10792768E+03  d E =0.000000E+00
       N       E                     dE             d eps       ncg     rms          rms(c)
DAV:   1    -0.107927684593E+03    0.96406E-10    0.66131E-13 21184   0.185E-10    0.700E-05
DAV:   2    -0.107927684593E+03   -0.17462E-09    0.58644E-13 21184   0.339E-10    0.700E-05
DAV:   3    -0.107927684593E+03    0.60027E-10    0.10861E-12 21184   0.248E-10    0.700E-05
DAV:   4    -0.107927684594E+03   -0.42928E-09    0.84444E-13 21184   0.184E-10    0.700E-05
DAV:   5    -0.107927684593E+03    0.62619E-09    0.26427E-13 21184   0.263E-10    0.700E-05
DAV:   6    -0.107927684593E+03    0.18690E-09    0.67869E-13 21184   0.256E-10
  93 F= -.10792768E+03 E0= -.10792768E+03  d E =0.000000E+00
       N       E                     dE             d eps       ncg     rms          rms(c)
DAV:   1    -0.107927684593E+03   -0.42701E-09   -0.99829E-14 21184   0.222E-10    0.700E-05
DAV:   2    -0.107927684593E+03    0.38108E-09    0.64937E-13 21184   0.611E-10    0.700E-05
DAV:   3    -0.107927684593E+03    0.13551E-09    0.88291E-14 21184   0.329E-10    0.700E-05
DAV:   4    -0.107927684593E+03    0.57298E-10   -0.13559E-13 21184   0.159E-10    0.700E-05
DAV:   5    -0.107927684593E+03   -0.16553E-09    0.70060E-13 21184   0.109E-10    0.700E-05
DAV:   6    -0.107927684593E+03   -0.35016E-10    0.12653E-12 21184   0.175E-10
  94 F= -.10792768E+03 E0= -.10792768E+03  d E =0.000000E+00
       N       E                     dE             d eps       ncg     rms          rms(c)
DAV:   1    -0.107927684592E+03    0.63710E-09    0.81543E-13 21184   0.196E-10    0.700E-05
DAV:   2    -0.107927684593E+03   -0.52796E-09    0.76958E-13 21184   0.526E-10    0.700E-05
DAV:   3    -0.107927684593E+03    0.12642E-09   -0.13698E-13 21184   0.288E-10    0.700E-05
DAV:   4    -0.107927684593E+03    0.22965E-09    0.31882E-13 21184   0.136E-10    0.700E-05
DAV:   5    -0.107927684593E+03   -0.49340E-09    0.47810E-13 21184   0.229E-10    0.700E-05
DAV:   6    -0.107927684593E+03   -0.45429E-09    0.42635E-13 21184   0.173E-10
  95 F= -.10792768E+03 E0= -.10792768E+03  d E =0.000000E+00
       N       E                     dE             d eps       ncg     rms          rms(c)
DAV:   1    -0.107927684593E+03    0.10823E-09    0.41292E-13 21184   0.172E-10    0.700E-05
DAV:   2    -0.107927684593E+03   -0.29604E-09    0.11315E-13 21184   0.244E-10    0.700E-05
DAV:   3    -0.107927684593E+03    0.36380E-09    0.40654E-13 21184   0.252E-10    0.700E-05
DAV:   4    -0.107927684593E+03    0.20782E-09    0.57189E-13 21184   0.225E-10    0.700E-05
DAV:   5    -0.107927684593E+03   -0.23647E-10    0.10716E-12 21184   0.225E-10    0.700E-05
DAV:   6    -0.107927684593E+03   -0.11369E-09    0.73377E-13 21184   0.109E-10
  96 F= -.10792768E+03 E0= -.10792768E+03  d E =0.000000E+00
       N       E                     dE             d eps       ncg     rms          rms(c)
DAV:   1    -0.107927684593E+03   -0.40745E-09    0.72045E-13 21184   0.119E-10    0.700E-05
DAV:   2    -0.107927684593E+03   -0.14916E-09    0.46532E-13 21184   0.226E-10    0.700E-05
DAV:   3    -0.107927684593E+03    0.32742E-09    0.38646E-13 21184   0.339E-10    0.700E-05
DAV:   4    -0.107927684593E+03    0.21919E-09    0.41339E-13 21184   0.455E-10    0.700E-05
DAV:   5    -0.107927684593E+03   -0.45657E-09    0.11260E-13 21184   0.214E-10    0.700E-05
DAV:   6    -0.107927684593E+03    0.16689E-09    0.25190E-13 21184   0.192E-10
  97 F= -.10792768E+03 E0= -.10792768E+03  d E =0.000000E+00
       N       E                     dE             d eps       ncg     rms          rms(c)
DAV:   1    -0.107927684593E+03    0.53660E-09    0.88749E-13 21184   0.123E-10    0.700E-05
DAV:   2    -0.107927684593E+03   -0.18463E-09    0.29921E-13 21184   0.228E-10    0.700E-05
DAV:   3    -0.107927684593E+03   -0.67757E-09    0.20294E-13 21184   0.285E-10    0.700E-05
DAV:   4    -0.107927684593E+03    0.29104E-10    0.82086E-13 21184   0.236E-10    0.700E-05
DAV:   5    -0.107927684593E+03    0.49840E-09    0.54419E-13 21184   0.163E-10    0.700E-05
DAV:   6    -0.107927684593E+03   -0.30559E-09    0.62707E-13 21184   0.275E-10
  98 F= -.10792768E+03 E0= -.10792768E+03  d E =0.000000E+00
       N       E                     dE             d eps       ncg     rms          rms(c)
DAV:   1    -0.107927684593E+03    0.11960E-09    0.34519E-13 21184   0.277E-10    0.700E-05
DAV:   2    -0.107927684593E+03   -0.59890E-09    0.76579E-13 21184   0.111E-10    0.700E-05
DAV:   3    -0.107927684593E+03    0.73169E-09    0.14144E-12 21184   0.189E-10    0.700E-05
DAV:   4    -0.107927684593E+03   -0.21691E-09    0.86153E-14 21184   0.177E-10    0.700E-05
DAV:   5    -0.107927684594E+03   -0.65484E-09    0.33527E-13 21184   0.211E-10    0.700E-05
DAV:   6    -0.107927684594E+03   -0.58208E-10    0.48286E-13 21184   0.194E-10
  99 F= -.10792768E+03 E0= -.10792768E+03  d E =0.000000E+00
       N       E                     dE             d eps       ncg     rms          rms(c)
DAV:   1    -0.107927684593E+03    0.45111E-09    0.87706E-13 21184   0.106E-10    0.700E-05
DAV:   2    -0.107927684593E+03    0.38426E-09    0.26855E-13 21184   0.217E-10    0.700E-05
DAV:   3    -0.107927684593E+03    0.64119E-10    0.64168E-13 21184   0.212E-10    0.700E-05
DAV:   4    -0.107927684593E+03   -0.32924E-09    0.57157E-13 21184   0.280E-10    0.700E-05
DAV:   5    -0.107927684594E+03   -0.65847E-09    0.72410E-13 21184   0.379E-10    0.700E-05
DAV:   6    -0.107927684593E+03    0.85220E-09    0.77274E-13 21184   0.262E-10
 100 F= -.10792768E+03 E0= -.10792768E+03  d E =0.000000E+00
