  15  15   0   0
  0.8200638E+01  0.5674027E-09  0.5166117E-09  0.5422515E-09  0.5000000E-15
  1.000000000000000E-004
  CAR 
 unknown system                          
     13.21408195    -13.53981328  301      5.98074249      1.00000000
    -13.540  0.0000E+00  0.0000E+00
    -13.451  0.0000E+00  0.0000E+00
    -13.361  0.0000E+00  0.0000E+00
    -13.272  0.0000E+00  0.0000E+00
    -13.183  0.0000E+00  0.0000E+00
    -13.094  0.0000E+00  0.0000E+00
    -13.005  0.0000E+00  0.0000E+00
    -12.916  0.0000E+00  0.0000E+00
    -12.826  0.0000E+00  0.0000E+00
    -12.737  0.0000E+00  0.0000E+00
    -12.648  0.0000E+00  0.0000E+00
    -12.559  0.0000E+00  0.0000E+00
    -12.470  0.0000E+00  0.0000E+00
    -12.380  0.0000E+00  0.0000E+00
    -12.291  0.0000E+00  0.0000E+00
    -12.202  0.0000E+00  0.0000E+00
    -12.113  0.0000E+00  0.0000E+00
    -12.024  0.0000E+00  0.0000E+00
    -11.935  0.0000E+00  0.0000E+00
    -11.845  0.0000E+00  0.0000E+00
    -11.756  0.0000E+00  0.0000E+00
    -11.667  0.0000E+00  0.0000E+00
    -11.578  0.0000E+00  0.0000E+00
    -11.489  0.4250E-02  0.1193E-03
    -11.400  0.8280E-02  0.7037E-03
    -11.310  0.1164E-01  0.1595E-02
    -11.221  0.1474E-01  0.2766E-02
    -11.132  0.1854E-01  0.4245E-02
    -11.043  0.2390E-01  0.6116E-02
    -10.954  0.3443E-01  0.8691E-02
    -10.864  0.4136E-01  0.1211E-01
    -10.775  0.4518E-01  0.1612E-01
    -10.686  0.2070E-01  0.1909E-01
    -10.597  0.0000E+00  0.2000E-01
    -10.508  0.0000E+00  0.2000E-01
    -10.419  0.8582E-02  0.2011E-01
    -10.329  0.1726E-01  0.2125E-01
    -10.240  0.3819E-01  0.2373E-01
    -10.151  0.5642E-01  0.2772E-01
    -10.062  0.3677E-01  0.3207E-01
     -9.973  0.2632E-01  0.3482E-01
     -9.883  0.1821E-01  0.3686E-01
     -9.794  0.1236E-01  0.3820E-01
     -9.705  0.8533E-02  0.3913E-01
     -9.616  0.5096E-02  0.3974E-01
     -9.527  0.8270E-04  0.4000E-01
     -9.438  0.0000E+00  0.4000E-01
     -9.348  0.0000E+00  0.4000E-01
     -9.259  0.0000E+00  0.4000E-01
     -9.170  0.0000E+00  0.4000E-01
     -9.081  0.0000E+00  0.4000E-01
     -8.992  0.0000E+00  0.4000E-01
     -8.902  0.3864E-02  0.4009E-01
     -8.813  0.3138E-01  0.4162E-01
     -8.724  0.3483E-01  0.4472E-01
     -8.635  0.3486E-01  0.4785E-01
     -8.546  0.3578E-01  0.5099E-01
     -8.457  0.3734E-01  0.5427E-01
     -8.367  0.3239E-01  0.5758E-01
     -8.278  0.1450E-01  0.5960E-01
     -8.189  0.0000E+00  0.6000E-01
     -8.100  0.0000E+00  0.6000E-01
     -8.011  0.0000E+00  0.6000E-01
     -7.921  0.0000E+00  0.6000E-01
     -7.832  0.0000E+00  0.6000E-01
     -7.743  0.0000E+00  0.6000E-01
     -7.654  0.8509E-02  0.6041E-01
     -7.565  0.1258E-01  0.6139E-01
     -7.476  0.1379E-01  0.6257E-01
     -7.386  0.1796E-01  0.6397E-01
     -7.297  0.2183E-01  0.6598E-01
     -7.208  0.1907E-01  0.6780E-01
     -7.119  0.1652E-01  0.6940E-01
     -7.030  0.1535E-01  0.7080E-01
     -6.941  0.1556E-01  0.7217E-01
     -6.851  0.1712E-01  0.7365E-01
     -6.762  0.1584E-01  0.7511E-01
     -6.673  0.1533E-01  0.7648E-01
     -6.584  0.1634E-01  0.7793E-01
     -6.495  0.1184E-01  0.7918E-01
     -6.405  0.4100E-02  0.7991E-01
     -6.316  0.1945E-01  0.8087E-01
     -6.227  0.3904E-01  0.8328E-01
     -6.138  0.7460E-01  0.8865E-01
     -6.049  0.5322E-01  0.9448E-01
     -5.960  0.2536E-01  0.9842E-01
     -5.870  0.1539E-01  0.9978E-01
     -5.781  0.2943E-01  0.1018E+00
     -5.692  0.1666E-01  0.1036E+00
     -5.603  0.2235E-01  0.1053E+00
     -5.514  0.3394E-01  0.1079E+00
     -5.424  0.4471E-01  0.1115E+00
     -5.335  0.2692E-01  0.1146E+00
     -5.246  0.1713E-01  0.1166E+00
     -5.157  0.1171E-01  0.1178E+00
     -5.068  0.8355E-02  0.1187E+00
     -4.979  0.5585E-02  0.1194E+00
     -4.889  0.2792E-02  0.1197E+00
     -4.800  0.1786E-02  0.1199E+00
     -4.711  0.0000E+00  0.1200E+00
     -4.622  0.0000E+00  0.1200E+00
     -4.533  0.0000E+00  0.1200E+00
     -4.443  0.0000E+00  0.1200E+00
     -4.354  0.0000E+00  0.1200E+00
     -4.265  0.3824E-02  0.1202E+00
     -4.176  0.8119E-02  0.1207E+00
     -4.087  0.1933E-01  0.1218E+00
     -3.998  0.2457E-01  0.1239E+00
     -3.908  0.2450E-01  0.1261E+00
     -3.819  0.3217E-01  0.1286E+00
     -3.730  0.3102E-01  0.1316E+00
     -3.641  0.3375E-01  0.1344E+00
     -3.552  0.3216E-01  0.1375E+00
     -3.463  0.2746E-01  0.1400E+00
     -3.373  0.2978E-01  0.1426E+00
     -3.284  0.3199E-01  0.1454E+00
     -3.195  0.3074E-01  0.1481E+00
     -3.106  0.3538E-01  0.1511E+00
     -3.017  0.3962E-01  0.1544E+00
     -2.927  0.4660E-01  0.1583E+00
     -2.838  0.4571E-01  0.1624E+00
     -2.749  0.4572E-01  0.1666E+00
     -2.660  0.4257E-01  0.1704E+00
     -2.571  0.3896E-01  0.1740E+00
     -2.482  0.3861E-01  0.1774E+00
     -2.392  0.3794E-01  0.1809E+00
     -2.303  0.4252E-01  0.1844E+00
     -2.214  0.5281E-01  0.1887E+00
     -2.125  0.4808E-01  0.1933E+00
     -2.036  0.4479E-01  0.1974E+00
     -1.946  0.4165E-01  0.2012E+00
     -1.857  0.4725E-01  0.2053E+00
     -1.768  0.4977E-01  0.2096E+00
     -1.679  0.4682E-01  0.2140E+00
     -1.590  0.4569E-01  0.2180E+00
     -1.501  0.5166E-01  0.2224E+00
     -1.411  0.4362E-01  0.2268E+00
     -1.322  0.3896E-01  0.2303E+00
     -1.233  0.4408E-01  0.2338E+00
     -1.144  0.4055E-01  0.2376E+00
     -1.055  0.3688E-01  0.2411E+00
     -0.965  0.4160E-01  0.2446E+00
     -0.876  0.3365E-01  0.2479E+00
     -0.787  0.4328E-01  0.2513E+00
     -0.698  0.4625E-01  0.2553E+00
     -0.609  0.4244E-01  0.2593E+00
     -0.520  0.4550E-01  0.2631E+00
     -0.430  0.3685E-01  0.2671E+00
     -0.341  0.4186E-01  0.2706E+00
     -0.252  0.4598E-01  0.2745E+00
     -0.163  0.5079E-01  0.2788E+00
     -0.074  0.4312E-01  0.2830E+00
      0.015  0.4196E-01  0.2868E+00
      0.105  0.4662E-01  0.2906E+00
      0.194  0.3807E-01  0.2943E+00
      0.283  0.3617E-01  0.2975E+00
      0.372  0.2666E-01  0.3005E+00
      0.461  0.2690E-01  0.3028E+00
      0.551  0.3193E-01  0.3056E+00
      0.640  0.5092E-01  0.3092E+00
      0.729  0.5452E-01  0.3143E+00
      0.818  0.4738E-01  0.3187E+00
      0.907  0.4318E-01  0.3228E+00
      0.996  0.5924E-01  0.3270E+00
      1.086  0.4947E-01  0.3317E+00
      1.175  0.5857E-01  0.3366E+00
      1.264  0.5937E-01  0.3419E+00
      1.353  0.7121E-01  0.3477E+00
      1.442  0.7030E-01  0.3543E+00
      1.532  0.5239E-01  0.3595E+00
      1.621  0.6980E-01  0.3649E+00
      1.710  0.6467E-01  0.3710E+00
      1.799  0.5356E-01  0.3763E+00
      1.888  0.5705E-01  0.3812E+00
      1.977  0.5702E-01  0.3865E+00
      2.067  0.5384E-01  0.3913E+00
      2.156  0.6687E-01  0.3964E+00
      2.245  0.6705E-01  0.4025E+00
      2.334  0.5866E-01  0.4084E+00
      2.423  0.4978E-01  0.4129E+00
      2.513  0.6917E-01  0.4181E+00
      2.602  0.6915E-01  0.4245E+00
      2.691  0.6161E-01  0.4303E+00
      2.780  0.6144E-01  0.4356E+00
      2.869  0.6289E-01  0.4414E+00
      2.958  0.5792E-01  0.4466E+00
      3.048  0.5729E-01  0.4517E+00
      3.137  0.5882E-01  0.4566E+00
      3.226  0.6892E-01  0.4622E+00
      3.315  0.6660E-01  0.4685E+00
      3.404  0.4215E-01  0.4732E+00
      3.494  0.2544E-01  0.4760E+00
      3.583  0.2120E-01  0.4783E+00
      3.672  0.8369E-02  0.4799E+00
      3.761  0.0000E+00  0.4800E+00
      3.850  0.0000E+00  0.4800E+00
      3.939  0.0000E+00  0.4800E+00
      4.029  0.0000E+00  0.4800E+00
      4.118  0.0000E+00  0.4800E+00
      4.207  0.0000E+00  0.4800E+00
      4.296  0.0000E+00  0.4800E+00
      4.385  0.0000E+00  0.4800E+00
      4.474  0.0000E+00  0.4800E+00
      4.564  0.0000E+00  0.4800E+00
      4.653  0.0000E+00  0.4800E+00
      4.742  0.0000E+00  0.4800E+00
      4.831  0.0000E+00  0.4800E+00
      4.920  0.0000E+00  0.4800E+00
      5.010  0.0000E+00  0.4800E+00
      5.099  0.0000E+00  0.4800E+00
      5.188  0.0000E+00  0.4800E+00
      5.277  0.0000E+00  0.4800E+00
      5.366  0.0000E+00  0.4800E+00
      5.455  0.0000E+00  0.4800E+00
      5.545  0.7557E-03  0.4800E+00
      5.634  0.1612E-01  0.4807E+00
      5.723  0.1841E-01  0.4821E+00
      5.812  0.2773E-01  0.4841E+00
      5.901  0.3318E-01  0.4868E+00
      5.991  0.4083E-01  0.4904E+00
      6.080  0.3843E-01  0.4939E+00
      6.169  0.2889E-01  0.4968E+00
      6.258  0.1927E-01  0.4990E+00
      6.347  0.1727E-01  0.5006E+00
      6.436  0.2419E-01  0.5024E+00
      6.526  0.3034E-01  0.5047E+00
      6.615  0.3173E-01  0.5074E+00
      6.704  0.3901E-01  0.5106E+00
      6.793  0.3298E-01  0.5138E+00
      6.882  0.2811E-01  0.5164E+00
      6.972  0.2738E-01  0.5189E+00
      7.061  0.0000E+00  0.5200E+00
      7.150  0.0000E+00  0.5200E+00
      7.239  0.0000E+00  0.5200E+00
      7.328  0.0000E+00  0.5200E+00
      7.417  0.6394E-03  0.5200E+00
      7.507  0.4230E-02  0.5202E+00
      7.596  0.1108E-01  0.5210E+00
      7.685  0.2250E-01  0.5223E+00
      7.774  0.3322E-01  0.5250E+00
      7.863  0.3380E-01  0.5281E+00
      7.952  0.3137E-01  0.5308E+00
      8.042  0.3356E-01  0.5338E+00
      8.131  0.3743E-01  0.5370E+00
      8.220  0.3141E-01  0.5401E+00
      8.309  0.2886E-01  0.5427E+00
      8.398  0.3095E-01  0.5454E+00
      8.488  0.3736E-01  0.5483E+00
      8.577  0.3938E-01  0.5519E+00
      8.666  0.3429E-01  0.5551E+00
      8.755  0.3439E-01  0.5582E+00
      8.844  0.4387E-01  0.5615E+00
      8.933  0.4428E-01  0.5655E+00
      9.023  0.4441E-01  0.5696E+00
      9.112  0.4507E-01  0.5734E+00
      9.201  0.3751E-01  0.5772E+00
      9.290  0.3580E-01  0.5804E+00
      9.379  0.4429E-01  0.5839E+00
      9.469  0.4832E-01  0.5882E+00
      9.558  0.4300E-01  0.5925E+00
      9.647  0.4421E-01  0.5964E+00
      9.736  0.4681E-01  0.6006E+00
      9.825  0.4024E-01  0.6044E+00
      9.914  0.3571E-01  0.6078E+00
     10.004  0.3461E-01  0.6110E+00
     10.093  0.4003E-01  0.6144E+00
     10.182  0.3097E-01  0.6176E+00
     10.271  0.2337E-01  0.6199E+00
     10.360  0.2133E-01  0.6218E+00
     10.450  0.3395E-01  0.6243E+00
     10.539  0.4300E-01  0.6279E+00
     10.628  0.3830E-01  0.6315E+00
     10.717  0.3174E-01  0.6346E+00
     10.806  0.2203E-01  0.6369E+00
     10.895  0.1276E-01  0.6385E+00
     10.985  0.6028E-02  0.6393E+00
     11.074  0.3939E-02  0.6398E+00
     11.163  0.5707E-03  0.6400E+00
     11.252  0.0000E+00  0.6400E+00
     11.341  0.0000E+00  0.6400E+00
     11.430  0.0000E+00  0.6400E+00
     11.520  0.0000E+00  0.6400E+00
     11.609  0.0000E+00  0.6400E+00
     11.698  0.0000E+00  0.6400E+00
     11.787  0.0000E+00  0.6400E+00
     11.876  0.0000E+00  0.6400E+00
     11.966  0.0000E+00  0.6400E+00
     12.055  0.0000E+00  0.6400E+00
     12.144  0.0000E+00  0.6400E+00
     12.233  0.0000E+00  0.6400E+00
     12.322  0.0000E+00  0.6400E+00
     12.411  0.0000E+00  0.6400E+00
     12.501  0.0000E+00  0.6400E+00
     12.590  0.0000E+00  0.6400E+00
     12.679  0.0000E+00  0.6400E+00
     12.768  0.0000E+00  0.6400E+00
     12.857  0.0000E+00  0.6400E+00
     12.947  0.0000E+00  0.6400E+00
     13.036  0.0000E+00  0.6400E+00
     13.125  0.0000E+00  0.6400E+00
     13.214  0.0000E+00  0.6400E+00
