       N       E                     dE             d eps       ncg     rms          rms(c)
DAV:   1     0.919637668710E+02    0.91964E+02   -0.20787E+04 42624   0.113E+03
DAV:   2    -0.108642442631E+03   -0.20061E+03   -0.19950E+03 58928   0.214E+02
DAV:   3    -0.113734495613E+03   -0.50921E+01   -0.50629E+01 61056   0.393E+01
DAV:   4    -0.113777496515E+03   -0.43001E-01   -0.42940E-01 59744   0.357E+00
DAV:   5    -0.113778312703E+03   -0.81619E-03   -0.81596E-03 62096   0.454E-01    0.129E+01
DAV:   6    -0.109635243014E+03    0.41431E+01   -0.72524E+00 58160   0.115E+01    0.715E+00
DAV:   7    -0.108668499782E+03    0.96674E+00   -0.22507E+00 58192   0.694E+00    0.278E+00
DAV:   8    -0.108611506310E+03    0.56993E-01   -0.25916E-01 62736   0.256E+00    0.916E-01
DAV:   9    -0.108612926887E+03   -0.14206E-02   -0.21947E-02 59008   0.774E-01    0.226E-01
DAV:  10    -0.108613828668E+03   -0.90178E-03   -0.28158E-03 61392   0.289E-01    0.695E-02
DAV:  11    -0.108614032000E+03   -0.20333E-03   -0.41142E-04 60800   0.114E-01    0.248E-02
DAV:  12    -0.108614069138E+03   -0.37138E-04   -0.55703E-05 61536   0.429E-02    0.103E-02
DAV:  13    -0.108614076346E+03   -0.72083E-05   -0.11721E-05 60880   0.200E-02    0.504E-03
DAV:  14    -0.108614077448E+03   -0.11020E-05   -0.18810E-06 62528   0.809E-03    0.144E-03
DAV:  15    -0.108614077566E+03   -0.11800E-06   -0.23944E-07 61904   0.272E-03    0.497E-04
DAV:  16    -0.108614077608E+03   -0.42261E-07   -0.33687E-08 61120   0.990E-04    0.154E-04
DAV:  17    -0.108614077612E+03   -0.37217E-08   -0.27186E-09 41104   0.291E-04
   1 F= -.10861408E+03 E0= -.10861408E+03  d E =0.000000E+00
       N       E                     dE             d eps       ncg     rms          rms(c)
DAV:   1    -0.108614077616E+03   -0.80472E-08   -0.51468E-10 35424   0.131E-04    0.701E-05
DAV:   2    -0.108614077616E+03   -0.24556E-10   -0.67576E-11 32768   0.491E-05    0.679E-05
DAV:   3    -0.108614077616E+03    0.23556E-09   -0.18786E-11 30416   0.275E-05    0.666E-05
DAV:   4    -0.108614077616E+03   -0.24647E-09   -0.33943E-12 28928   0.110E-05    0.665E-05
DAV:   5    -0.108614077617E+03   -0.25830E-09   -0.87546E-13 27840   0.622E-06    0.665E-05
DAV:   6    -0.108614077616E+03    0.74124E-10    0.59840E-13 26480   0.293E-06
   2 F= -.10861408E+03 E0= -.10861408E+03  d E =0.000000E+00
       N       E                     dE             d eps       ncg     rms          rms(c)
DAV:   1    -0.108614077617E+03   -0.14143E-09    0.10264E-13 25664   0.109E-06    0.665E-05
DAV:   2    -0.108614077617E+03    0.14506E-09    0.14047E-12 24992   0.466E-07    0.665E-05
DAV:   3    -0.108614077616E+03    0.72578E-09    0.12409E-12 24576   0.249E-07    0.665E-05
DAV:   4    -0.108614077616E+03   -0.13642E-10    0.11850E-12 23984   0.132E-07    0.665E-05
DAV:   5    -0.108614077616E+03   -0.28922E-09    0.18392E-14 23712   0.722E-08    0.665E-05
DAV:   6    -0.108614077616E+03    0.39836E-09    0.68516E-13 23360   0.403E-08
   3 F= -.10861408E+03 E0= -.10861408E+03  d E =0.000000E+00
       N       E                     dE             d eps       ncg     rms          rms(c)
DAV:   1    -0.108614077616E+03   -0.21964E-09    0.18660E-12 23120   0.237E-08    0.665E-05
DAV:   2    -0.108614077617E+03   -0.30423E-09    0.10373E-12 22976   0.140E-08    0.665E-05
DAV:   3    -0.108614077617E+03   -0.20009E-09    0.56925E-13 22864   0.840E-09    0.665E-05
DAV:   4    -0.108614077616E+03    0.77080E-09    0.68464E-13 22736   0.606E-09    0.665E-05
DAV:   5    -0.108614077616E+03   -0.21873E-09    0.23513E-13 22544   0.376E-09    0.665E-05
DAV:   6    -0.108614077616E+03    0.17008E-09   -0.56828E-13 22352   0.262E-09
   4 F= -.10861408E+03 E0= -.10861408E+03  d E =0.000000E+00
       N       E                     dE             d eps       ncg     rms          rms(c)
DAV:   1    -0.108614077616E+03   -0.25011E-10    0.36067E-13 22272   0.181E-09    0.665E-05
DAV:   2    -0.108614077617E+03   -0.29513E-09    0.21715E-13 22160   0.105E-09    0.665E-05
DAV:   3    -0.108614077616E+03    0.79672E-09   -0.18421E-13 22048   0.751E-10    0.665E-05
DAV:   4    -0.108614077616E+03   -0.20827E-09   -0.35097E-13 21968   0.608E-10    0.665E-05
DAV:   5    -0.108614077616E+03    0.62755E-10    0.11606E-12 21888   0.314E-10    0.665E-05
DAV:   6    -0.108614077617E+03   -0.81855E-09    0.70541E-14 21744   0.212E-10
   5 F= -.10861408E+03 E0= -.10861408E+03  d E =0.000000E+00
       N       E                     dE             d eps       ncg     rms          rms(c)
DAV:   1    -0.108614077616E+03   -0.27740E-09    0.45226E-13 21680   0.335E-10    0.665E-05
DAV:   2    -0.108614077616E+03    0.26739E-09    0.21515E-13 21648   0.325E-10    0.665E-05
DAV:   3    -0.108614077616E+03    0.12597E-09    0.46435E-13 21616   0.195E-10    0.665E-05
DAV:   4    -0.108614077616E+03   -0.31787E-09   -0.12646E-13 21600   0.234E-10    0.665E-05
DAV:   5    -0.108614077617E+03   -0.44656E-09    0.20659E-13 21568   0.165E-10    0.665E-05
DAV:   6    -0.108614077616E+03    0.32378E-09    0.30547E-13 21552   0.132E-10
   6 F= -.10861408E+03 E0= -.10861408E+03  d E =0.000000E+00
       N       E                     dE             d eps       ncg     rms          rms(c)
DAV:   1    -0.108614077616E+03    0.55388E-09    0.99496E-14 21552   0.150E-10    0.665E-05
DAV:   2    -0.108614077617E+03   -0.79535E-09    0.28365E-13 21552   0.176E-10    0.665E-05
DAV:   3    -0.108614077617E+03    0.25875E-09   -0.22319E-14 21552   0.379E-10    0.665E-05
DAV:   4    -0.108614077616E+03    0.30832E-09    0.40212E-13 21520   0.114E-10    0.665E-05
DAV:   5    -0.108614077616E+03    0.36380E-09   -0.54966E-14 21504   0.185E-10    0.665E-05
DAV:   6    -0.108614077616E+03   -0.27740E-09    0.30744E-13 21504   0.123E-10
   7 F= -.10861408E+03 E0= -.10861408E+03  d E =0.000000E+00
       N       E                     dE             d eps       ncg     rms          rms(c)
DAV:   1    -0.108614077616E+03   -0.17280E-10    0.10286E-13 21504   0.125E-10    0.665E-05
DAV:   2    -0.108614077617E+03   -0.72714E-09    0.49238E-13 21456   0.237E-10    0.665E-05
DAV:   3    -0.108614077617E+03   -0.15461E-10    0.10566E-13 21456   0.199E-10    0.665E-05
DAV:   4    -0.108614077616E+03    0.11173E-08    0.13223E-13 21440   0.128E-10    0.665E-05
DAV:   5    -0.108614077616E+03   -0.37016E-09    0.94964E-15 21408   0.257E-10    0.665E-05
DAV:   6    -0.108614077616E+03   -0.10550E-09   -0.21270E-13 21408   0.140E-10
   8 F= -.10861408E+03 E0= -.10861408E+03  d E =0.000000E+00
       N       E                     dE             d eps       ncg     rms          rms(c)
DAV:   1    -0.108614077616E+03   -0.21919E-09   -0.13058E-14 21408   0.157E-10    0.665E-05
DAV:   2    -0.108614077616E+03    0.38654E-09    0.17334E-13 21408   0.141E-10    0.665E-05
DAV:   3    -0.108614077616E+03   -0.40927E-09    0.51631E-13 21408   0.299E-10    0.665E-05
DAV:   4    -0.108614077616E+03    0.54752E-09   -0.29167E-13 21408   0.101E-10    0.665E-05
DAV:   5    -0.108614077616E+03   -0.67394E-09    0.53906E-13 21408   0.230E-10    0.665E-05
DAV:   6    -0.108614077616E+03    0.56571E-09   -0.33653E-13 21408   0.133E-10
   9 F= -.10861408E+03 E0= -.10861408E+03  d E =0.000000E+00
       N       E                     dE             d eps       ncg     rms          rms(c)
DAV:   1    -0.108614077616E+03    0.22283E-10    0.35527E-13 21408   0.257E-10    0.665E-05
DAV:   2    -0.108614077616E+03    0.27330E-09    0.35848E-13 21408   0.288E-10    0.665E-05
DAV:   3    -0.108614077616E+03   -0.29922E-09    0.32629E-13 21408   0.138E-10    0.665E-05
DAV:   4    -0.108614077616E+03    0.71304E-09    0.69945E-13 21408   0.161E-10    0.665E-05
DAV:   5    -0.108614077616E+03   -0.24102E-09   -0.57319E-14 21408   0.155E-10    0.665E-05
DAV:   6    -0.108614077616E+03   -0.58299E-09    0.45130E-13 21408   0.248E-10
  10 F= -.10861408E+03 E0= -.10861408E+03  d E =0.000000E+00
       N       E                     dE             d eps       ncg     rms          rms(c)
DAV:   1    -0.108614077616E+03   -0.61391E-09   -0.47956E-13 21408   0.158E-10    0.665E-05
DAV:   2    -0.108614077616E+03    0.21373E-09    0.66621E-14 21408   0.294E-10    0.665E-05
DAV:   3    -0.108614077616E+03    0.35288E-09    0.29085E-13 21408   0.161E-10    0.665E-05
DAV:   4    -0.108614077617E+03   -0.79717E-09    0.92682E-13 21408   0.155E-10    0.665E-05
DAV:   5    -0.108614077616E+03    0.11537E-08    0.41413E-13 21408   0.253E-10    0.665E-05
DAV:   6    -0.108614077616E+03   -0.44702E-09    0.91983E-13 21408   0.253E-10
  11 F= -.10861408E+03 E0= -.10861408E+03  d E =0.000000E+00
       N       E                     dE             d eps       ncg     rms          rms(c)
DAV:   1    -0.108614077616E+03   -0.77034E-09    0.95625E-14 21408   0.204E-10    0.665E-05
DAV:   2    -0.108614077616E+03    0.38017E-09   -0.88189E-14 21376   0.191E-10    0.665E-05
DAV:   3    -0.108614077616E+03    0.30059E-09    0.55167E-13 21360   0.133E-10    0.665E-05
DAV:   4    -0.108614077616E+03   -0.60891E-09    0.35388E-14 21360   0.165E-10    0.665E-05
DAV:   5    -0.108614077617E+03   -0.58026E-09   -0.41144E-13 21328   0.261E-10    0.665E-05
DAV:   6    -0.108614077616E+03    0.58299E-09    0.73122E-13 21312   0.150E-10
  12 F= -.10861408E+03 E0= -.10861408E+03  d E =0.000000E+00
       N       E                     dE             d eps       ncg     rms          rms(c)
DAV:   1    -0.108614077616E+03    0.42428E-09    0.54380E-13 21312   0.132E-10    0.665E-05
DAV:   2    -0.108614077616E+03    0.80945E-10   -0.40145E-13 21312   0.132E-10    0.665E-05
DAV:   3    -0.108614077616E+03    0.15143E-09    0.98221E-13 21312   0.875E-11    0.665E-05
DAV:   4    -0.108614077616E+03   -0.31605E-09    0.12826E-12 21312   0.129E-10    0.665E-05
DAV:   5    -0.108614077616E+03    0.56662E-09    0.50431E-13 21312   0.186E-10    0.665E-05
DAV:   6    -0.108614077615E+03    0.38199E-09    0.23505E-13 21312   0.209E-10
  13 F= -.10861408E+03 E0= -.10861408E+03  d E =0.000000E+00
       N       E                     dE             d eps       ncg     rms          rms(c)
DAV:   1    -0.108614077616E+03   -0.79126E-10    0.84421E-13 21312   0.195E-10    0.665E-05
DAV:   2    -0.108614077617E+03   -0.55979E-09    0.31711E-13 21312   0.279E-10    0.665E-05
DAV:   3    -0.108614077616E+03    0.60709E-09    0.28786E-13 21312   0.214E-10    0.665E-05
DAV:   4    -0.108614077616E+03   -0.67757E-10    0.23923E-13 21312   0.344E-10    0.665E-05
DAV:   5    -0.108614077616E+03   -0.27103E-09    0.54850E-13 21312   0.231E-10    0.665E-05
DAV:   6    -0.108614077616E+03    0.36425E-09   -0.37142E-14 21312   0.199E-10
  14 F= -.10861408E+03 E0= -.10861408E+03  d E =0.000000E+00
       N       E                     dE             d eps       ncg     rms          rms(c)
DAV:   1    -0.108614077616E+03    0.29468E-09   -0.12367E-13 21312   0.119E-10    0.665E-05
DAV:   2    -0.108614077617E+03   -0.86584E-09    0.32090E-13 21312   0.207E-10    0.665E-05
DAV:   3    -0.108614077616E+03    0.33833E-09    0.68093E-13 21312   0.220E-10    0.665E-05
DAV:   4    -0.108614077616E+03    0.35197E-09    0.53185E-13 21312   0.146E-10    0.665E-05
DAV:   5    -0.108614077616E+03   -0.29513E-09    0.77127E-14 21312   0.115E-10    0.665E-05
DAV:   6    -0.108614077616E+03   -0.36835E-10    0.26333E-13 21312   0.163E-10
  15 F= -.10861408E+03 E0= -.10861408E+03  d E =0.000000E+00
       N       E                     dE             d eps       ncg     rms          rms(c)
DAV:   1    -0.108614077616E+03    0.29104E-10    0.40501E-13 21312   0.203E-10    0.665E-05
DAV:   2    -0.108614077616E+03   -0.26375E-10   -0.57218E-14 21312   0.266E-10    0.665E-05
DAV:   3    -0.108614077617E+03   -0.21964E-09    0.61454E-13 21312   0.138E-10    0.665E-05
DAV:   4    -0.108614077616E+03    0.67303E-09    0.13520E-12 21312   0.102E-10    0.665E-05
DAV:   5    -0.108614077617E+03   -0.60118E-09    0.37587E-13 21312   0.231E-10    0.665E-05
DAV:   6    -0.108614077616E+03    0.68758E-09    0.20052E-13 21312   0.331E-10
  16 F= -.10861408E+03 E0= -.10861408E+03  d E =0.000000E+00
       N       E                     dE             d eps       ncg     rms          rms(c)
DAV:   1    -0.108614077616E+03    0.80991E-09    0.43327E-13 21312   0.148E-10    0.665E-05
DAV:   2    -0.108614077616E+03   -0.75943E-10    0.37684E-14 21312   0.437E-10    0.665E-05
DAV:   3    -0.108614077617E+03   -0.68030E-09    0.58918E-13 21312   0.262E-10    0.665E-05
DAV:   4    -0.108614077616E+03    0.97862E-09    0.29788E-13 21312   0.348E-10    0.665E-05
DAV:   5    -0.108614077616E+03   -0.82127E-09    0.37122E-13 21312   0.284E-10    0.665E-05
DAV:   6    -0.108614077616E+03    0.21009E-09    0.56766E-13 21312   0.261E-10
  17 F= -.10861408E+03 E0= -.10861408E+03  d E =0.000000E+00
       N       E                     dE             d eps       ncg     rms          rms(c)
DAV:   1    -0.108614077616E+03    0.22737E-10    0.85817E-13 21312   0.335E-10    0.665E-05
DAV:   2    -0.108614077616E+03   -0.86857E-10    0.49713E-14 21312   0.262E-10    0.665E-05
DAV:   3    -0.108614077616E+03    0.37517E-09    0.64073E-13 21312   0.410E-10    0.665E-05
DAV:   4    -0.108614077616E+03    0.13142E-09    0.36429E-13 21312   0.366E-10    0.665E-05
DAV:   5    -0.108614077617E+03   -0.70622E-09    0.55573E-13 21312   0.193E-10    0.665E-05
DAV:   6    -0.108614077616E+03    0.66757E-09    0.27992E-13 21312   0.143E-10
  18 F= -.10861408E+03 E0= -.10861408E+03  d E =0.000000E+00
       N       E                     dE             d eps       ncg     rms          rms(c)
DAV:   1    -0.108614077616E+03    0.59390E-09    0.39543E-13 21312   0.169E-10    0.665E-05
DAV:   2    -0.108614077617E+03   -0.78762E-09    0.39155E-14 21312   0.214E-10    0.665E-05
DAV:   3    -0.108614077616E+03    0.48567E-09    0.14694E-13 21312   0.177E-10    0.665E-05
DAV:   4    -0.108614077616E+03   -0.15461E-10   -0.11786E-13 21312   0.188E-10    0.665E-05
DAV:   5    -0.108614077616E+03    0.24556E-10   -0.24236E-13 21312   0.171E-10    0.665E-05
DAV:   6    -0.108614077616E+03    0.75488E-09    0.16477E-13 21312   0.116E-10
  19 F= -.10861408E+03 E0= -.10861408E+03  d E =0.000000E+00
       N       E                     dE             d eps       ncg     rms          rms(c)
DAV:   1    -0.108614077616E+03    0.21510E-09    0.41268E-13 21312   0.174E-10    0.665E-05
DAV:   2    -0.108614077616E+03    0.33742E-09    0.69111E-13 21312   0.213E-10    0.665E-05
DAV:   3    -0.108614077616E+03   -0.46703E-09    0.15369E-13 21312   0.180E-10    0.665E-05
DAV:   4    -0.108614077616E+03    0.62755E-09   -0.99191E-14 21312   0.147E-10    0.665E-05
DAV:   5    -0.108614077616E+03   -0.62028E-09    0.29549E-13 21312   0.140E-10    0.665E-05
DAV:   6    -0.108614077616E+03    0.16416E-09    0.63309E-13 21312   0.147E-10
  20 F= -.10861408E+03 E0= -.10861408E+03  d E =0.000000E+00
       N       E                     dE             d eps       ncg     rms          rms(c)
DAV:   1    -0.108614077616E+03    0.31287E-09   -0.18975E-13 21312   0.989E-11    0.665E-05
DAV:   2    -0.108614077616E+03    0.93678E-10   -0.18138E-13 21312   0.308E-10    0.665E-05
DAV:   3    -0.108614077617E+03   -0.72350E-09    0.40138E-13 21312   0.214E-10    0.665E-05
DAV:   4    -0.108614077616E+03    0.19691E-09    0.64806E-13 21312   0.252E-10    0.665E-05
DAV:   5    -0.108614077617E+03   -0.37198E-09    0.23187E-14 21312   0.137E-10    0.665E-05
DAV:   6    -0.108614077617E+03   -0.66393E-10   -0.68604E-14 21312   0.137E-10
  21 F= -.10861408E+03 E0= -.10861408E+03  d E =0.000000E+00
       N       E                     dE             d eps       ncg     rms          rms(c)
DAV:   1    -0.108614077616E+03    0.25284E-09   -0.24448E-13 21312   0.165E-10    0.665E-05
DAV:   2    -0.108614077617E+03   -0.31741E-09    0.72041E-13 21312   0.363E-10    0.665E-05
DAV:   3    -0.108614077616E+03    0.10623E-08    0.77848E-13 21312   0.490E-10    0.665E-05
DAV:   4    -0.108614077616E+03   -0.61254E-09    0.59986E-13 21312   0.547E-10    0.665E-05
DAV:   5    -0.108614077616E+03    0.21600E-09    0.22042E-13 21312   0.368E-10    0.665E-05
DAV:   6    -0.108614077616E+03    0.44565E-10    0.20576E-13 21312   0.161E-10
  22 F= -.10861408E+03 E0= -.10861408E+03  d E =0.000000E+00
       N       E                     dE             d eps       ncg     rms          rms(c)
DAV:   1    -0.108614077616E+03   -0.25193E-09    0.36298E-15 21312   0.111E-10    0.665E-05
DAV:   2    -0.108614077616E+03    0.36380E-09    0.47174E-13 21312   0.178E-10    0.665E-05
DAV:   3    -0.108614077617E+03   -0.49022E-09    0.94781E-13 21312   0.142E-10    0.665E-05
DAV:   4    -0.108614077616E+03    0.37653E-09    0.21758E-13 21312   0.166E-10    0.665E-05
DAV:   5    -0.108614077616E+03    0.77307E-10    0.84259E-13 21312   0.284E-10    0.665E-05
DAV:   6    -0.108614077616E+03   -0.21009E-09    0.21299E-13 21312   0.952E-11
  23 F= -.10861408E+03 E0= -.10861408E+03  d E =0.000000E+00
       N       E                     dE             d eps       ncg     rms          rms(c)
DAV:   1    -0.108614077616E+03   -0.30104E-09   -0.94196E-14 21312   0.230E-10    0.665E-05
DAV:   2    -0.108614077616E+03    0.22737E-09    0.58448E-13 21312   0.236E-10    0.665E-05
DAV:   3    -0.108614077616E+03   -0.22737E-09    0.41591E-13 21312   0.122E-10    0.665E-05
DAV:   4    -0.108614077616E+03    0.19372E-09   -0.64582E-14 21312   0.216E-10    0.665E-05
DAV:   5    -0.108614077616E+03    0.52478E-09    0.47400E-13 21312   0.289E-10    0.665E-05
DAV:   6    -0.108614077616E+03   -0.13233E-09    0.39376E-13 21312   0.191E-10
  24 F= -.10861408E+03 E0= -.10861408E+03  d E =0.000000E+00
       N       E                     dE             d eps       ncg     rms          rms(c)
DAV:   1    -0.108614077616E+03   -0.57435E-09    0.76397E-13 21312   0.114E-10    0.665E-05
DAV:   2    -0.108614077616E+03   -0.14779E-09    0.19099E-13 21312   0.103E-10    0.665E-05
DAV:   3    -0.108614077616E+03    0.29559E-10    0.60634E-14 21312   0.775E-11    0.665E-05
DAV:   4    -0.108614077617E+03   -0.49158E-09    0.20354E-13 21312   0.174E-10    0.665E-05
DAV:   5    -0.108614077616E+03    0.12597E-08    0.13723E-13 21312   0.258E-10    0.665E-05
DAV:   6    -0.108614077616E+03   -0.50704E-09   -0.10522E-13 21312   0.309E-10
  25 F= -.10861408E+03 E0= -.10861408E+03  d E =0.000000E+00
       N       E                     dE             d eps       ncg     rms          rms(c)
DAV:   1    -0.108614077616E+03   -0.48385E-09    0.15714E-14 21312   0.178E-10    0.665E-05
DAV:   2    -0.108614077616E+03   -0.77307E-10   -0.63992E-14 21312   0.162E-10    0.665E-05
DAV:   3    -0.108614077616E+03   -0.32105E-09    0.35879E-13 21312   0.218E-10    0.665E-05
DAV:   4    -0.108614077616E+03    0.64028E-09    0.53765E-13 21312   0.123E-10    0.665E-05
DAV:   5    -0.108614077616E+03   -0.48158E-09    0.50045E-13 21312   0.148E-10    0.665E-05
DAV:   6    -0.108614077617E+03   -0.30332E-09   -0.69663E-14 21312   0.128E-10
  26 F= -.10861408E+03 E0= -.10861408E+03  d E =0.000000E+00
       N       E                     dE             d eps       ncg     rms          rms(c)
DAV:   1    -0.108614077616E+03    0.51159E-09   -0.11156E-13 21312   0.196E-10    0.665E-05
DAV:   2    -0.108614077617E+03   -0.93769E-09    0.22959E-13 21312   0.421E-10    0.665E-05
DAV:   3    -0.108614077616E+03    0.97225E-09    0.41038E-13 21312   0.320E-10    0.665E-05
DAV:   4    -0.108614077616E+03   -0.30377E-09   -0.13939E-13 21312   0.258E-10    0.665E-05
DAV:   5    -0.108614077617E+03   -0.67030E-09    0.32866E-13 21312   0.201E-10    0.665E-05
DAV:   6    -0.108614077616E+03    0.85129E-09    0.98970E-14 21312   0.258E-10
  27 F= -.10861408E+03 E0= -.10861408E+03  d E =0.000000E+00
       N       E                     dE             d eps       ncg     rms          rms(c)
DAV:   1    -0.108614077616E+03    0.86311E-09    0.76163E-13 21312   0.189E-10    0.665E-05
DAV:   2    -0.108614077616E+03   -0.27376E-09    0.44300E-13 21312   0.347E-10    0.665E-05
DAV:   3    -0.108614077616E+03   -0.25011E-10    0.12965E-12 21312   0.225E-10    0.665E-05
DAV:   4    -0.108614077617E+03   -0.57935E-09    0.10407E-12 21312   0.148E-10    0.665E-05
DAV:   5    -0.108614077616E+03    0.37971E-09   -0.20210E-13 21312   0.186E-10    0.665E-05
DAV:   6    -0.108614077616E+03   -0.62755E-10    0.40612E-13 21312   0.175E-10
  28 F= -.10861408E+03 E0= -.10861408E+03  d E =0.000000E+00
       N       E                     dE             d eps       ncg     rms          rms(c)
DAV:   1    -0.108614077616E+03    0.49840E-09   -0.40959E-13 21312   0.143E-10    0.665E-05
DAV:   2    -0.108614077616E+03   -0.11460E-09    0.10690E-13 21312   0.275E-10    0.665E-05
DAV:   3    -0.108614077617E+03   -0.75670E-09    0.12067E-12 21312   0.249E-10    0.665E-05
DAV:   4    -0.108614077617E+03   -0.10641E-09    0.55867E-13 21312   0.173E-10    0.665E-05
DAV:   5    -0.108614077617E+03    0.64574E-10    0.23430E-13 21312   0.155E-10    0.665E-05
DAV:   6    -0.108614077616E+03    0.35425E-09    0.12695E-13 21312   0.275E-10
  29 F= -.10861408E+03 E0= -.10861408E+03  d E =0.000000E+00
       N       E                     dE             d eps       ncg     rms          rms(c)
DAV:   1    -0.108614077616E+03    0.56571E-09   -0.37275E-13 21312   0.143E-10    0.665E-05
DAV:   2    -0.108614077616E+03    0.13642E-10    0.31315E-13 21312   0.189E-10    0.665E-05
DAV:   3    -0.108614077616E+03   -0.98680E-10    0.27379E-13 21312   0.138E-10    0.665E-05
DAV:   4    -0.108614077616E+03    0.22601E-09    0.69510E-14 21312   0.964E-11    0.665E-05
DAV:   5    -0.108614077616E+03   -0.30286E-09   -0.22081E-13 21312   0.882E-11    0.665E-05
DAV:   6    -0.108614077616E+03    0.54297E-09    0.30531E-13 21312   0.129E-10
  30 F= -.10861408E+03 E0= -.10861408E+03  d E =0.000000E+00
       N       E                     dE             d eps       ncg     rms          rms(c)
DAV:   1    -0.108614077616E+03    0.37653E-09    0.46467E-13 21312   0.141E-10    0.665E-05
DAV:   2    -0.108614077616E+03   -0.42928E-09    0.29733E-13 21312   0.226E-10    0.665E-05
DAV:   3    -0.108614077616E+03    0.24556E-09    0.13219E-13 21312   0.155E-10    0.665E-05
DAV:   4    -0.108614077616E+03   -0.21373E-09    0.38857E-13 21312   0.125E-10    0.665E-05
DAV:   5    -0.108614077616E+03   -0.74124E-10   -0.26193E-13 21312   0.928E-11    0.665E-05
DAV:   6    -0.108614077617E+03   -0.67757E-10    0.30039E-13 21312   0.220E-10
  31 F= -.10861408E+03 E0= -.10861408E+03  d E =0.000000E+00
       N       E                     dE             d eps       ncg     rms          rms(c)
DAV:   1    -0.108614077616E+03    0.74442E-09    0.21436E-13 21312   0.176E-10    0.665E-05
DAV:   2    -0.108614077616E+03   -0.60209E-09    0.50655E-13 21312   0.425E-10    0.665E-05
DAV:   3    -0.108614077616E+03    0.55115E-09    0.73344E-13 21312   0.294E-10    0.665E-05
DAV:   4    -0.108614077616E+03   -0.13824E-09    0.32839E-13 21312   0.186E-10    0.665E-05
DAV:   5    -0.108614077616E+03   -0.51114E-09    0.12976E-13 21312   0.198E-10    0.665E-05
DAV:   6    -0.108614077616E+03    0.35016E-09    0.24699E-13 21312   0.148E-10
  32 F= -.10861408E+03 E0= -.10861408E+03  d E =0.000000E+00
       N       E                     dE             d eps       ncg     rms          rms(c)
DAV:   1    -0.108614077616E+03    0.69485E-09    0.74306E-13 21312   0.121E-10    0.665E-05
DAV:   2    -0.108614077616E+03   -0.54479E-09    0.40242E-13 21312   0.256E-10    0.665E-05
DAV:   3    -0.108614077616E+03    0.38381E-09    0.87238E-13 21312   0.292E-10    0.665E-05
DAV:   4    -0.108614077616E+03   -0.47021E-09    0.10183E-12 21312   0.200E-10    0.665E-05
DAV:   5    -0.108614077616E+03   -0.75488E-10    0.66622E-13 21312   0.175E-10    0.665E-05
DAV:   6    -0.108614077617E+03   -0.17008E-09    0.10672E-12 21312   0.206E-10
  33 F= -.10861408E+03 E0= -.10861408E+03  d E =0.000000E+00
       N       E                     dE             d eps       ncg     rms          rms(c)
DAV:   1    -0.108614077616E+03    0.37653E-09    0.51872E-13 21312   0.260E-10    0.665E-05
DAV:   2    -0.108614077616E+03   -0.18190E-10    0.80017E-13 21312   0.150E-10    0.665E-05
DAV:   3    -0.108614077617E+03   -0.50295E-09   -0.18802E-14 21312   0.116E-10    0.665E-05
DAV:   4    -0.108614077616E+03    0.45020E-09    0.58134E-14 21312   0.957E-11    0.665E-05
DAV:   5    -0.108614077616E+03   -0.16098E-09    0.69993E-13 21312   0.167E-10    0.665E-05
DAV:   6    -0.108614077616E+03    0.21464E-09    0.13807E-13 21312   0.140E-10
  34 F= -.10861408E+03 E0= -.10861408E+03  d E =0.000000E+00
       N       E                     dE             d eps       ncg     rms          rms(c)
DAV:   1    -0.108614077616E+03   -0.22919E-09   -0.61976E-14 21312   0.305E-10    0.665E-05
DAV:   2    -0.108614077616E+03    0.54661E-09   -0.22841E-15 21312   0.404E-10    0.665E-05
DAV:   3    -0.108614077616E+03   -0.51841E-10   -0.16445E-13 21312   0.285E-10    0.665E-05
DAV:   4    -0.108614077616E+03   -0.27831E-09   -0.17866E-14 21312   0.100E-10    0.665E-05
DAV:   5    -0.108614077616E+03    0.29149E-09   -0.98105E-14 21312   0.193E-10    0.665E-05
DAV:   6    -0.108614077616E+03    0.90495E-10    0.18531E-13 21312   0.806E-11
  35 F= -.10861408E+03 E0= -.10861408E+03  d E =0.000000E+00
       N       E                     dE             d eps       ncg     rms          rms(c)
DAV:   1    -0.108614077616E+03    0.28695E-09    0.60378E-13 21312   0.206E-10    0.665E-05
DAV:   2    -0.108614077617E+03   -0.81673E-09   -0.10407E-14 21312   0.331E-10    0.665E-05
DAV:   3    -0.108614077616E+03    0.97316E-10    0.38638E-13 21312   0.283E-10    0.665E-05
DAV:   4    -0.108614077616E+03    0.61846E-10    0.60824E-13 21312   0.205E-10    0.665E-05
DAV:   5    -0.108614077616E+03    0.46293E-09   -0.36558E-13 21312   0.117E-10    0.665E-05
DAV:   6    -0.108614077616E+03    0.39563E-10    0.57165E-13 21312   0.211E-10
  36 F= -.10861408E+03 E0= -.10861408E+03  d E =0.000000E+00
       N       E                     dE             d eps       ncg     rms          rms(c)
DAV:   1    -0.108614077616E+03   -0.58344E-09    0.24634E-13 21312   0.217E-10    0.665E-05
DAV:   2    -0.108614077616E+03    0.98225E-09   -0.69660E-14 21312   0.354E-10    0.665E-05
DAV:   3    -0.108614077617E+03   -0.11200E-08   -0.37305E-13 21312   0.305E-10    0.665E-05
DAV:   4    -0.108614077616E+03    0.13733E-09   -0.28957E-13 21312   0.205E-10    0.665E-05
DAV:   5    -0.108614077616E+03    0.83219E-09    0.39920E-13 21312   0.187E-10    0.665E-05
DAV:   6    -0.108614077616E+03   -0.56116E-09   -0.13131E-13 21312   0.199E-10
  37 F= -.10861408E+03 E0= -.10861408E+03  d E =0.000000E+00
       N       E                     dE             d eps       ncg     rms          rms(c)
DAV:   1    -0.108614077616E+03   -0.73442E-09    0.44540E-13 21312   0.126E-10    0.665E-05
DAV:   2    -0.108614077616E+03    0.46839E-10    0.47538E-13 21312   0.341E-10    0.665E-05
DAV:   3    -0.108614077616E+03    0.36107E-09    0.46420E-13 21312   0.221E-10    0.665E-05
DAV:   4    -0.108614077616E+03    0.19099E-10    0.60318E-13 21312   0.155E-10    0.665E-05
DAV:   5    -0.108614077617E+03   -0.62300E-09    0.78956E-13 21312   0.780E-11    0.665E-05
DAV:   6    -0.108614077616E+03    0.94224E-09   -0.14483E-13 21312   0.136E-10
  38 F= -.10861408E+03 E0= -.10861408E+03  d E =0.000000E+00
       N       E                     dE             d eps       ncg     rms          rms(c)
DAV:   1    -0.108614077616E+03    0.11232E-09    0.59603E-13 21312   0.182E-10    0.665E-05
DAV:   2    -0.108614077616E+03    0.96361E-09   -0.21475E-13 21312   0.288E-10    0.665E-05
DAV:   3    -0.108614077617E+03   -0.11132E-08    0.40085E-13 21312   0.249E-10    0.665E-05
DAV:   4    -0.108614077616E+03    0.19190E-09    0.35398E-13 21312   0.307E-10    0.665E-05
DAV:   5    -0.108614077616E+03    0.28786E-09    0.59557E-13 21312   0.256E-10    0.665E-05
DAV:   6    -0.108614077616E+03    0.47430E-09    0.10149E-12 21312   0.106E-10
  39 F= -.10861408E+03 E0= -.10861408E+03  d E =0.000000E+00
       N       E                     dE             d eps       ncg     rms          rms(c)
DAV:   1    -0.108614077616E+03    0.11414E-09    0.74736E-13 21312   0.126E-10    0.665E-05
DAV:   2    -0.108614077616E+03   -0.20009E-09    0.46784E-13 21312   0.164E-10    0.665E-05
DAV:   3    -0.108614077616E+03   -0.43201E-10   -0.19987E-13 21312   0.991E-11    0.665E-05
DAV:   4    -0.108614077616E+03    0.53797E-09    0.31374E-13 21312   0.103E-10    0.665E-05
DAV:   5    -0.108614077616E+03   -0.67848E-09    0.48872E-14 21312   0.162E-10    0.665E-05
DAV:   6    -0.108614077616E+03   -0.82764E-10    0.31407E-14 21312   0.324E-10
  40 F= -.10861408E+03 E0= -.10861408E+03  d E =0.000000E+00
       N       E                     dE             d eps       ncg     rms          rms(c)
DAV:   1    -0.108614077616E+03    0.26466E-09   -0.90613E-13 21312   0.126E-10    0.665E-05
DAV:   2    -0.108614077616E+03   -0.92768E-10   -0.13551E-13 21312   0.171E-10    0.665E-05
DAV:   3    -0.108614077617E+03   -0.34652E-09   -0.41656E-13 21312   0.289E-10    0.665E-05
DAV:   4    -0.108614077616E+03    0.48476E-09    0.33865E-13 21312   0.113E-10    0.665E-05
DAV:   5    -0.108614077616E+03    0.00000E+00    0.18691E-13 21312   0.127E-10    0.665E-05
DAV:   6    -0.108614077616E+03   -0.18781E-09    0.21520E-13 21312   0.179E-10
  41 F= -.10861408E+03 E0= -.10861408E+03  d E =0.000000E+00
       N       E                     dE             d eps       ncg     rms          rms(c)
DAV:   1    -0.108614077616E+03   -0.31469E-09   -0.17497E-13 21312   0.227E-10    0.665E-05
DAV:   2    -0.108614077616E+03    0.96406E-10    0.18376E-13 21312   0.224E-10    0.665E-05
DAV:   3    -0.108614077616E+03   -0.17099E-09    0.45257E-13 21312   0.193E-10    0.665E-05
DAV:   4    -0.108614077616E+03    0.76534E-09    0.10105E-12 21312   0.149E-10    0.665E-05
DAV:   5    -0.108614077616E+03   -0.62482E-09    0.10359E-12 21312   0.191E-10    0.665E-05
DAV:   6    -0.108614077616E+03    0.58981E-09   -0.60205E-13 21312   0.182E-10
  42 F= -.10861408E+03 E0= -.10861408E+03  d E =0.000000E+00
       N       E                     dE             d eps       ncg     rms          rms(c)
DAV:   1    -0.108614077616E+03   -0.13597E-09    0.30223E-13 21312   0.198E-10    0.665E-05
DAV:   2    -0.108614077616E+03    0.65484E-10    0.15226E-13 21312   0.401E-10    0.665E-05
DAV:   3    -0.108614077617E+03   -0.24193E-09    0.16224E-13 21312   0.203E-10    0.665E-05
DAV:   4    -0.108614077616E+03    0.97498E-09    0.25335E-13 21312   0.116E-10    0.665E-05
DAV:   5    -0.108614077616E+03   -0.69667E-09    0.71552E-13 21312   0.233E-10    0.665E-05
DAV:   6    -0.108614077616E+03    0.38290E-09   -0.82615E-14 21312   0.208E-10
  43 F= -.10861408E+03 E0= -.10861408E+03  d E =0.000000E+00
       N       E                     dE             d eps       ncg     rms          rms(c)
DAV:   1    -0.108614077616E+03    0.41791E-09    0.74065E-13 21312   0.163E-10    0.665E-05
DAV:   2    -0.108614077616E+03   -0.18235E-09    0.37062E-13 21312   0.332E-10    0.665E-05
DAV:   3    -0.108614077617E+03   -0.51205E-09    0.37535E-13 21312   0.260E-10    0.665E-05
DAV:   4    -0.108614077616E+03    0.75943E-09   -0.12559E-13 21312   0.240E-10    0.665E-05
DAV:   5    -0.108614077617E+03   -0.74306E-09    0.32854E-13 21312   0.233E-10    0.665E-05
DAV:   6    -0.108614077616E+03    0.28285E-09    0.35046E-13 21312   0.196E-10
  44 F= -.10861408E+03 E0= -.10861408E+03  d E =0.000000E+00
       N       E                     dE             d eps       ncg     rms          rms(c)
DAV:   1    -0.108614077616E+03    0.66802E-09   -0.21146E-13 21312   0.160E-10    0.665E-05
DAV:   2    -0.108614077616E+03    0.63210E-10   -0.13147E-13 21312   0.157E-10    0.665E-05
DAV:   3    -0.108614077616E+03   -0.33106E-09    0.47690E-14 21312   0.189E-10    0.665E-05
DAV:   4    -0.108614077616E+03    0.74579E-10    0.93086E-13 21312   0.313E-10    0.665E-05
DAV:   5    -0.108614077616E+03    0.46157E-09    0.41818E-13 21312   0.253E-10    0.665E-05
DAV:   6    -0.108614077616E+03   -0.69622E-09    0.18184E-13 21312   0.166E-10
  45 F= -.10861408E+03 E0= -.10861408E+03  d E =0.000000E+00
       N       E                     dE             d eps       ncg     rms          rms(c)
DAV:   1    -0.108614077616E+03   -0.76307E-09   -0.49744E-13 21312   0.379E-10    0.665E-05
DAV:   2    -0.108614077616E+03    0.22146E-09    0.11866E-12 21312   0.326E-10    0.665E-05
DAV:   3    -0.108614077616E+03   -0.24556E-09    0.22900E-13 21312   0.282E-10    0.665E-05
DAV:   4    -0.108614077617E+03   -0.18917E-09    0.49772E-13 21312   0.346E-10    0.665E-05
DAV:   5    -0.108614077616E+03    0.68167E-09    0.86737E-13 21312   0.279E-10    0.665E-05
DAV:   6    -0.108614077616E+03    0.11960E-09    0.81867E-13 21312   0.255E-10
  46 F= -.10861408E+03 E0= -.10861408E+03  d E =0.000000E+00
       N       E                     dE             d eps       ncg     rms          rms(c)
DAV:   1    -0.108614077617E+03   -0.77807E-09    0.38146E-13 21312   0.231E-10    0.665E-05
DAV:   2    -0.108614077616E+03    0.11637E-08    0.18627E-13 21312   0.536E-10    0.665E-05
DAV:   3    -0.108614077616E+03   -0.78080E-09    0.13279E-13 21312   0.400E-10    0.665E-05
DAV:   4    -0.108614077616E+03    0.13415E-09   -0.78682E-14 21312   0.213E-10    0.665E-05
DAV:   5    -0.108614077616E+03    0.64529E-09    0.10744E-12 21312   0.106E-10    0.665E-05
DAV:   6    -0.108614077616E+03   -0.30604E-09    0.98230E-13 21312   0.272E-10
  47 F= -.10861408E+03 E0= -.10861408E+03  d E =0.000000E+00
       N       E                     dE             d eps       ncg     rms          rms(c)
DAV:   1    -0.108614077616E+03   -0.53114E-09    0.49516E-13 21312   0.151E-10    0.665E-05
DAV:   2    -0.108614077616E+03   -0.29695E-09    0.44200E-13 21312   0.149E-10    0.665E-05
DAV:   3    -0.108614077617E+03   -0.37744E-09   -0.55943E-14 21312   0.307E-10    0.665E-05
DAV:   4    -0.108614077616E+03    0.72259E-09    0.16190E-13 21312   0.482E-10    0.665E-05
DAV:   5    -0.108614077616E+03   -0.10550E-09    0.43194E-13 21312   0.240E-10    0.665E-05
DAV:   6    -0.108614077616E+03    0.26102E-09    0.81662E-15 21312   0.265E-10
  48 F= -.10861408E+03 E0= -.10861408E+03  d E =0.000000E+00
       N       E                     dE             d eps       ncg     rms          rms(c)
DAV:   1    -0.108614077616E+03    0.21646E-09    0.99642E-13 21312   0.176E-10    0.665E-05
DAV:   2    -0.108614077616E+03   -0.37926E-09    0.12941E-13 21312   0.230E-10    0.665E-05
DAV:   3    -0.108614077616E+03    0.30059E-09    0.83629E-13 21312   0.216E-10    0.665E-05
DAV:   4    -0.108614077616E+03    0.50613E-09    0.21658E-13 21312   0.141E-10    0.665E-05
DAV:   5    -0.108614077616E+03   -0.19008E-09    0.47865E-13 21312   0.143E-10    0.665E-05
DAV:   6    -0.108614077616E+03   -0.14643E-09    0.42828E-13 21312   0.136E-10
  49 F= -.10861408E+03 E0= -.10861408E+03  d E =0.000000E+00
       N       E                     dE             d eps       ncg     rms          rms(c)
DAV:   1    -0.108614077616E+03   -0.33651E-10   -0.50200E-14 21312   0.116E-10    0.665E-05
DAV:   2    -0.108614077616E+03   -0.57662E-09   -0.15538E-13 21312   0.359E-10    0.665E-05
DAV:   3    -0.108614077616E+03    0.38563E-09    0.63466E-13 21312   0.330E-10    0.665E-05
DAV:   4    -0.108614077616E+03    0.11096E-09   -0.19400E-13 21312   0.180E-10    0.665E-05
DAV:   5    -0.108614077617E+03   -0.79126E-09    0.49292E-13 21312   0.259E-10    0.665E-05
DAV:   6    -0.108614077616E+03    0.27421E-09    0.33810E-13 21312   0.216E-10
  50 F= -.10861408E+03 E0= -.10861408E+03  d E =0.000000E+00
       N       E                     dE             d eps       ncg     rms          rms(c)
DAV:   1    -0.108614077616E+03    0.19872E-09    0.24026E-13 21312   0.865E-11    0.665E-05
DAV:   2    -0.108614077616E+03    0.80036E-09    0.70906E-13 21312   0.439E-10    0.665E-05
DAV:   3    -0.108614077616E+03    0.42292E-10    0.57863E-13 21312   0.313E-10    0.665E-05
DAV:   4    -0.108614077616E+03   -0.11914E-09   -0.20128E-13 21312   0.198E-10    0.665E-05
DAV:   5    -0.108614077616E+03   -0.62573E-09    0.57681E-13 21312   0.172E-10    0.665E-05
DAV:   6    -0.108614077616E+03    0.66393E-10    0.64893E-13 21312   0.224E-10
  51 F= -.10861408E+03 E0= -.10861408E+03  d E =0.000000E+00
       N       E                     dE             d eps       ncg     rms          rms(c)
DAV:   1    -0.108614077616E+03    0.56752E-09    0.11437E-14 21312   0.420E-10    0.665E-05
DAV:   2    -0.108614077617E+03   -0.98726E-09    0.58045E-13 21312   0.398E-10    0.665E-05
DAV:   3    -0.108614077616E+03    0.28149E-09    0.28672E-13 21312   0.339E-10    0.665E-05
DAV:   4    -0.108614077617E+03   -0.14461E-09    0.69230E-13 21312   0.187E-10    0.665E-05
DAV:   5    -0.108614077617E+03   -0.20555E-09    0.12127E-13 21312   0.164E-10    0.665E-05
DAV:   6    -0.108614077616E+03    0.95588E-09   -0.20359E-13 21312   0.222E-10
  52 F= -.10861408E+03 E0= -.10861408E+03  d E =0.000000E+00
       N       E                     dE             d eps       ncg     rms          rms(c)
DAV:   1    -0.108614077617E+03    0.96406E-10    0.49599E-13 21312   0.217E-10    0.665E-05
DAV:   2    -0.108614077616E+03    0.50750E-09    0.53453E-13 21312   0.679E-10    0.665E-05
DAV:   3    -0.108614077616E+03    0.30013E-09    0.40858E-13 21312   0.339E-10    0.665E-05
DAV:   4    -0.108614077616E+03   -0.43929E-09   -0.94146E-14 21312   0.253E-10    0.665E-05
DAV:   5    -0.108614077616E+03    0.64756E-09    0.76792E-14 21312   0.268E-10    0.665E-05
DAV:   6    -0.108614077616E+03    0.21737E-09    0.11630E-12 21312   0.231E-10
  53 F= -.10861408E+03 E0= -.10861408E+03  d E =0.000000E+00
       N       E                     dE             d eps       ncg     rms          rms(c)
DAV:   1    -0.108614077616E+03   -0.42382E-09   -0.21314E-14 21312   0.158E-10    0.665E-05
DAV:   2    -0.108614077617E+03   -0.42519E-09    0.49853E-13 21312   0.167E-10    0.665E-05
DAV:   3    -0.108614077616E+03    0.40518E-09   -0.66041E-15 21312   0.228E-10    0.665E-05
DAV:   4    -0.108614077616E+03   -0.25602E-09    0.70265E-13 21312   0.248E-10    0.665E-05
DAV:   5    -0.108614077616E+03    0.15507E-09   -0.75746E-13 21312   0.153E-10    0.665E-05
DAV:   6    -0.108614077616E+03    0.59708E-09   -0.88095E-15 21312   0.218E-10
  54 F= -.10861408E+03 E0= -.10861408E+03  d E =0.000000E+00
       N       E                     dE             d eps       ncg     rms          rms(c)
DAV:   1    -0.108614077617E+03   -0.53114E-09    0.10003E-14 21312   0.258E-10    0.665E-05
DAV:   2    -0.108614077616E+03    0.36334E-09    0.20615E-13 21312   0.579E-10    0.665E-05
DAV:   3    -0.108614077616E+03    0.21964E-09    0.56883E-13 21312   0.370E-10    0.665E-05
DAV:   4    -0.108614077616E+03   -0.42292E-10    0.32868E-13 21312   0.245E-10    0.665E-05
DAV:   5    -0.108614077616E+03    0.46839E-10   -0.23946E-13 21312   0.142E-10    0.665E-05
DAV:   6    -0.108614077617E+03   -0.61164E-09    0.83604E-13 21312   0.172E-10
  55 F= -.10861408E+03 E0= -.10861408E+03  d E =0.000000E+00
       N       E                     dE             d eps       ncg     rms          rms(c)
DAV:   1    -0.108614077617E+03   -0.60754E-09    0.31488E-13 21312   0.153E-10    0.665E-05
DAV:   2    -0.108614077616E+03    0.93678E-09    0.19496E-13 21312   0.366E-10    0.665E-05
DAV:   3    -0.108614077616E+03   -0.38835E-09    0.56482E-13 21312   0.318E-10    0.665E-05
DAV:   4    -0.108614077616E+03    0.25921E-09    0.12742E-13 21312   0.137E-10    0.665E-05
DAV:   5    -0.108614077616E+03    0.22283E-10   -0.46656E-13 21312   0.120E-10    0.665E-05
DAV:   6    -0.108614077617E+03   -0.76534E-09    0.51520E-13 21312   0.110E-10
  56 F= -.10861408E+03 E0= -.10861408E+03  d E =0.000000E+00
       N       E                     dE             d eps       ncg     rms          rms(c)
DAV:   1    -0.108614077616E+03    0.56843E-10    0.98617E-13 21312   0.162E-10    0.665E-05
DAV:   2    -0.108614077616E+03    0.29559E-09    0.69550E-13 21312   0.356E-10    0.665E-05
DAV:   3    -0.108614077617E+03   -0.11196E-08    0.40947E-13 21312   0.949E-10    0.665E-05
DAV:   4    -0.108614077616E+03    0.10386E-08    0.51762E-13 21312   0.106E-09    0.665E-05
DAV:   5    -0.108614077616E+03   -0.38290E-09    0.34746E-13 21312   0.393E-10    0.665E-05
DAV:   6    -0.108614077616E+03    0.40473E-09   -0.24956E-13 21312   0.189E-10
  57 F= -.10861408E+03 E0= -.10861408E+03  d E =0.000000E+00
       N       E                     dE             d eps       ncg     rms          rms(c)
DAV:   1    -0.108614077617E+03   -0.41928E-09    0.49535E-13 21312   0.136E-10    0.665E-05
DAV:   2    -0.108614077616E+03    0.46020E-09    0.94579E-14 21312   0.306E-10    0.665E-05
DAV:   3    -0.108614077616E+03   -0.13279E-09    0.83976E-13 21312   0.251E-10    0.665E-05
DAV:   4    -0.108614077616E+03    0.10914E-09    0.38968E-13 21312   0.224E-10    0.665E-05
DAV:   5    -0.108614077616E+03    0.16371E-09    0.10237E-12 21312   0.144E-10    0.665E-05
DAV:   6    -0.108614077616E+03    0.12369E-09    0.54130E-13 21312   0.227E-10
  58 F= -.10861408E+03 E0= -.10861408E+03  d E =0.000000E+00
       N       E                     dE             d eps       ncg     rms          rms(c)
DAV:   1    -0.108614077616E+03   -0.97316E-10    0.44839E-13 21312   0.296E-10    0.665E-05
DAV:   2    -0.108614077616E+03   -0.42928E-09   -0.80054E-14 21312   0.264E-10    0.665E-05
DAV:   3    -0.108614077616E+03    0.72214E-09    0.74891E-13 21312   0.171E-10    0.665E-05
DAV:   4    -0.108614077616E+03   -0.96406E-10    0.30197E-13 21312   0.450E-10    0.665E-05
DAV:   5    -0.108614077617E+03   -0.94769E-09    0.15373E-13 21312   0.188E-10    0.665E-05
DAV:   6    -0.108614077616E+03    0.42655E-09    0.29981E-13 21312   0.210E-10
  59 F= -.10861408E+03 E0= -.10861408E+03  d E =0.000000E+00
       N       E                     dE             d eps       ncg     rms          rms(c)
DAV:   1    -0.108614077617E+03    0.23101E-09    0.35929E-13 21312   0.153E-10    0.665E-05
DAV:   2    -0.108614077616E+03    0.42883E-09   -0.20901E-13 21312   0.314E-10    0.665E-05
DAV:   3    -0.108614077616E+03    0.52250E-09    0.94986E-14 21312   0.309E-10    0.665E-05
DAV:   4    -0.108614077616E+03   -0.68667E-09    0.12526E-12 21312   0.329E-10    0.665E-05
DAV:   5    -0.108614077616E+03    0.25557E-09   -0.16624E-13 21312   0.197E-10    0.665E-05
DAV:   6    -0.108614077616E+03    0.88676E-10    0.53292E-13 21312   0.923E-11
  60 F= -.10861408E+03 E0= -.10861408E+03  d E =0.000000E+00
       N       E                     dE             d eps       ncg     rms          rms(c)
DAV:   1    -0.108614077616E+03    0.48203E-10   -0.29899E-14 21312   0.160E-10    0.665E-05
DAV:   2    -0.108614077617E+03   -0.84947E-09    0.51329E-13 21312   0.334E-10    0.665E-05
DAV:   3    -0.108614077616E+03    0.10114E-08    0.79017E-13 21312   0.299E-10    0.665E-05
DAV:   4    -0.108614077616E+03   -0.65938E-10    0.90905E-14 21312   0.243E-10    0.665E-05
DAV:   5    -0.108614077617E+03   -0.69622E-09    0.72263E-13 21312   0.205E-10    0.665E-05
DAV:   6    -0.108614077617E+03   -0.12096E-09   -0.85589E-14 21312   0.136E-10
  61 F= -.10861408E+03 E0= -.10861408E+03  d E =0.000000E+00
       N       E                     dE             d eps       ncg     rms          rms(c)
DAV:   1    -0.108614077616E+03    0.28376E-09   -0.11687E-13 21312   0.133E-10    0.665E-05
DAV:   2    -0.108614077616E+03    0.25375E-09    0.22759E-13 21312   0.199E-10    0.665E-05
DAV:   3    -0.108614077616E+03   -0.29377E-09   -0.76012E-13 21312   0.196E-10    0.665E-05
DAV:   4    -0.108614077616E+03    0.48385E-09    0.21482E-13 21312   0.147E-10    0.665E-05
DAV:   5    -0.108614077616E+03    0.16507E-09    0.91939E-14 21312   0.132E-10    0.665E-05
DAV:   6    -0.108614077617E+03   -0.11169E-08    0.66433E-13 21312   0.215E-10
  62 F= -.10861408E+03 E0= -.10861408E+03  d E =0.000000E+00
       N       E                     dE             d eps       ncg     rms          rms(c)
DAV:   1    -0.108614077616E+03   -0.39336E-09   -0.57862E-14 21312   0.231E-10    0.665E-05
DAV:   2    -0.108614077616E+03   -0.24465E-09    0.62922E-13 21312   0.221E-10    0.665E-05
DAV:   3    -0.108614077616E+03    0.76489E-09    0.19726E-13 21312   0.158E-10    0.665E-05
DAV:   4    -0.108614077616E+03   -0.64301E-09    0.12450E-12 21312   0.150E-10    0.665E-05
DAV:   5    -0.108614077616E+03   -0.23647E-09    0.14150E-13 21312   0.157E-10    0.665E-05
DAV:   6    -0.108614077616E+03    0.62482E-09    0.30271E-13 21312   0.127E-10
  63 F= -.10861408E+03 E0= -.10861408E+03  d E =0.000000E+00
       N       E                     dE             d eps       ncg     rms          rms(c)
DAV:   1    -0.108614077616E+03    0.88221E-09    0.59321E-13 21312   0.373E-10    0.665E-05
DAV:   2    -0.108614077616E+03   -0.70941E-09    0.63399E-13 21312   0.526E-10    0.665E-05
DAV:   3    -0.108614077616E+03    0.46748E-09    0.24384E-13 21312   0.382E-10    0.665E-05
DAV:   4    -0.108614077616E+03   -0.45156E-09    0.57349E-13 21312   0.152E-10    0.665E-05
DAV:   5    -0.108614077616E+03    0.68439E-09    0.31229E-13 21312   0.211E-10    0.665E-05
DAV:   6    -0.108614077617E+03   -0.12242E-08    0.47569E-13 21312   0.171E-10
  64 F= -.10861408E+03 E0= -.10861408E+03  d E =0.000000E+00
       N       E                     dE             d eps       ncg     rms          rms(c)
DAV:   1    -0.108614077617E+03   -0.10550E-08    0.62015E-13 21312   0.235E-10    0.665E-05
DAV:   2    -0.108614077616E+03    0.55616E-09    0.13812E-14 21312   0.511E-10    0.665E-05
DAV:   3    -0.108614077616E+03   -0.10914E-10    0.23060E-13 21312   0.303E-10    0.665E-05
DAV:   4    -0.108614077617E+03   -0.72805E-09    0.61280E-13 21312   0.266E-10    0.665E-05
DAV:   5    -0.108614077616E+03    0.35016E-09   -0.15678E-14 21312   0.451E-10    0.665E-05
DAV:   6    -0.108614077617E+03   -0.11596E-09    0.22271E-13 21312   0.239E-10
  65 F= -.10861408E+03 E0= -.10861408E+03  d E =0.000000E+00
       N       E                     dE             d eps       ncg     rms          rms(c)
DAV:   1    -0.108614077616E+03    0.49477E-09    0.30045E-13 21312   0.161E-10    0.665E-05
DAV:   2    -0.108614077616E+03    0.17917E-09    0.39023E-13 21312   0.256E-10    0.665E-05
DAV:   3    -0.108614077616E+03   -0.52751E-10    0.30180E-13 21312   0.352E-10    0.665E-05
DAV:   4    -0.108614077616E+03    0.61846E-10    0.85598E-13 21312   0.197E-10    0.665E-05
DAV:   5    -0.108614077616E+03   -0.13279E-09    0.36340E-13 21312   0.902E-11    0.665E-05
DAV:   6    -0.108614077616E+03   -0.44020E-09    0.39968E-13 21312   0.173E-10
  66 F= -.10861408E+03 E0= -.10861408E+03  d E =0.000000E+00
       N       E                     dE             d eps       ncg     rms          rms(c)
DAV:   1    -0.108614077616E+03   -0.35016E-09    0.84710E-13 21312   0.123E-10    0.665E-05
DAV:   2    -0.108614077616E+03   -0.16098E-09    0.54211E-13 21312   0.315E-10    0.665E-05
DAV:   3    -0.108614077616E+03    0.16644E-09    0.37604E-15 21312   0.182E-10    0.665E-05
DAV:   4    -0.108614077616E+03    0.30059E-09    0.56538E-13 21312   0.182E-10    0.665E-05
DAV:   5    -0.108614077617E+03   -0.90176E-09   -0.92294E-14 21312   0.136E-10    0.665E-05
DAV:   6    -0.108614077616E+03    0.89403E-09    0.24811E-13 21312   0.212E-10
  67 F= -.10861408E+03 E0= -.10861408E+03  d E =0.000000E+00
       N       E                     dE             d eps       ncg     rms          rms(c)
DAV:   1    -0.108614077616E+03    0.80809E-09    0.42769E-13 21312   0.183E-10    0.665E-05
DAV:   2    -0.108614077616E+03   -0.33833E-09   -0.40960E-14 21312   0.308E-10    0.665E-05
DAV:   3    -0.108614077616E+03    0.22510E-09    0.49283E-14 21312   0.103E-10    0.665E-05
DAV:   4    -0.108614077616E+03   -0.91859E-10    0.15883E-13 21312   0.243E-10    0.665E-05
DAV:   5    -0.108614077617E+03   -0.26557E-09   -0.22503E-13 21312   0.104E-10    0.665E-05
DAV:   6    -0.108614077616E+03    0.36380E-10   -0.40277E-13 21312   0.128E-10
  68 F= -.10861408E+03 E0= -.10861408E+03  d E =0.000000E+00
       N       E                     dE             d eps       ncg     rms          rms(c)
DAV:   1    -0.108614077617E+03   -0.82764E-10    0.83815E-14 21312   0.105E-10    0.665E-05
DAV:   2    -0.108614077616E+03    0.59799E-09    0.44443E-13 21312   0.387E-10    0.665E-05
DAV:   3    -0.108614077616E+03   -0.25602E-09   -0.96857E-14 21312   0.344E-10    0.665E-05
DAV:   4    -0.108614077616E+03   -0.15643E-09    0.11865E-13 21312   0.127E-10    0.665E-05
DAV:   5    -0.108614077616E+03    0.41473E-09    0.17380E-13 21312   0.102E-10    0.665E-05
DAV:   6    -0.108614077616E+03   -0.47976E-09   -0.16249E-13 21312   0.147E-10
  69 F= -.10861408E+03 E0= -.10861408E+03  d E =0.000000E+00
       N       E                     dE             d eps       ncg     rms          rms(c)
DAV:   1    -0.108614077616E+03    0.39518E-09   -0.37492E-14 21312   0.255E-10    0.665E-05
DAV:   2    -0.108614077616E+03   -0.28786E-09    0.36446E-13 21312   0.631E-10    0.665E-05
DAV:   3    -0.108614077616E+03   -0.36471E-09    0.61858E-13 21312   0.294E-10    0.665E-05
DAV:   4    -0.108614077616E+03   -0.15962E-09    0.44467E-13 21312   0.277E-10    0.665E-05
DAV:   5    -0.108614077616E+03    0.54706E-09   -0.36666E-13 21312   0.134E-10    0.665E-05
DAV:   6    -0.108614077617E+03   -0.72941E-09    0.40454E-13 21312   0.164E-10
  70 F= -.10861408E+03 E0= -.10861408E+03  d E =0.000000E+00
       N       E                     dE             d eps       ncg     rms          rms(c)
DAV:   1    -0.108614077616E+03   -0.12733E-10   -0.51535E-14 21312   0.190E-10    0.665E-05
DAV:   2    -0.108614077616E+03   -0.49295E-09    0.24475E-13 21312   0.355E-10    0.665E-05
DAV:   3    -0.108614077616E+03    0.28285E-09    0.26543E-13 21312   0.300E-10    0.665E-05
DAV:   4    -0.108614077616E+03   -0.52751E-10    0.42627E-13 21312   0.191E-10    0.665E-05
DAV:   5    -0.108614077616E+03   -0.23510E-09   -0.35558E-13 21312   0.171E-10    0.665E-05
DAV:   6    -0.108614077616E+03    0.11596E-09   -0.21250E-13 21312   0.103E-10
  71 F= -.10861408E+03 E0= -.10861408E+03  d E =0.000000E+00
       N       E                     dE             d eps       ncg     rms          rms(c)
DAV:   1    -0.108614077616E+03    0.27057E-09   -0.26024E-13 21312   0.169E-10    0.665E-05
DAV:   2    -0.108614077616E+03    0.17099E-09    0.10367E-13 21312   0.163E-10    0.665E-05
DAV:   3    -0.108614077616E+03    0.80945E-10    0.55791E-13 21312   0.339E-10    0.665E-05
DAV:   4    -0.108614077616E+03   -0.38153E-09    0.51614E-13 21312   0.137E-10    0.665E-05
DAV:   5    -0.108614077616E+03   -0.19691E-09   -0.12488E-13 21312   0.468E-10    0.665E-05
DAV:   6    -0.108614077616E+03   -0.59117E-10    0.34142E-13 21312   0.320E-10
  72 F= -.10861408E+03 E0= -.10861408E+03  d E =0.000000E+00
       N       E                     dE             d eps       ncg     rms          rms(c)
DAV:   1    -0.108614077616E+03    0.43474E-09    0.55702E-14 21312   0.171E-10    0.665E-05
DAV:   2    -0.108614077616E+03   -0.28558E-09    0.36099E-13 21312   0.208E-10    0.665E-05
DAV:   3    -0.108614077616E+03    0.84128E-10    0.32316E-13 21312   0.242E-10    0.665E-05
DAV:   4    -0.108614077616E+03   -0.29559E-10    0.26738E-13 21312   0.105E-10    0.665E-05
DAV:   5    -0.108614077616E+03    0.61118E-09   -0.16552E-13 21312   0.109E-10    0.665E-05
DAV:   6    -0.108614077616E+03   -0.79945E-09   -0.28815E-13 21312   0.249E-10
  73 F= -.10861408E+03 E0= -.10861408E+03  d E =0.000000E+00
       N       E                     dE             d eps       ncg     rms          rms(c)
DAV:   1    -0.108614077616E+03   -0.35379E-09    0.36189E-13 21312   0.176E-10    0.665E-05
DAV:   2    -0.108614077616E+03   -0.37471E-09    0.89658E-14 21312   0.160E-10    0.665E-05
DAV:   3    -0.108614077616E+03    0.41928E-09    0.73737E-13 21312   0.143E-10    0.665E-05
DAV:   4    -0.108614077616E+03   -0.73669E-10    0.73589E-13 21312   0.137E-10    0.665E-05
DAV:   5    -0.108614077616E+03   -0.36380E-10   -0.10304E-13 21312   0.212E-10    0.665E-05
DAV:   6    -0.108614077616E+03    0.46657E-09    0.85317E-15 21312   0.185E-10
  74 F= -.10861408E+03 E0= -.10861408E+03  d E =0.000000E+00
       N       E                     dE             d eps       ncg     rms          rms(c)
DAV:   1    -0.108614077617E+03   -0.65575E-09    0.77164E-13 21312   0.201E-10    0.665E-05
DAV:   2    -0.108614077616E+03    0.23192E-09    0.53672E-13 21312   0.592E-10    0.665E-05
DAV:   3    -0.108614077616E+03    0.25648E-09    0.74545E-14 21312   0.281E-10    0.665E-05
DAV:   4    -0.108614077616E+03    0.75033E-10   -0.29596E-13 21312   0.189E-10    0.665E-05
DAV:   5    -0.108614077616E+03    0.60618E-09   -0.39112E-13 21312   0.246E-10    0.665E-05
DAV:   6    -0.108614077616E+03   -0.75443E-09    0.83340E-13 21312   0.234E-10
  75 F= -.10861408E+03 E0= -.10861408E+03  d E =0.000000E+00
       N       E                     dE             d eps       ncg     rms          rms(c)
DAV:   1    -0.108614077616E+03   -0.19054E-09   -0.95357E-14 21312   0.188E-10    0.665E-05
DAV:   2    -0.108614077616E+03   -0.44975E-09    0.42865E-14 21312   0.461E-10    0.665E-05
DAV:   3    -0.108614077616E+03   -0.18508E-09    0.28518E-13 21312   0.331E-10    0.665E-05
DAV:   4    -0.108614077616E+03    0.63346E-09    0.83414E-13 21312   0.191E-10    0.665E-05
DAV:   5    -0.108614077616E+03   -0.31105E-09    0.28302E-13 21312   0.210E-10    0.665E-05
DAV:   6    -0.108614077616E+03   -0.90949E-10    0.35159E-13 21312   0.114E-10
  76 F= -.10861408E+03 E0= -.10861408E+03  d E =0.000000E+00
       N       E                     dE             d eps       ncg     rms          rms(c)
DAV:   1    -0.108614077616E+03    0.39745E-09   -0.42726E-13 21312   0.984E-11    0.665E-05
DAV:   2    -0.108614077616E+03   -0.66302E-09    0.15727E-13 21312   0.414E-10    0.665E-05
DAV:   3    -0.108614077616E+03    0.20373E-09    0.34320E-13 21312   0.329E-10    0.665E-05
DAV:   4    -0.108614077616E+03   -0.60936E-10    0.45574E-13 21312   0.137E-10    0.665E-05
DAV:   5    -0.108614077616E+03   -0.35925E-10    0.10368E-12 21312   0.133E-10    0.665E-05
DAV:   6    -0.108614077616E+03   -0.21828E-10    0.49927E-13 21312   0.102E-10
  77 F= -.10861408E+03 E0= -.10861408E+03  d E =0.000000E+00
       N       E                     dE             d eps       ncg     rms          rms(c)
DAV:   1    -0.108614077616E+03    0.24420E-09   -0.23528E-14 21312   0.228E-10    0.665E-05
DAV:   2    -0.108614077615E+03    0.44383E-09    0.39623E-13 21312   0.201E-10    0.665E-05
DAV:   3    -0.108614077616E+03   -0.49431E-09    0.49731E-13 21312   0.150E-10    0.665E-05
DAV:   4    -0.108614077617E+03   -0.52341E-09    0.56121E-13 21312   0.122E-10    0.665E-05
DAV:   5    -0.108614077616E+03    0.80490E-09    0.10292E-12 21312   0.216E-10    0.665E-05
DAV:   6    -0.108614077616E+03   -0.46111E-09    0.20968E-13 21312   0.345E-10
  78 F= -.10861408E+03 E0= -.10861408E+03  d E =0.000000E+00
       N       E                     dE             d eps       ncg     rms          rms(c)
DAV:   1    -0.108614077617E+03   -0.99953E-09    0.89630E-13 21312   0.112E-10    0.665E-05
DAV:   2    -0.108614077616E+03    0.56025E-09    0.55315E-13 21312   0.660E-10    0.665E-05
DAV:   3    -0.108614077617E+03   -0.47476E-09    0.41706E-13 21312   0.361E-10    0.665E-05
DAV:   4    -0.108614077617E+03   -0.55479E-10    0.75532E-13 21312   0.161E-10    0.665E-05
DAV:   5    -0.108614077616E+03    0.35016E-09    0.64156E-13 21312   0.157E-10    0.665E-05
DAV:   6    -0.108614077616E+03   -0.33651E-10    0.38516E-13 21312   0.455E-10
  79 F= -.10861408E+03 E0= -.10861408E+03  d E =0.000000E+00
       N       E                     dE             d eps       ncg     rms          rms(c)
DAV:   1    -0.108614077616E+03   -0.95497E-10    0.33000E-13 21312   0.179E-10    0.665E-05
DAV:   2    -0.108614077616E+03   -0.65938E-10    0.68440E-13 21312   0.129E-10    0.665E-05
DAV:   3    -0.108614077616E+03    0.49340E-09    0.61930E-13 21312   0.117E-10    0.665E-05
DAV:   4    -0.108614077617E+03   -0.78762E-09    0.47269E-13 21312   0.268E-10    0.665E-05
DAV:   5    -0.108614077616E+03    0.30650E-09    0.13518E-13 21312   0.199E-10    0.665E-05
DAV:   6    -0.108614077616E+03    0.54206E-09    0.97524E-14 21312   0.141E-10
  80 F= -.10861408E+03 E0= -.10861408E+03  d E =0.000000E+00
       N       E                     dE             d eps       ncg     rms          rms(c)
DAV:   1    -0.108614077617E+03   -0.17008E-09    0.36219E-13 21312   0.220E-10    0.665E-05
DAV:   2    -0.108614077616E+03    0.10905E-08    0.14371E-13 21312   0.317E-10    0.665E-05
DAV:   3    -0.108614077616E+03   -0.73032E-09    0.60312E-13 21312   0.313E-10    0.665E-05
DAV:   4    -0.108614077616E+03    0.26375E-10    0.64844E-13 21312   0.158E-10    0.665E-05
DAV:   5    -0.108614077616E+03   -0.45475E-12    0.82303E-13 21312   0.224E-10    0.665E-05
DAV:   6    -0.108614077616E+03    0.32696E-09    0.25032E-13 21312   0.107E-10
  81 F= -.10861408E+03 E0= -.10861408E+03  d E =0.000000E+00
       N       E                     dE             d eps       ncg     rms          rms(c)
DAV:   1    -0.108614077616E+03   -0.34106E-10    0.69216E-13 21312   0.104E-10    0.665E-05
DAV:   2    -0.108614077616E+03   -0.15916E-09    0.29255E-13 21312   0.140E-10    0.665E-05
DAV:   3    -0.108614077616E+03    0.56934E-09    0.56496E-13 21312   0.171E-10    0.665E-05
DAV:   4    -0.108614077617E+03   -0.66939E-09    0.11360E-12 21312   0.197E-10    0.665E-05
DAV:   5    -0.108614077616E+03    0.53933E-09   -0.21175E-13 21312   0.254E-10    0.665E-05
DAV:   6    -0.108614077616E+03   -0.40200E-09    0.79121E-13 21312   0.271E-10
  82 F= -.10861408E+03 E0= -.10861408E+03  d E =0.000000E+00
       N       E                     dE             d eps       ncg     rms          rms(c)
DAV:   1    -0.108614077617E+03   -0.78671E-09    0.20431E-13 21312   0.112E-10    0.665E-05
DAV:   2    -0.108614077616E+03    0.40654E-09    0.13349E-13 21312   0.366E-10    0.665E-05
DAV:   3    -0.108614077616E+03    0.18281E-09    0.85863E-13 21312   0.227E-10    0.665E-05
DAV:   4    -0.108614077617E+03   -0.32651E-09    0.29866E-13 21312   0.151E-10    0.665E-05
DAV:   5    -0.108614077616E+03    0.98498E-09   -0.23554E-13 21312   0.189E-10    0.665E-05
DAV:   6    -0.108614077616E+03   -0.62346E-09    0.63218E-13 21312   0.264E-10
  83 F= -.10861408E+03 E0= -.10861408E+03  d E =0.000000E+00
       N       E                     dE             d eps       ncg     rms          rms(c)
DAV:   1    -0.108614077616E+03   -0.56116E-09    0.32564E-13 21312   0.154E-10    0.665E-05
DAV:   2    -0.108614077617E+03   -0.48658E-09    0.36386E-13 21312   0.282E-10    0.665E-05
DAV:   3    -0.108614077616E+03    0.21782E-09    0.43016E-13 21312   0.299E-10    0.665E-05
DAV:   4    -0.108614077616E+03    0.11869E-09    0.24251E-13 21312   0.996E-11    0.665E-05
DAV:   5    -0.108614077617E+03   -0.25284E-09    0.83876E-14 21312   0.113E-10    0.665E-05
DAV:   6    -0.108614077616E+03    0.50568E-09    0.40831E-13 21312   0.136E-10
  84 F= -.10861408E+03 E0= -.10861408E+03  d E =0.000000E+00
       N       E                     dE             d eps       ncg     rms          rms(c)
DAV:   1    -0.108614077616E+03    0.51932E-09    0.77870E-13 21312   0.172E-10    0.665E-05
DAV:   2    -0.108614077617E+03   -0.53205E-09    0.55805E-13 21312   0.340E-10    0.665E-05
DAV:   3    -0.108614077616E+03    0.17053E-09    0.28304E-13 21312   0.309E-10    0.665E-05
DAV:   4    -0.108614077616E+03    0.75897E-09    0.10129E-13 21312   0.227E-10    0.665E-05
DAV:   5    -0.108614077616E+03    0.30013E-10    0.10656E-13 21312   0.183E-10    0.665E-05
DAV:   6    -0.108614077616E+03   -0.35561E-09    0.26108E-13 21312   0.885E-11
  85 F= -.10861408E+03 E0= -.10861408E+03  d E =0.000000E+00
       N       E                     dE             d eps       ncg     rms          rms(c)
DAV:   1    -0.108614077617E+03   -0.10496E-08    0.57365E-13 21312   0.124E-10    0.665E-05
DAV:   2    -0.108614077617E+03   -0.15916E-09    0.19617E-13 21312   0.433E-10    0.665E-05
DAV:   3    -0.108614077616E+03    0.44747E-09    0.41397E-13 21312   0.295E-10    0.665E-05
DAV:   4    -0.108614077616E+03    0.90495E-10    0.91810E-13 21312   0.366E-10    0.665E-05
DAV:   5    -0.108614077616E+03    0.13597E-09    0.12160E-15 21312   0.164E-10    0.665E-05
DAV:   6    -0.108614077616E+03    0.52205E-09    0.50284E-13 21312   0.157E-10
  86 F= -.10861408E+03 E0= -.10861408E+03  d E =0.000000E+00
       N       E                     dE             d eps       ncg     rms          rms(c)
DAV:   1    -0.108614077616E+03   -0.37198E-09   -0.14933E-13 21312   0.215E-10    0.665E-05
DAV:   2    -0.108614077616E+03    0.39927E-09   -0.73405E-14 21312   0.262E-10    0.665E-05
DAV:   3    -0.108614077616E+03    0.70941E-10    0.44134E-13 21312   0.167E-10    0.665E-05
DAV:   4    -0.108614077617E+03   -0.55797E-09    0.97411E-13 21312   0.121E-10    0.665E-05
DAV:   5    -0.108614077616E+03    0.47794E-09    0.11073E-13 21312   0.150E-10    0.665E-05
DAV:   6    -0.108614077616E+03    0.17008E-09    0.49285E-13 21312   0.147E-10
  87 F= -.10861408E+03 E0= -.10861408E+03  d E =0.000000E+00
       N       E                     dE             d eps       ncg     rms          rms(c)
DAV:   1    -0.108614077616E+03    0.54115E-09    0.35057E-13 21312   0.110E-10    0.665E-05
DAV:   2    -0.108614077616E+03   -0.33106E-09    0.31051E-13 21312   0.603E-10    0.665E-05
DAV:   3    -0.108614077616E+03   -0.23192E-09    0.14400E-13 21312   0.329E-10    0.665E-05
DAV:   4    -0.108614077616E+03    0.57298E-10    0.39772E-13 21312   0.227E-10    0.665E-05
DAV:   5    -0.108614077616E+03   -0.27740E-09    0.45039E-13 21312   0.154E-10    0.665E-05
DAV:   6    -0.108614077616E+03    0.16735E-09    0.16520E-14 21312   0.130E-10
  88 F= -.10861408E+03 E0= -.10861408E+03  d E =0.000000E+00
       N       E                     dE             d eps       ncg     rms          rms(c)
DAV:   1    -0.108614077617E+03   -0.41018E-09   -0.17461E-13 21312   0.175E-10    0.665E-05
DAV:   2    -0.108614077616E+03    0.57571E-09    0.55383E-13 21312   0.482E-10    0.665E-05
DAV:   3    -0.108614077616E+03    0.36925E-09    0.82371E-13 21312   0.326E-10    0.665E-05
DAV:   4    -0.108614077616E+03    0.77307E-10    0.55564E-13 21312   0.234E-10    0.665E-05
DAV:   5    -0.108614077617E+03   -0.96861E-09    0.26413E-13 21312   0.107E-10    0.665E-05
DAV:   6    -0.108614077616E+03    0.38290E-09   -0.72361E-14 21312   0.281E-10
  89 F= -.10861408E+03 E0= -.10861408E+03  d E =0.000000E+00
       N       E                     dE             d eps       ncg     rms          rms(c)
DAV:   1    -0.108614077616E+03    0.65847E-09    0.12041E-13 21312   0.303E-10    0.665E-05
DAV:   2    -0.108614077617E+03   -0.78398E-09   -0.20968E-13 21312   0.238E-10    0.665E-05
DAV:   3    -0.108614077617E+03    0.29740E-09    0.37168E-13 21312   0.288E-10    0.665E-05
DAV:   4    -0.108614077616E+03    0.69031E-09   -0.24749E-13 21312   0.164E-10    0.665E-05
DAV:   5    -0.108614077616E+03   -0.26648E-09    0.56609E-13 21312   0.133E-10    0.665E-05
DAV:   6    -0.108614077616E+03   -0.19827E-09    0.14235E-13 21312   0.157E-10
  90 F= -.10861408E+03 E0= -.10861408E+03  d E =0.000000E+00
       N       E                     dE             d eps       ncg     rms          rms(c)
DAV:   1    -0.108614077617E+03   -0.58481E-09    0.77962E-13 21312   0.161E-10    0.665E-05
DAV:   2    -0.108614077617E+03   -0.86402E-11    0.52096E-13 21312   0.463E-10    0.665E-05
DAV:   3    -0.108614077616E+03    0.73715E-09    0.48596E-13 21312   0.252E-10    0.665E-05
DAV:   4    -0.108614077616E+03   -0.41655E-09    0.58013E-13 21312   0.359E-10    0.665E-05
DAV:   5    -0.108614077616E+03    0.30923E-09    0.22554E-13 21312   0.192E-10    0.665E-05
DAV:   6    -0.108614077616E+03    0.63665E-11    0.56474E-13 21312   0.111E-10
  91 F= -.10861408E+03 E0= -.10861408E+03  d E =0.000000E+00
       N       E                     dE             d eps       ncg     rms          rms(c)
DAV:   1    -0.108614077616E+03   -0.42655E-09    0.85813E-13 21312   0.108E-10    0.665E-05
DAV:   2    -0.108614077617E+03   -0.45475E-10    0.38613E-13 21312   0.231E-10    0.665E-05
DAV:   3    -0.108614077616E+03    0.10059E-08    0.50457E-13 21312   0.148E-10    0.665E-05
DAV:   4    -0.108614077616E+03   -0.50295E-09    0.47208E-14 21312   0.197E-10    0.665E-05
DAV:   5    -0.108614077616E+03    0.11732E-09    0.11545E-12 21312   0.141E-10    0.665E-05
DAV:   6    -0.108614077617E+03   -0.86038E-09    0.90804E-13 21312   0.145E-10
  92 F= -.10861408E+03 E0= -.10861408E+03  d E =0.000000E+00
       N       E                     dE             d eps       ncg     rms          rms(c)
DAV:   1    -0.108614077617E+03   -0.92359E-09    0.97152E-13 21312   0.313E-10    0.665E-05
DAV:   2    -0.108614077617E+03    0.31196E-09    0.41504E-13 21312   0.540E-10    0.665E-05
DAV:   3    -0.108614077616E+03    0.32514E-09   -0.90939E-14 21312   0.176E-10    0.665E-05
DAV:   4    -0.108614077616E+03   -0.25284E-09    0.38257E-14 21312   0.175E-10    0.665E-05
DAV:   5    -0.108614077616E+03    0.27285E-11    0.74853E-14 21312   0.142E-10    0.665E-05
DAV:   6    -0.108614077616E+03    0.40336E-09    0.30309E-13 21312   0.103E-10
  93 F= -.10861408E+03 E0= -.10861408E+03  d E =0.000000E+00
       N       E                     dE             d eps       ncg     rms          rms(c)
DAV:   1    -0.108614077616E+03    0.40063E-09    0.21190E-14 21312   0.962E-11    0.665E-05
DAV:   2    -0.108614077617E+03   -0.71168E-09    0.54617E-14 21312   0.418E-10    0.665E-05
DAV:   3    -0.108614077616E+03    0.77853E-09    0.42720E-13 21312   0.373E-10    0.665E-05
DAV:   4    -0.108614077616E+03   -0.50750E-09    0.11765E-12 21312   0.317E-10    0.665E-05
DAV:   5    -0.108614077616E+03    0.11823E-09    0.72554E-13 21312   0.260E-10    0.665E-05
DAV:   6    -0.108614077616E+03   -0.10004E-10    0.15735E-13 21312   0.104E-10
  94 F= -.10861408E+03 E0= -.10861408E+03  d E =0.000000E+00
       N       E                     dE             d eps       ncg     rms          rms(c)
DAV:   1    -0.108614077616E+03   -0.56843E-10    0.49848E-13 21312   0.138E-10    0.665E-05
DAV:   2    -0.108614077617E+03   -0.18508E-09    0.11929E-12 21312   0.124E-10    0.665E-05
DAV:   3    -0.108614077616E+03    0.69213E-09    0.64132E-13 21312   0.136E-10    0.665E-05
DAV:   4    -0.108614077616E+03   -0.14370E-09    0.79695E-13 21312   0.159E-10    0.665E-05
DAV:   5    -0.108614077616E+03   -0.14597E-09    0.34691E-13 21312   0.249E-10    0.665E-05
DAV:   6    -0.108614077616E+03   -0.19099E-10   -0.22210E-13 21312   0.208E-10
  95 F= -.10861408E+03 E0= -.10861408E+03  d E =0.000000E+00
       N       E                     dE             d eps       ncg     rms          rms(c)
DAV:   1    -0.108614077616E+03    0.68212E-10    0.28665E-13 21312   0.912E-11    0.665E-05
DAV:   2    -0.108614077616E+03    0.38517E-09    0.55196E-13 21312   0.223E-10    0.665E-05
DAV:   3    -0.108614077616E+03    0.92768E-10    0.16559E-13 21312   0.476E-10    0.665E-05
DAV:   4    -0.108614077616E+03   -0.56480E-09    0.14229E-13 21312   0.512E-10    0.665E-05
DAV:   5    -0.108614077616E+03   -0.10823E-09    0.76103E-13 21312   0.285E-10    0.665E-05
DAV:   6    -0.108614077616E+03    0.10368E-09    0.26739E-13 21312   0.131E-10
  96 F= -.10861408E+03 E0= -.10861408E+03  d E =0.000000E+00
       N       E                     dE             d eps       ncg     rms          rms(c)
DAV:   1    -0.108614077616E+03    0.54570E-09   -0.14894E-14 21312   0.108E-10    0.665E-05
DAV:   2    -0.108614077616E+03    0.25921E-09    0.39604E-13 21312   0.419E-10    0.665E-05
DAV:   3    -0.108614077616E+03   -0.24647E-09    0.36338E-13 21312   0.470E-10    0.665E-05
DAV:   4    -0.108614077616E+03   -0.53024E-09    0.82289E-14 21312   0.394E-10    0.665E-05
DAV:   5    -0.108614077616E+03    0.17826E-09    0.57178E-13 21312   0.470E-10    0.665E-05
DAV:   6    -0.108614077616E+03    0.40018E-10    0.36610E-13 21312   0.306E-10
  97 F= -.10861408E+03 E0= -.10861408E+03  d E =0.000000E+00
       N       E                     dE             d eps       ncg     rms          rms(c)
DAV:   1    -0.108614077616E+03    0.80036E-10    0.14188E-13 21312   0.196E-10    0.665E-05
DAV:   2    -0.108614077616E+03   -0.17553E-09    0.66690E-14 21312   0.250E-10    0.665E-05
DAV:   3    -0.108614077616E+03    0.67757E-10    0.43138E-13 21312   0.137E-10    0.665E-05
DAV:   4    -0.108614077617E+03   -0.48431E-09    0.44607E-13 21312   0.289E-10    0.665E-05
DAV:   5    -0.108614077616E+03    0.62892E-09    0.17672E-13 21312   0.213E-10    0.665E-05
DAV:   6    -0.108614077616E+03   -0.38790E-09   -0.18220E-13 21312   0.230E-10
  98 F= -.10861408E+03 E0= -.10861408E+03  d E =0.000000E+00
       N       E                     dE             d eps       ncg     rms          rms(c)
DAV:   1    -0.108614077616E+03   -0.47248E-09   -0.31423E-13 21312   0.191E-10    0.665E-05
DAV:   2    -0.108614077616E+03    0.27921E-09    0.65682E-13 21312   0.278E-10    0.665E-05
DAV:   3    -0.108614077616E+03   -0.26967E-09    0.16547E-13 21312   0.237E-10    0.665E-05
DAV:   4    -0.108614077616E+03    0.48658E-09    0.45363E-13 21312   0.109E-10    0.665E-05
DAV:   5    -0.108614077616E+03   -0.44975E-09    0.96544E-13 21312   0.272E-10    0.665E-05
DAV:   6    -0.108614077616E+03    0.81309E-09   -0.90690E-15 21312   0.215E-10
  99 F= -.10861408E+03 E0= -.10861408E+03  d E =0.000000E+00
       N       E                     dE             d eps       ncg     rms          rms(c)
DAV:   1    -0.108614077616E+03    0.81855E-10    0.12035E-12 21312   0.342E-10    0.665E-05
DAV:   2    -0.108614077616E+03    0.37653E-09    0.11423E-13 21312   0.367E-10    0.665E-05
DAV:   3    -0.108614077616E+03    0.17189E-09    0.58238E-13 21312   0.236E-10    0.665E-05
DAV:   4    -0.108614077616E+03   -0.51159E-09    0.54530E-13 21312   0.145E-10    0.665E-05
DAV:   5    -0.108614077616E+03    0.39563E-10    0.45094E-13 21312   0.270E-10    0.665E-05
DAV:   6    -0.108614077616E+03    0.18645E-09    0.71161E-13 21312   0.182E-10
 100 F= -.10861408E+03 E0= -.10861408E+03  d E =0.000000E+00
