       N       E                     dE             d eps       ncg     rms          rms(c)
DAV:   1     0.905297023410E+02    0.90530E+02   -0.20431E+04 38784   0.112E+03
DAV:   2    -0.106209307799E+03   -0.19674E+03   -0.19567E+03 53536   0.208E+02
DAV:   3    -0.111648454497E+03   -0.54391E+01   -0.54088E+01 55984   0.399E+01
DAV:   4    -0.111699456960E+03   -0.51002E-01   -0.50982E-01 54864   0.380E+00
DAV:   5    -0.111700550984E+03   -0.10940E-02   -0.10939E-02 56640   0.514E-01    0.118E+01
DAV:   6    -0.108333925590E+03    0.33666E+01   -0.65455E+00 55120   0.105E+01    0.653E+00
DAV:   7    -0.107575477772E+03    0.75845E+00   -0.17514E+00 52192   0.607E+00    0.273E+00
DAV:   8    -0.107513838927E+03    0.61639E-01   -0.28228E-01 57680   0.256E+00    0.819E-01
DAV:   9    -0.107515436866E+03   -0.15979E-02   -0.23046E-02 54048   0.778E-01    0.222E-01
DAV:  10    -0.107516478543E+03   -0.10417E-02   -0.33882E-03 56656   0.307E-01    0.677E-02
DAV:  11    -0.107516690697E+03   -0.21215E-03   -0.47239E-04 55568   0.120E-01    0.247E-02
DAV:  12    -0.107516732713E+03   -0.42016E-04   -0.65044E-05 56512   0.454E-02    0.112E-02
DAV:  13    -0.107516740186E+03   -0.74734E-05   -0.11587E-05 55760   0.193E-02    0.493E-03
DAV:  14    -0.107516741440E+03   -0.12538E-05   -0.20405E-06 57104   0.826E-03    0.129E-03
DAV:  15    -0.107516741566E+03   -0.12548E-06   -0.28086E-07 56608   0.294E-03    0.507E-04
DAV:  16    -0.107516741613E+03   -0.47397E-07   -0.38556E-08 57072   0.105E-03    0.196E-04
DAV:  17    -0.107516741618E+03   -0.45216E-08   -0.41719E-09 39264   0.358E-04
   1 F= -.10751674E+03 E0= -.10751674E+03  d E =0.000000E+00
       N       E                     dE             d eps       ncg     rms          rms(c)
DAV:   1    -0.107516741622E+03   -0.85320E-08   -0.77681E-10 34992   0.152E-04    0.646E-05
DAV:   2    -0.107516741623E+03   -0.11864E-08   -0.10636E-10 32320   0.600E-05    0.604E-05
DAV:   3    -0.107516741623E+03   -0.44747E-09   -0.24467E-11 30224   0.299E-05    0.582E-05
DAV:   4    -0.107516741623E+03    0.19691E-09   -0.49728E-12 28304   0.133E-05    0.579E-05
DAV:   5    -0.107516741624E+03   -0.44292E-09   -0.95806E-13 26960   0.663E-06    0.579E-05
DAV:   6    -0.107516741624E+03   -0.28922E-09    0.33540E-13 26176   0.282E-06
   2 F= -.10751674E+03 E0= -.10751674E+03  d E =0.000000E+00
       N       E                     dE             d eps       ncg     rms          rms(c)
DAV:   1    -0.107516741623E+03    0.13506E-09   -0.11598E-13 25168   0.129E-06    0.579E-05
DAV:   2    -0.107516741623E+03    0.27740E-10    0.57620E-13 24048   0.600E-07    0.579E-05
DAV:   3    -0.107516741624E+03   -0.23920E-09    0.61106E-13 23152   0.329E-07    0.579E-05
DAV:   4    -0.107516741624E+03   -0.79581E-10   -0.77558E-13 22704   0.182E-07    0.579E-05
DAV:   5    -0.107516741624E+03    0.16280E-09    0.35453E-13 22400   0.104E-07    0.579E-05
DAV:   6    -0.107516741624E+03   -0.12142E-09    0.10659E-13 21904   0.585E-08
   3 F= -.10751674E+03 E0= -.10751674E+03  d E =0.000000E+00
       N       E                     dE             d eps       ncg     rms          rms(c)
DAV:   1    -0.107516741624E+03   -0.44338E-09    0.30295E-13 21440   0.345E-08    0.579E-05
DAV:   2    -0.107516741623E+03    0.92177E-09   -0.57599E-13 21296   0.204E-08    0.579E-05
DAV:   3    -0.107516741624E+03   -0.94496E-09   -0.66216E-13 21040   0.124E-08    0.579E-05
DAV:   4    -0.107516741623E+03    0.52114E-09   -0.21243E-15 20832   0.756E-09    0.579E-05
DAV:   5    -0.107516741623E+03    0.67757E-10   -0.62725E-13 20800   0.487E-09    0.579E-05
DAV:   6    -0.107516741624E+03   -0.39790E-09   -0.84846E-15 20640   0.321E-09
   4 F= -.10751674E+03 E0= -.10751674E+03  d E =0.000000E+00
       N       E                     dE             d eps       ncg     rms          rms(c)
DAV:   1    -0.107516741624E+03   -0.65120E-09    0.60113E-13 20496   0.229E-09    0.579E-05
DAV:   2    -0.107516741623E+03    0.78126E-09    0.81295E-15 20336   0.324E-09    0.579E-05
DAV:   3    -0.107516741624E+03   -0.58481E-09   -0.65446E-13 20112   0.195E-09    0.579E-05
DAV:   4    -0.107516741623E+03    0.60618E-09    0.23130E-13 20064   0.125E-09    0.579E-05
DAV:   5    -0.107516741624E+03   -0.86675E-09   -0.52102E-13 20016   0.792E-10    0.579E-05
DAV:   6    -0.107516741623E+03    0.68303E-09   -0.40472E-13 19968   0.605E-10
   5 F= -.10751674E+03 E0= -.10751674E+03  d E =0.000000E+00
       N       E                     dE             d eps       ncg     rms          rms(c)
DAV:   1    -0.107516741623E+03    0.64438E-09    0.21402E-13 19920   0.360E-10    0.579E-05
DAV:   2    -0.107516741623E+03    0.44611E-09    0.41842E-13 19824   0.230E-10    0.579E-05
DAV:   3    -0.107516741624E+03   -0.67075E-09   -0.26652E-13 19776   0.248E-10    0.579E-05
DAV:   4    -0.107516741624E+03    0.12869E-09    0.64138E-13 19776   0.256E-10    0.579E-05
DAV:   5    -0.107516741624E+03    0.28649E-10   -0.11594E-13 19776   0.156E-10    0.579E-05
DAV:   6    -0.107516741624E+03   -0.27239E-09    0.20708E-13 19776   0.268E-10
   6 F= -.10751674E+03 E0= -.10751674E+03  d E =0.000000E+00
       N       E                     dE             d eps       ncg     rms          rms(c)
DAV:   1    -0.107516741624E+03   -0.70031E-10    0.74520E-14 19744   0.115E-10    0.579E-05
DAV:   2    -0.107516741623E+03    0.60254E-09    0.44506E-13 19728   0.211E-10    0.579E-05
DAV:   3    -0.107516741624E+03   -0.68940E-09    0.18528E-13 19632   0.204E-10    0.579E-05
DAV:   4    -0.107516741623E+03    0.43747E-09   -0.25523E-13 19584   0.197E-10    0.579E-05
DAV:   5    -0.107516741623E+03   -0.15734E-09    0.30554E-13 19584   0.132E-10    0.579E-05
DAV:   6    -0.107516741624E+03   -0.46566E-09    0.43863E-13 19584   0.170E-10
   7 F= -.10751674E+03 E0= -.10751674E+03  d E =0.000000E+00
       N       E                     dE             d eps       ncg     rms          rms(c)
DAV:   1    -0.107516741623E+03   -0.82764E-10   -0.58956E-13 19584   0.256E-10    0.579E-05
DAV:   2    -0.107516741623E+03   -0.81855E-11    0.32088E-13 19584   0.111E-10    0.579E-05
DAV:   3    -0.107516741623E+03    0.46384E-10    0.45536E-13 19584   0.200E-10    0.579E-05
DAV:   4    -0.107516741624E+03   -0.25057E-09    0.22446E-13 19584   0.189E-10    0.579E-05
DAV:   5    -0.107516741623E+03    0.33151E-09   -0.73818E-14 19584   0.157E-10    0.579E-05
DAV:   6    -0.107516741624E+03   -0.32924E-09    0.31372E-13 19584   0.148E-10
   8 F= -.10751674E+03 E0= -.10751674E+03  d E =0.000000E+00
       N       E                     dE             d eps       ncg     rms          rms(c)
DAV:   1    -0.107516741624E+03   -0.68303E-09   -0.97447E-15 19552   0.327E-10    0.579E-05
DAV:   2    -0.107516741624E+03    0.18781E-09    0.47498E-13 19536   0.517E-10    0.579E-05
DAV:   3    -0.107516741623E+03    0.53433E-09    0.70393E-13 19536   0.301E-10    0.579E-05
DAV:   4    -0.107516741623E+03   -0.15370E-09    0.13966E-13 19536   0.386E-10    0.579E-05
DAV:   5    -0.107516741624E+03   -0.63255E-09   -0.11980E-13 19536   0.203E-10    0.579E-05
DAV:   6    -0.107516741623E+03    0.67621E-09    0.14409E-13 19536   0.290E-10
   9 F= -.10751674E+03 E0= -.10751674E+03  d E =0.000000E+00
       N       E                     dE             d eps       ncg     rms          rms(c)
DAV:   1    -0.107516741624E+03    0.49658E-09    0.46931E-13 19536   0.190E-10    0.579E-05
DAV:   2    -0.107516741624E+03    0.47294E-10    0.44123E-13 19536   0.150E-10    0.579E-05
DAV:   3    -0.107516741624E+03    0.47294E-10    0.55379E-13 19504   0.895E-11    0.579E-05
DAV:   4    -0.107516741624E+03   -0.90040E-10    0.60987E-14 19488   0.593E-11    0.579E-05
DAV:   5    -0.107516741624E+03    0.68667E-10    0.19123E-13 19488   0.165E-10    0.579E-05
DAV:   6    -0.107516741624E+03   -0.64574E-10   -0.18886E-13 19488   0.239E-10
  10 F= -.10751674E+03 E0= -.10751674E+03  d E =0.000000E+00
       N       E                     dE             d eps       ncg     rms          rms(c)
DAV:   1    -0.107516741623E+03    0.52205E-09    0.67331E-13 19488   0.160E-10    0.579E-05
DAV:   2    -0.107516741624E+03   -0.89130E-09    0.61086E-13 19488   0.525E-10    0.579E-05
DAV:   3    -0.107516741623E+03    0.76352E-09    0.42780E-14 19488   0.379E-10    0.579E-05
DAV:   4    -0.107516741624E+03   -0.55570E-09   -0.17467E-14 19488   0.189E-10    0.579E-05
DAV:   5    -0.107516741624E+03   -0.23920E-09    0.11181E-13 19488   0.255E-10    0.579E-05
DAV:   6    -0.107516741623E+03    0.80126E-09    0.17643E-13 19488   0.125E-10
  11 F= -.10751674E+03 E0= -.10751674E+03  d E =0.000000E+00
       N       E                     dE             d eps       ncg     rms          rms(c)
DAV:   1    -0.107516741624E+03    0.15871E-09   -0.35188E-13 19488   0.168E-10    0.579E-05
DAV:   2    -0.107516741623E+03    0.46612E-09   -0.12991E-13 19488   0.337E-10    0.579E-05
DAV:   3    -0.107516741624E+03   -0.42883E-09    0.92919E-14 19488   0.226E-10    0.579E-05
DAV:   4    -0.107516741624E+03    0.24238E-09    0.57743E-14 19488   0.218E-10    0.579E-05
DAV:   5    -0.107516741624E+03   -0.21873E-09    0.11833E-13 19456   0.117E-10    0.579E-05
DAV:   6    -0.107516741623E+03    0.23510E-09   -0.62079E-14 19440   0.106E-10
  12 F= -.10751674E+03 E0= -.10751674E+03  d E =0.000000E+00
       N       E                     dE             d eps       ncg     rms          rms(c)
DAV:   1    -0.107516741624E+03    0.63665E-11   -0.27493E-13 19440   0.120E-10    0.579E-05
DAV:   2    -0.107516741623E+03    0.46111E-09    0.14022E-13 19440   0.156E-10    0.579E-05
DAV:   3    -0.107516741624E+03   -0.41155E-09    0.29802E-13 19440   0.153E-10    0.579E-05
DAV:   4    -0.107516741624E+03    0.41837E-10    0.23412E-13 19440   0.102E-10    0.579E-05
DAV:   5    -0.107516741623E+03    0.44065E-09    0.67510E-13 19440   0.901E-11    0.579E-05
DAV:   6    -0.107516741624E+03   -0.61618E-09   -0.43473E-13 19440   0.101E-10
  13 F= -.10751674E+03 E0= -.10751674E+03  d E =0.000000E+00
       N       E                     dE             d eps       ncg     rms          rms(c)
DAV:   1    -0.107516741624E+03   -0.53933E-09    0.21040E-13 19408   0.215E-10    0.579E-05
DAV:   2    -0.107516741624E+03    0.19691E-09   -0.65270E-14 19392   0.136E-10    0.579E-05
DAV:   3    -0.107516741623E+03    0.95042E-10    0.47059E-14 19392   0.208E-10    0.579E-05
DAV:   4    -0.107516741624E+03   -0.31287E-09   -0.74075E-13 19392   0.132E-10    0.579E-05
DAV:   5    -0.107516741623E+03    0.51341E-09    0.16328E-13 19392   0.147E-10    0.579E-05
DAV:   6    -0.107516741623E+03    0.27376E-09   -0.53568E-13 19392   0.221E-10
  14 F= -.10751674E+03 E0= -.10751674E+03  d E =0.000000E+00
       N       E                     dE             d eps       ncg     rms          rms(c)
DAV:   1    -0.107516741623E+03   -0.12278E-09    0.12806E-13 19392   0.180E-10    0.579E-05
DAV:   2    -0.107516741624E+03   -0.59936E-09   -0.63590E-14 19392   0.228E-10    0.579E-05
DAV:   3    -0.107516741624E+03    0.44702E-09   -0.86247E-13 19392   0.241E-10    0.579E-05
DAV:   4    -0.107516741624E+03   -0.36607E-09   -0.23935E-13 19392   0.174E-10    0.579E-05
DAV:   5    -0.107516741623E+03    0.48658E-09    0.22013E-13 19392   0.190E-10    0.579E-05
DAV:   6    -0.107516741624E+03   -0.21510E-09    0.63593E-13 19392   0.207E-10
  15 F= -.10751674E+03 E0= -.10751674E+03  d E =0.000000E+00
       N       E                     dE             d eps       ncg     rms          rms(c)
DAV:   1    -0.107516741624E+03   -0.47385E-09    0.27097E-14 19392   0.205E-10    0.579E-05
DAV:   2    -0.107516741623E+03    0.48612E-09    0.21294E-13 19392   0.249E-10    0.579E-05
DAV:   3    -0.107516741624E+03   -0.29286E-09    0.28267E-13 19392   0.251E-10    0.579E-05
DAV:   4    -0.107516741624E+03   -0.18190E-09   -0.43782E-13 19392   0.192E-10    0.579E-05
DAV:   5    -0.107516741624E+03    0.46839E-10   -0.99390E-14 19392   0.201E-10    0.579E-05
DAV:   6    -0.107516741623E+03    0.64347E-09    0.77226E-14 19392   0.979E-11
  16 F= -.10751674E+03 E0= -.10751674E+03  d E =0.000000E+00
       N       E                     dE             d eps       ncg     rms          rms(c)
DAV:   1    -0.107516741624E+03   -0.23329E-09    0.55918E-14 19392   0.170E-10    0.579E-05
DAV:   2    -0.107516741623E+03    0.76398E-09   -0.12063E-13 19392   0.487E-10    0.579E-05
DAV:   3    -0.107516741624E+03   -0.47567E-09    0.44438E-13 19392   0.380E-10    0.579E-05
DAV:   4    -0.107516741624E+03    0.17280E-09   -0.12195E-13 19392   0.139E-10    0.579E-05
DAV:   5    -0.107516741624E+03   -0.44110E-09   -0.45664E-13 19392   0.210E-10    0.579E-05
DAV:   6    -0.107516741624E+03    0.37335E-09    0.24939E-13 19392   0.353E-10
  17 F= -.10751674E+03 E0= -.10751674E+03  d E =0.000000E+00
       N       E                     dE             d eps       ncg     rms          rms(c)
DAV:   1    -0.107516741624E+03    0.40745E-09    0.85530E-13 19392   0.150E-10    0.579E-05
DAV:   2    -0.107516741624E+03   -0.50932E-10    0.37484E-13 19392   0.110E-10    0.579E-05
DAV:   3    -0.107516741624E+03    0.50477E-10   -0.11890E-13 19392   0.169E-10    0.579E-05
DAV:   4    -0.107516741624E+03   -0.12733E-10   -0.15395E-13 19392   0.842E-11    0.579E-05
DAV:   5    -0.107516741624E+03    0.19554E-10    0.47126E-13 19392   0.119E-10    0.579E-05
DAV:   6    -0.107516741623E+03    0.44065E-09   -0.42246E-13 19392   0.117E-10
  18 F= -.10751674E+03 E0= -.10751674E+03  d E =0.000000E+00
       N       E                     dE             d eps       ncg     rms          rms(c)
DAV:   1    -0.107516741624E+03   -0.22737E-11   -0.11933E-13 19392   0.193E-10    0.579E-05
DAV:   2    -0.107516741623E+03    0.22283E-09   -0.58556E-13 19392   0.146E-10    0.579E-05
DAV:   3    -0.107516741624E+03   -0.19600E-09   -0.35291E-13 19392   0.192E-10    0.579E-05
DAV:   4    -0.107516741624E+03   -0.63665E-11   -0.15874E-13 19392   0.206E-10    0.579E-05
DAV:   5    -0.107516741624E+03   -0.15734E-09   -0.25433E-13 19392   0.133E-10    0.579E-05
DAV:   6    -0.107516741623E+03    0.54024E-09   -0.50517E-13 19392   0.139E-10
  19 F= -.10751674E+03 E0= -.10751674E+03  d E =0.000000E+00
       N       E                     dE             d eps       ncg     rms          rms(c)
DAV:   1    -0.107516741623E+03    0.42519E-09   -0.74409E-14 19392   0.154E-10    0.579E-05
DAV:   2    -0.107516741624E+03   -0.66348E-09   -0.30950E-14 19392   0.250E-10    0.579E-05
DAV:   3    -0.107516741624E+03   -0.14006E-09    0.11621E-14 19392   0.230E-10    0.579E-05
DAV:   4    -0.107516741624E+03    0.36744E-09    0.11331E-13 19392   0.223E-10    0.579E-05
DAV:   5    -0.107516741623E+03    0.28058E-09    0.48373E-15 19392   0.173E-10    0.579E-05
DAV:   6    -0.107516741624E+03   -0.86857E-10   -0.83856E-14 19392   0.190E-10
  20 F= -.10751674E+03 E0= -.10751674E+03  d E =0.000000E+00
       N       E                     dE             d eps       ncg     rms          rms(c)
DAV:   1    -0.107516741624E+03   -0.68349E-09    0.23621E-13 19392   0.999E-11    0.579E-05
DAV:   2    -0.107516741623E+03    0.76534E-09    0.24303E-13 19392   0.428E-10    0.579E-05
DAV:   3    -0.107516741624E+03   -0.36471E-09    0.78194E-14 19392   0.334E-10    0.579E-05
DAV:   4    -0.107516741623E+03    0.59890E-09   -0.58236E-14 19392   0.139E-10    0.579E-05
DAV:   5    -0.107516741624E+03   -0.65393E-09    0.19360E-13 19392   0.241E-10    0.579E-05
DAV:   6    -0.107516741623E+03    0.72578E-09    0.25780E-13 19392   0.190E-10
  21 F= -.10751674E+03 E0= -.10751674E+03  d E =0.000000E+00
       N       E                     dE             d eps       ncg     rms          rms(c)
DAV:   1    -0.107516741623E+03    0.39063E-09    0.28960E-13 19392   0.151E-10    0.579E-05
DAV:   2    -0.107516741624E+03   -0.41382E-09   -0.69568E-13 19392   0.271E-10    0.579E-05
DAV:   3    -0.107516741623E+03    0.49522E-09   -0.21610E-13 19392   0.242E-10    0.579E-05
DAV:   4    -0.107516741623E+03   -0.12733E-09   -0.30969E-13 19392   0.238E-10    0.579E-05
DAV:   5    -0.107516741623E+03    0.33469E-09    0.19350E-13 19392   0.217E-10    0.579E-05
DAV:   6    -0.107516741623E+03    0.14552E-10    0.72351E-15 19392   0.110E-10
  22 F= -.10751674E+03 E0= -.10751674E+03  d E =0.000000E+00
       N       E                     dE             d eps       ncg     rms          rms(c)
DAV:   1    -0.107516741624E+03   -0.56298E-09   -0.20173E-13 19392   0.124E-10    0.579E-05
DAV:   2    -0.107516741624E+03    0.73214E-10   -0.26515E-13 19392   0.205E-10    0.579E-05
DAV:   3    -0.107516741623E+03    0.17963E-09    0.42680E-13 19392   0.132E-10    0.579E-05
DAV:   4    -0.107516741624E+03   -0.15007E-09   -0.89317E-14 19392   0.147E-10    0.579E-05
DAV:   5    -0.107516741624E+03   -0.47703E-09    0.21748E-13 19392   0.736E-11    0.579E-05
DAV:   6    -0.107516741623E+03    0.63892E-09    0.50010E-13 19392   0.121E-10
  23 F= -.10751674E+03 E0= -.10751674E+03  d E =0.000000E+00
       N       E                     dE             d eps       ncg     rms          rms(c)
DAV:   1    -0.107516741624E+03    0.10778E-09   -0.76651E-14 19392   0.151E-10    0.579E-05
DAV:   2    -0.107516741623E+03    0.70349E-09   -0.10254E-13 19392   0.313E-10    0.579E-05
DAV:   3    -0.107516741624E+03   -0.35789E-09    0.14766E-13 19392   0.263E-10    0.579E-05
DAV:   4    -0.107516741623E+03    0.39836E-09   -0.17530E-13 19392   0.273E-10    0.579E-05
DAV:   5    -0.107516741623E+03   -0.26785E-09   -0.20691E-13 19392   0.158E-10    0.579E-05
DAV:   6    -0.107516741624E+03   -0.31605E-09   -0.17342E-13 19392   0.336E-10
  24 F= -.10751674E+03 E0= -.10751674E+03  d E =0.000000E+00
       N       E                     dE             d eps       ncg     rms          rms(c)
DAV:   1    -0.107516741624E+03   -0.23192E-10   -0.10649E-12 19392   0.234E-10    0.579E-05
DAV:   2    -0.107516741624E+03   -0.45475E-10    0.10565E-13 19392   0.152E-10    0.579E-05
DAV:   3    -0.107516741624E+03   -0.58117E-09    0.38631E-14 19392   0.114E-10    0.579E-05
DAV:   4    -0.107516741623E+03    0.69303E-09    0.82747E-14 19392   0.198E-10    0.579E-05
DAV:   5    -0.107516741623E+03    0.26375E-10   -0.23407E-13 19392   0.168E-10    0.579E-05
DAV:   6    -0.107516741623E+03    0.21100E-09   -0.58720E-13 19392   0.633E-11
  25 F= -.10751674E+03 E0= -.10751674E+03  d E =0.000000E+00
       N       E                     dE             d eps       ncg     rms          rms(c)
DAV:   1    -0.107516741624E+03   -0.71577E-09    0.78180E-14 19392   0.141E-10    0.579E-05
DAV:   2    -0.107516741624E+03    0.31150E-09   -0.30953E-13 19392   0.651E-10    0.579E-05
DAV:   3    -0.107516741623E+03    0.52296E-09    0.30641E-13 19392   0.476E-10    0.579E-05
DAV:   4    -0.107516741624E+03   -0.51523E-09    0.22480E-13 19392   0.185E-10    0.579E-05
DAV:   5    -0.107516741624E+03    0.19827E-09   -0.13604E-13 19392   0.132E-10    0.579E-05
DAV:   6    -0.107516741624E+03   -0.42610E-09    0.36109E-13 19392   0.170E-10
  26 F= -.10751674E+03 E0= -.10751674E+03  d E =0.000000E+00
       N       E                     dE             d eps       ncg     rms          rms(c)
DAV:   1    -0.107516741623E+03    0.43383E-09    0.26352E-13 19392   0.331E-10    0.579E-05
DAV:   2    -0.107516741624E+03   -0.81582E-09    0.53664E-13 19392   0.720E-10    0.579E-05
DAV:   3    -0.107516741624E+03    0.29559E-09   -0.26788E-13 19392   0.407E-10    0.579E-05
DAV:   4    -0.107516741623E+03    0.37380E-09   -0.56791E-13 19392   0.181E-10    0.579E-05
DAV:   5    -0.107516741623E+03    0.18645E-10   -0.49626E-14 19392   0.185E-10    0.579E-05
DAV:   6    -0.107516741623E+03   -0.75943E-10    0.45639E-13 19392   0.155E-10
  27 F= -.10751674E+03 E0= -.10751674E+03  d E =0.000000E+00
       N       E                     dE             d eps       ncg     rms          rms(c)
DAV:   1    -0.107516741624E+03   -0.30786E-09   -0.46789E-15 19392   0.929E-11    0.579E-05
DAV:   2    -0.107516741623E+03    0.12005E-09    0.23271E-13 19392   0.266E-10    0.579E-05
DAV:   3    -0.107516741623E+03    0.53205E-09   -0.29773E-14 19392   0.135E-10    0.579E-05
DAV:   4    -0.107516741624E+03   -0.10837E-08    0.10058E-12 19392   0.212E-10    0.579E-05
DAV:   5    -0.107516741623E+03    0.10687E-08    0.39357E-13 19392   0.242E-10    0.579E-05
DAV:   6    -0.107516741623E+03   -0.50841E-09   -0.43703E-13 19392   0.211E-10
  28 F= -.10751674E+03 E0= -.10751674E+03  d E =0.000000E+00
       N       E                     dE             d eps       ncg     rms          rms(c)
DAV:   1    -0.107516741624E+03   -0.99180E-09    0.51540E-15 19392   0.127E-10    0.579E-05
DAV:   2    -0.107516741623E+03    0.62528E-09    0.24459E-14 19392   0.392E-10    0.579E-05
DAV:   3    -0.107516741623E+03   -0.43656E-10    0.46445E-13 19392   0.297E-10    0.579E-05
DAV:   4    -0.107516741624E+03   -0.61482E-09    0.53214E-13 19392   0.181E-10    0.579E-05
DAV:   5    -0.107516741624E+03    0.80945E-10    0.29497E-13 19392   0.184E-10    0.579E-05
DAV:   6    -0.107516741624E+03    0.15507E-09   -0.11700E-13 19392   0.112E-10
  29 F= -.10751674E+03 E0= -.10751674E+03  d E =0.000000E+00
       N       E                     dE             d eps       ncg     rms          rms(c)
DAV:   1    -0.107516741623E+03    0.50068E-09   -0.14198E-13 19392   0.989E-11    0.579E-05
DAV:   2    -0.107516741624E+03   -0.15916E-09    0.84666E-13 19392   0.331E-10    0.579E-05
DAV:   3    -0.107516741623E+03    0.13324E-09   -0.29076E-13 19392   0.184E-10    0.579E-05
DAV:   4    -0.107516741623E+03   -0.22283E-10    0.10790E-13 19392   0.153E-10    0.579E-05
DAV:   5    -0.107516741623E+03    0.54115E-10   -0.38065E-13 19392   0.303E-10    0.579E-05
DAV:   6    -0.107516741624E+03   -0.72214E-09    0.42427E-14 19392   0.258E-10
  30 F= -.10751674E+03 E0= -.10751674E+03  d E =0.000000E+00
       N       E                     dE             d eps       ncg     rms          rms(c)
DAV:   1    -0.107516741624E+03   -0.37016E-09    0.41734E-13 19392   0.234E-10    0.579E-05
DAV:   2    -0.107516741623E+03    0.64165E-09   -0.36165E-13 19392   0.266E-10    0.579E-05
DAV:   3    -0.107516741623E+03   -0.60936E-10    0.36062E-13 19392   0.222E-10    0.579E-05
DAV:   4    -0.107516741624E+03   -0.33515E-09   -0.13300E-13 19392   0.156E-10    0.579E-05
DAV:   5    -0.107516741623E+03    0.40473E-10   -0.22702E-13 19392   0.136E-10    0.579E-05
DAV:   6    -0.107516741623E+03    0.29240E-09   -0.22754E-13 19392   0.708E-11
  31 F= -.10751674E+03 E0= -.10751674E+03  d E =0.000000E+00
       N       E                     dE             d eps       ncg     rms          rms(c)
DAV:   1    -0.107516741624E+03   -0.44747E-09    0.36795E-13 19392   0.880E-11    0.579E-05
DAV:   2    -0.107516741623E+03    0.57207E-09    0.16939E-13 19392   0.394E-10    0.579E-05
DAV:   3    -0.107516741624E+03   -0.53569E-09    0.31648E-13 19392   0.362E-10    0.579E-05
DAV:   4    -0.107516741623E+03    0.92905E-09    0.68664E-13 19392   0.141E-10    0.579E-05
DAV:   5    -0.107516741623E+03   -0.43838E-09    0.24918E-13 19392   0.212E-10    0.579E-05
DAV:   6    -0.107516741624E+03   -0.18645E-09   -0.19019E-13 19392   0.126E-10
  32 F= -.10751674E+03 E0= -.10751674E+03  d E =0.000000E+00
       N       E                     dE             d eps       ncg     rms          rms(c)
DAV:   1    -0.107516741623E+03    0.11323E-09   -0.37339E-13 19392   0.128E-10    0.579E-05
DAV:   2    -0.107516741624E+03   -0.28149E-09    0.10983E-12 19392   0.430E-10    0.579E-05
DAV:   3    -0.107516741624E+03   -0.29559E-10    0.48652E-13 19392   0.242E-10    0.579E-05
DAV:   4    -0.107516741624E+03   -0.28558E-09    0.25455E-13 19392   0.130E-10    0.579E-05
DAV:   5    -0.107516741624E+03    0.17735E-09   -0.56558E-14 19392   0.171E-10    0.579E-05
DAV:   6    -0.107516741624E+03    0.10323E-09   -0.19778E-14 19392   0.139E-10
  33 F= -.10751674E+03 E0= -.10751674E+03  d E =0.000000E+00
       N       E                     dE             d eps       ncg     rms          rms(c)
DAV:   1    -0.107516741624E+03   -0.37380E-09    0.37846E-13 19392   0.112E-10    0.579E-05
DAV:   2    -0.107516741624E+03    0.25466E-09   -0.65729E-14 19392   0.433E-10    0.579E-05
DAV:   3    -0.107516741624E+03    0.21191E-09    0.24782E-13 19392   0.287E-10    0.579E-05
DAV:   4    -0.107516741623E+03    0.35016E-09   -0.69401E-14 19392   0.190E-10    0.579E-05
DAV:   5    -0.107516741624E+03   -0.34470E-09    0.37040E-13 19392   0.174E-10    0.579E-05
DAV:   6    -0.107516741623E+03    0.22646E-09    0.53503E-14 19392   0.205E-10
  34 F= -.10751674E+03 E0= -.10751674E+03  d E =0.000000E+00
       N       E                     dE             d eps       ncg     rms          rms(c)
DAV:   1    -0.107516741623E+03    0.20373E-09    0.35551E-13 19392   0.104E-10    0.579E-05
DAV:   2    -0.107516741623E+03    0.64119E-10    0.23894E-13 19392   0.329E-10    0.579E-05
DAV:   3    -0.107516741624E+03   -0.32696E-09   -0.94503E-13 19392   0.227E-10    0.579E-05
DAV:   4    -0.107516741624E+03    0.57753E-10    0.10297E-13 19392   0.232E-10    0.579E-05
DAV:   5    -0.107516741623E+03    0.24829E-09    0.27241E-13 19392   0.124E-10    0.579E-05
DAV:   6    -0.107516741623E+03   -0.10232E-09    0.33982E-13 19392   0.278E-10
  35 F= -.10751674E+03 E0= -.10751674E+03  d E =0.000000E+00
       N       E                     dE             d eps       ncg     rms          rms(c)
DAV:   1    -0.107516741624E+03   -0.48067E-09    0.22282E-13 19392   0.105E-10    0.579E-05
DAV:   2    -0.107516741624E+03    0.26284E-09   -0.16222E-13 19392   0.311E-10    0.579E-05
DAV:   3    -0.107516741624E+03   -0.40473E-09    0.35455E-13 19392   0.189E-10    0.579E-05
DAV:   4    -0.107516741623E+03    0.50704E-09    0.35471E-13 19392   0.169E-10    0.579E-05
DAV:   5    -0.107516741623E+03    0.51659E-09    0.19006E-13 19392   0.131E-10    0.579E-05
DAV:   6    -0.107516741623E+03   -0.37926E-09    0.17647E-13 19392   0.167E-10
  36 F= -.10751674E+03 E0= -.10751674E+03  d E =0.000000E+00
       N       E                     dE             d eps       ncg     rms          rms(c)
DAV:   1    -0.107516741623E+03   -0.29422E-09   -0.38955E-13 19392   0.249E-10    0.579E-05
DAV:   2    -0.107516741624E+03   -0.28422E-09    0.34404E-13 19392   0.601E-10    0.579E-05
DAV:   3    -0.107516741624E+03   -0.18781E-09    0.23062E-13 19392   0.355E-10    0.579E-05
DAV:   4    -0.107516741624E+03    0.16007E-09    0.53616E-14 19392   0.165E-10    0.579E-05
DAV:   5    -0.107516741623E+03    0.43701E-09    0.39355E-13 19392   0.113E-10    0.579E-05
DAV:   6    -0.107516741624E+03   -0.42064E-09    0.33799E-13 19392   0.261E-10
  37 F= -.10751674E+03 E0= -.10751674E+03  d E =0.000000E+00
       N       E                     dE             d eps       ncg     rms          rms(c)
DAV:   1    -0.107516741623E+03   -0.52296E-10    0.65190E-13 19392   0.285E-10    0.579E-05
DAV:   2    -0.107516741623E+03   -0.22237E-09   -0.16880E-13 19392   0.284E-10    0.579E-05
DAV:   3    -0.107516741624E+03   -0.41246E-09   -0.85711E-13 19392   0.168E-10    0.579E-05
DAV:   4    -0.107516741624E+03   -0.95497E-11    0.11298E-13 19392   0.206E-10    0.579E-05
DAV:   5    -0.107516741624E+03   -0.93223E-10    0.42018E-14 19392   0.335E-10    0.579E-05
DAV:   6    -0.107516741624E+03    0.10641E-09    0.19728E-13 19392   0.159E-10
  38 F= -.10751674E+03 E0= -.10751674E+03  d E =0.000000E+00
       N       E                     dE             d eps       ncg     rms          rms(c)
DAV:   1    -0.107516741623E+03    0.97270E-09    0.26318E-13 19392   0.254E-10    0.579E-05
DAV:   2    -0.107516741624E+03   -0.10546E-08    0.36300E-13 19392   0.795E-10    0.579E-05
DAV:   3    -0.107516741624E+03    0.39836E-09    0.12156E-13 19392   0.522E-10    0.579E-05
DAV:   4    -0.107516741623E+03    0.17644E-09    0.47788E-14 19392   0.178E-10    0.579E-05
DAV:   5    -0.107516741623E+03    0.20555E-09    0.59559E-13 19392   0.194E-10    0.579E-05
DAV:   6    -0.107516741624E+03   -0.40973E-09   -0.36311E-13 19392   0.723E-11
  39 F= -.10751674E+03 E0= -.10751674E+03  d E =0.000000E+00
       N       E                     dE             d eps       ncg     rms          rms(c)
DAV:   1    -0.107516741623E+03   -0.11050E-09   -0.14954E-13 19392   0.151E-10    0.579E-05
DAV:   2    -0.107516741623E+03   -0.13097E-09    0.21470E-13 19392   0.269E-10    0.579E-05
DAV:   3    -0.107516741623E+03    0.90949E-10    0.66206E-13 19392   0.217E-10    0.579E-05
DAV:   4    -0.107516741623E+03    0.19554E-10   -0.69291E-14 19392   0.861E-11    0.579E-05
DAV:   5    -0.107516741624E+03   -0.20964E-09   -0.20456E-13 19392   0.105E-10    0.579E-05
DAV:   6    -0.107516741623E+03    0.47339E-09    0.21161E-13 19392   0.135E-10
  40 F= -.10751674E+03 E0= -.10751674E+03  d E =0.000000E+00
       N       E                     dE             d eps       ncg     rms          rms(c)
DAV:   1    -0.107516741623E+03    0.35880E-09   -0.32972E-14 19392   0.286E-10    0.579E-05
DAV:   2    -0.107516741624E+03   -0.71941E-09   -0.57948E-13 19392   0.204E-10    0.579E-05
DAV:   3    -0.107516741623E+03    0.97498E-09   -0.10959E-13 19392   0.203E-10    0.579E-05
DAV:   4    -0.107516741624E+03   -0.62664E-09   -0.25717E-13 19392   0.211E-10    0.579E-05
DAV:   5    -0.107516741624E+03    0.35016E-10   -0.32411E-14 19392   0.145E-10    0.579E-05
DAV:   6    -0.107516741624E+03   -0.55297E-09    0.39832E-14 19392   0.883E-11
  41 F= -.10751674E+03 E0= -.10751674E+03  d E =0.000000E+00
       N       E                     dE             d eps       ncg     rms          rms(c)
DAV:   1    -0.107516741623E+03    0.48431E-09   -0.50310E-13 19392   0.154E-10    0.579E-05
DAV:   2    -0.107516741624E+03   -0.58026E-09   -0.44392E-13 19392   0.342E-10    0.579E-05
DAV:   3    -0.107516741624E+03   -0.17508E-09    0.25193E-13 19392   0.242E-10    0.579E-05
DAV:   4    -0.107516741624E+03    0.44565E-10   -0.90194E-14 19392   0.266E-10    0.579E-05
DAV:   5    -0.107516741623E+03    0.39836E-09    0.31361E-13 19392   0.295E-10    0.579E-05
DAV:   6    -0.107516741624E+03   -0.17553E-09    0.54459E-13 19392   0.115E-10
  42 F= -.10751674E+03 E0= -.10751674E+03  d E =0.000000E+00
       N       E                     dE             d eps       ncg     rms          rms(c)
DAV:   1    -0.107516741624E+03   -0.65438E-09   -0.44321E-13 19392   0.105E-10    0.579E-05
DAV:   2    -0.107516741624E+03    0.51841E-09   -0.62385E-13 19392   0.561E-10    0.579E-05
DAV:   3    -0.107516741623E+03    0.21373E-09    0.15756E-13 19392   0.332E-10    0.579E-05
DAV:   4    -0.107516741623E+03   -0.20918E-10    0.13403E-13 19392   0.280E-10    0.579E-05
DAV:   5    -0.107516741624E+03   -0.46293E-09    0.16316E-13 19392   0.230E-10    0.579E-05
DAV:   6    -0.107516741624E+03   -0.11369E-10   -0.18405E-13 19392   0.153E-10
  43 F= -.10751674E+03 E0= -.10751674E+03  d E =0.000000E+00
       N       E                     dE             d eps       ncg     rms          rms(c)
DAV:   1    -0.107516741624E+03   -0.47294E-10    0.38914E-13 19392   0.723E-11    0.579E-05
DAV:   2    -0.107516741623E+03    0.38744E-09    0.69689E-14 19392   0.267E-10    0.579E-05
DAV:   3    -0.107516741624E+03   -0.33651E-09   -0.21780E-13 19392   0.182E-10    0.579E-05
DAV:   4    -0.107516741624E+03    0.15461E-09   -0.20779E-13 19392   0.103E-10    0.579E-05
DAV:   5    -0.107516741624E+03    0.52751E-10   -0.22312E-14 19392   0.114E-10    0.579E-05
DAV:   6    -0.107516741623E+03    0.57753E-09    0.17101E-13 19392   0.204E-10
  44 F= -.10751674E+03 E0= -.10751674E+03  d E =0.000000E+00
       N       E                     dE             d eps       ncg     rms          rms(c)
DAV:   1    -0.107516741624E+03   -0.64119E-10   -0.38923E-13 19392   0.275E-10    0.579E-05
DAV:   2    -0.107516741623E+03    0.31378E-09   -0.64793E-14 19392   0.194E-10    0.579E-05
DAV:   3    -0.107516741623E+03    0.22965E-09   -0.48963E-13 19392   0.131E-10    0.579E-05
DAV:   4    -0.107516741623E+03    0.45475E-11    0.33556E-13 19392   0.102E-10    0.579E-05
DAV:   5    -0.107516741623E+03   -0.31241E-09   -0.85063E-13 19392   0.104E-10    0.579E-05
DAV:   6    -0.107516741623E+03    0.18008E-09   -0.75052E-13 19392   0.196E-10
  45 F= -.10751674E+03 E0= -.10751674E+03  d E =0.000000E+00
       N       E                     dE             d eps       ncg     rms          rms(c)
DAV:   1    -0.107516741624E+03   -0.20191E-09   -0.12363E-13 19392   0.989E-11    0.579E-05
DAV:   2    -0.107516741624E+03    0.38654E-10    0.46997E-13 19392   0.111E-10    0.579E-05
DAV:   3    -0.107516741624E+03   -0.48976E-09    0.65213E-13 19392   0.991E-11    0.579E-05
DAV:   4    -0.107516741624E+03    0.30241E-09    0.36295E-13 19392   0.154E-10    0.579E-05
DAV:   5    -0.107516741623E+03    0.62619E-09   -0.47158E-13 19392   0.970E-11    0.579E-05
DAV:   6    -0.107516741624E+03   -0.47476E-09   -0.59824E-14 19392   0.149E-10
  46 F= -.10751674E+03 E0= -.10751674E+03  d E =0.000000E+00
       N       E                     dE             d eps       ncg     rms          rms(c)
DAV:   1    -0.107516741623E+03   -0.18690E-09    0.17644E-13 19392   0.122E-10    0.579E-05
DAV:   2    -0.107516741624E+03   -0.19463E-09   -0.14803E-13 19392   0.228E-10    0.579E-05
DAV:   3    -0.107516741623E+03    0.31787E-09    0.81982E-13 19392   0.159E-10    0.579E-05
DAV:   4    -0.107516741624E+03   -0.93178E-09   -0.15441E-13 19392   0.131E-10    0.579E-05
DAV:   5    -0.107516741624E+03    0.43019E-09    0.33362E-13 19392   0.209E-10    0.579E-05
DAV:   6    -0.107516741624E+03   -0.34061E-09   -0.20236E-13 19392   0.156E-10
  47 F= -.10751674E+03 E0= -.10751674E+03  d E =0.000000E+00
       N       E                     dE             d eps       ncg     rms          rms(c)
DAV:   1    -0.107516741624E+03   -0.50932E-10    0.23431E-13 19392   0.119E-10    0.579E-05
DAV:   2    -0.107516741623E+03    0.32105E-09   -0.34758E-13 19392   0.185E-10    0.579E-05
DAV:   3    -0.107516741624E+03   -0.25329E-09    0.22693E-13 19392   0.158E-10    0.579E-05
DAV:   4    -0.107516741624E+03   -0.33651E-09    0.26604E-13 19392   0.106E-10    0.579E-05
DAV:   5    -0.107516741624E+03    0.40609E-09   -0.11476E-13 19392   0.131E-10    0.579E-05
DAV:   6    -0.107516741624E+03   -0.13688E-09   -0.45769E-13 19392   0.307E-10
  48 F= -.10751674E+03 E0= -.10751674E+03  d E =0.000000E+00
       N       E                     dE             d eps       ncg     rms          rms(c)
DAV:   1    -0.107516741624E+03   -0.16007E-09   -0.28955E-13 19392   0.983E-11    0.579E-05
DAV:   2    -0.107516741623E+03    0.27603E-09   -0.10594E-13 19392   0.217E-10    0.579E-05
DAV:   3    -0.107516741623E+03    0.23056E-09    0.38439E-13 19392   0.130E-10    0.579E-05
DAV:   4    -0.107516741623E+03   -0.23147E-09   -0.25111E-13 19392   0.224E-10    0.579E-05
DAV:   5    -0.107516741623E+03    0.27876E-09   -0.14875E-13 19392   0.133E-10    0.579E-05
DAV:   6    -0.107516741624E+03   -0.30832E-09    0.33167E-13 19392   0.122E-10
  49 F= -.10751674E+03 E0= -.10751674E+03  d E =0.000000E+00
       N       E                     dE             d eps       ncg     rms          rms(c)
DAV:   1    -0.107516741624E+03   -0.38017E-09   -0.74796E-14 19392   0.158E-10    0.579E-05
DAV:   2    -0.107516741624E+03   -0.17326E-09   -0.23800E-13 19392   0.129E-10    0.579E-05
DAV:   3    -0.107516741624E+03   -0.31423E-09   -0.34509E-13 19392   0.131E-10    0.579E-05
DAV:   4    -0.107516741624E+03    0.46839E-09   -0.15849E-14 19392   0.108E-10    0.579E-05
DAV:   5    -0.107516741624E+03   -0.14325E-09   -0.15704E-13 19392   0.222E-10    0.579E-05
DAV:   6    -0.107516741624E+03   -0.20736E-09    0.97359E-14 19392   0.101E-10
  50 F= -.10751674E+03 E0= -.10751674E+03  d E =0.000000E+00
       N       E                     dE             d eps       ncg     rms          rms(c)
DAV:   1    -0.107516741624E+03    0.12506E-09   -0.68481E-13 19392   0.100E-10    0.579E-05
DAV:   2    -0.107516741623E+03    0.23010E-09   -0.32899E-13 19392   0.850E-11    0.579E-05
DAV:   3    -0.107516741624E+03   -0.39063E-09   -0.52685E-14 19392   0.115E-10    0.579E-05
DAV:   4    -0.107516741624E+03    0.21737E-09    0.19619E-13 19392   0.114E-10    0.579E-05
DAV:   5    -0.107516741624E+03   -0.10414E-09   -0.36796E-13 19392   0.153E-10    0.579E-05
DAV:   6    -0.107516741624E+03   -0.22465E-09   -0.18783E-13 19392   0.682E-11
  51 F= -.10751674E+03 E0= -.10751674E+03  d E =0.000000E+00
       N       E                     dE             d eps       ncg     rms          rms(c)
DAV:   1    -0.107516741623E+03    0.18827E-09    0.14736E-14 19392   0.140E-10    0.579E-05
DAV:   2    -0.107516741624E+03   -0.51568E-09   -0.22655E-13 19392   0.164E-10    0.579E-05
DAV:   3    -0.107516741624E+03    0.23647E-09    0.27296E-13 19392   0.151E-10    0.579E-05
DAV:   4    -0.107516741624E+03   -0.14052E-09   -0.43684E-15 19392   0.168E-10    0.579E-05
DAV:   5    -0.107516741623E+03    0.47794E-09   -0.15527E-13 19392   0.633E-11    0.579E-05
DAV:   6    -0.107516741623E+03    0.17599E-09   -0.73628E-13 19392   0.106E-10
  52 F= -.10751674E+03 E0= -.10751674E+03  d E =0.000000E+00
       N       E                     dE             d eps       ncg     rms          rms(c)
DAV:   1    -0.107516741624E+03   -0.68849E-09   -0.46242E-13 19392   0.169E-10    0.579E-05
DAV:   2    -0.107516741623E+03    0.10459E-08    0.81948E-14 19392   0.542E-10    0.579E-05
DAV:   3    -0.107516741624E+03   -0.58526E-09    0.41515E-13 19392   0.441E-10    0.579E-05
DAV:   4    -0.107516741624E+03    0.88676E-10    0.85450E-14 19392   0.148E-10    0.579E-05
DAV:   5    -0.107516741624E+03   -0.50295E-09   -0.22224E-13 19392   0.191E-10    0.579E-05
DAV:   6    -0.107516741624E+03    0.36653E-09    0.66962E-13 19392   0.224E-10
  53 F= -.10751674E+03 E0= -.10751674E+03  d E =0.000000E+00
       N       E                     dE             d eps       ncg     rms          rms(c)
DAV:   1    -0.107516741624E+03    0.57389E-09    0.59628E-14 19392   0.117E-10    0.579E-05
DAV:   2    -0.107516741623E+03    0.37380E-09   -0.36168E-13 19392   0.195E-10    0.579E-05
DAV:   3    -0.107516741624E+03   -0.44383E-09   -0.19387E-13 19392   0.288E-10    0.579E-05
DAV:   4    -0.107516741623E+03    0.42019E-09   -0.59209E-13 19392   0.161E-10    0.579E-05
DAV:   5    -0.107516741623E+03   -0.32378E-09    0.69717E-13 19392   0.207E-10    0.579E-05
DAV:   6    -0.107516741624E+03   -0.22419E-09   -0.47270E-13 19392   0.190E-10
  54 F= -.10751674E+03 E0= -.10751674E+03  d E =0.000000E+00
       N       E                     dE             d eps       ncg     rms          rms(c)
DAV:   1    -0.107516741624E+03   -0.60118E-09    0.33994E-13 19392   0.173E-10    0.579E-05
DAV:   2    -0.107516741624E+03    0.37880E-09   -0.26049E-13 19392   0.455E-10    0.579E-05
DAV:   3    -0.107516741624E+03   -0.27512E-09    0.27083E-13 19392   0.362E-10    0.579E-05
DAV:   4    -0.107516741623E+03    0.55206E-09   -0.27565E-15 19392   0.303E-10    0.579E-05
DAV:   5    -0.107516741624E+03   -0.23329E-09   -0.31698E-14 19392   0.220E-10    0.579E-05
DAV:   6    -0.107516741624E+03    0.55934E-10   -0.26274E-13 19392   0.108E-10
  55 F= -.10751674E+03 E0= -.10751674E+03  d E =0.000000E+00
       N       E                     dE             d eps       ncg     rms          rms(c)
DAV:   1    -0.107516741624E+03   -0.93678E-10    0.44266E-14 19392   0.950E-11    0.579E-05
DAV:   2    -0.107516741624E+03   -0.27831E-09   -0.10486E-13 19392   0.806E-11    0.579E-05
DAV:   3    -0.107516741623E+03    0.10350E-08    0.54482E-13 19392   0.840E-11    0.579E-05
DAV:   4    -0.107516741624E+03   -0.51614E-09    0.15830E-13 19392   0.212E-10    0.579E-05
DAV:   5    -0.107516741623E+03    0.37744E-10   -0.73048E-15 19392   0.253E-10    0.579E-05
DAV:   6    -0.107516741623E+03    0.13597E-09   -0.68472E-15 19392   0.183E-10
  56 F= -.10751674E+03 E0= -.10751674E+03  d E =0.000000E+00
       N       E                     dE             d eps       ncg     rms          rms(c)
DAV:   1    -0.107516741624E+03   -0.18599E-09    0.39107E-13 19392   0.731E-11    0.579E-05
DAV:   2    -0.107516741624E+03    0.11914E-09   -0.81505E-14 19392   0.258E-10    0.579E-05
DAV:   3    -0.107516741623E+03    0.28012E-09   -0.62960E-14 19392   0.155E-10    0.579E-05
DAV:   4    -0.107516741624E+03   -0.50522E-09   -0.17959E-13 19392   0.109E-10    0.579E-05
DAV:   5    -0.107516741623E+03    0.34970E-09    0.95996E-14 19392   0.146E-10    0.579E-05
DAV:   6    -0.107516741624E+03   -0.20418E-09   -0.21502E-13 19392   0.134E-10
  57 F= -.10751674E+03 E0= -.10751674E+03  d E =0.000000E+00
       N       E                     dE             d eps       ncg     rms          rms(c)
DAV:   1    -0.107516741623E+03    0.40745E-09   -0.36537E-13 19392   0.101E-10    0.579E-05
DAV:   2    -0.107516741623E+03    0.32742E-10   -0.17412E-13 19392   0.710E-10    0.579E-05
DAV:   3    -0.107516741624E+03   -0.55752E-09   -0.14577E-13 19392   0.359E-10    0.579E-05
DAV:   4    -0.107516741623E+03    0.17508E-09    0.20332E-13 19392   0.397E-10    0.579E-05
DAV:   5    -0.107516741624E+03   -0.17417E-09    0.46826E-13 19392   0.186E-10    0.579E-05
DAV:   6    -0.107516741623E+03    0.57298E-10    0.10365E-13 19392   0.254E-10
  58 F= -.10751674E+03 E0= -.10751674E+03  d E =0.000000E+00
       N       E                     dE             d eps       ncg     rms          rms(c)
DAV:   1    -0.107516741624E+03   -0.39608E-09   -0.91618E-14 19392   0.235E-10    0.579E-05
DAV:   2    -0.107516741624E+03    0.31378E-09   -0.73560E-14 19392   0.688E-10    0.579E-05
DAV:   3    -0.107516741623E+03    0.61800E-09   -0.65666E-14 19392   0.354E-10    0.579E-05
DAV:   4    -0.107516741624E+03   -0.58435E-09   -0.89651E-13 19392   0.326E-10    0.579E-05
DAV:   5    -0.107516741624E+03   -0.18008E-09   -0.35515E-13 19392   0.162E-10    0.579E-05
DAV:   6    -0.107516741624E+03   -0.13642E-10   -0.11073E-12 19392   0.111E-10
  59 F= -.10751674E+03 E0= -.10751674E+03  d E =0.000000E+00
       N       E                     dE             d eps       ncg     rms          rms(c)
DAV:   1    -0.107516741623E+03    0.48385E-09    0.36991E-13 19392   0.309E-10    0.579E-05
DAV:   2    -0.107516741623E+03   -0.19190E-09   -0.72373E-13 19392   0.426E-10    0.579E-05
DAV:   3    -0.107516741624E+03   -0.41200E-09   -0.87636E-14 19392   0.262E-10    0.579E-05
DAV:   4    -0.107516741623E+03    0.66620E-09   -0.77272E-13 19392   0.211E-10    0.579E-05
DAV:   5    -0.107516741623E+03    0.18554E-09   -0.41911E-13 19392   0.183E-10    0.579E-05
DAV:   6    -0.107516741624E+03   -0.54206E-09    0.81801E-15 19392   0.869E-11
  60 F= -.10751674E+03 E0= -.10751674E+03  d E =0.000000E+00
       N       E                     dE             d eps       ncg     rms          rms(c)
DAV:   1    -0.107516741624E+03   -0.92268E-09   -0.52815E-14 19392   0.136E-10    0.579E-05
DAV:   2    -0.107516741623E+03    0.95588E-09   -0.51196E-13 19392   0.499E-10    0.579E-05
DAV:   3    -0.107516741623E+03   -0.46339E-09   -0.29158E-13 19392   0.371E-10    0.579E-05
DAV:   4    -0.107516741623E+03    0.28103E-09   -0.52511E-15 19392   0.176E-10    0.579E-05
DAV:   5    -0.107516741623E+03    0.11823E-10    0.10983E-13 19392   0.364E-10    0.579E-05
DAV:   6    -0.107516741624E+03   -0.57480E-09    0.47796E-13 19392   0.330E-10
  61 F= -.10751674E+03 E0= -.10751674E+03  d E =0.000000E+00
       N       E                     dE             d eps       ncg     rms          rms(c)
DAV:   1    -0.107516741623E+03    0.00000E+00    0.27351E-14 19392   0.166E-10    0.579E-05
DAV:   2    -0.107516741624E+03   -0.53569E-09   -0.12093E-13 19392   0.417E-10    0.579E-05
DAV:   3    -0.107516741623E+03    0.23738E-09   -0.75715E-14 19392   0.327E-10    0.579E-05
DAV:   4    -0.107516741623E+03   -0.31832E-11   -0.31030E-13 19392   0.156E-10    0.579E-05
DAV:   5    -0.107516741624E+03   -0.47521E-09    0.45485E-14 19392   0.151E-10    0.579E-05
DAV:   6    -0.107516741624E+03    0.16826E-09   -0.26258E-13 19392   0.127E-10
  62 F= -.10751674E+03 E0= -.10751674E+03  d E =0.000000E+00
       N       E                     dE             d eps       ncg     rms          rms(c)
DAV:   1    -0.107516741624E+03    0.39381E-09   -0.58434E-13 19392   0.128E-10    0.579E-05
DAV:   2    -0.107516741623E+03    0.26830E-09    0.73978E-13 19392   0.206E-10    0.579E-05
DAV:   3    -0.107516741624E+03   -0.41382E-09    0.62710E-13 19392   0.966E-11    0.579E-05
DAV:   4    -0.107516741623E+03    0.68621E-09    0.23880E-13 19392   0.105E-10    0.579E-05
DAV:   5    -0.107516741624E+03   -0.78171E-09    0.21254E-13 19392   0.201E-10    0.579E-05
DAV:   6    -0.107516741624E+03   -0.24966E-09    0.67450E-13 19392   0.235E-10
  63 F= -.10751674E+03 E0= -.10751674E+03  d E =0.000000E+00
       N       E                     dE             d eps       ncg     rms          rms(c)
DAV:   1    -0.107516741623E+03    0.40609E-09   -0.67761E-13 19392   0.133E-10    0.579E-05
DAV:   2    -0.107516741624E+03   -0.56434E-09   -0.14856E-13 19392   0.175E-10    0.579E-05
DAV:   3    -0.107516741623E+03    0.77307E-09   -0.29124E-13 19392   0.156E-10    0.579E-05
DAV:   4    -0.107516741624E+03   -0.95497E-09   -0.24858E-13 19392   0.181E-10    0.579E-05
DAV:   5    -0.107516741624E+03    0.40427E-09   -0.23787E-13 19392   0.326E-10    0.579E-05
DAV:   6    -0.107516741624E+03   -0.19054E-09   -0.53780E-14 19392   0.320E-10
  64 F= -.10751674E+03 E0= -.10751674E+03  d E =0.000000E+00
       N       E                     dE             d eps       ncg     rms          rms(c)
DAV:   1    -0.107516741623E+03    0.69758E-09   -0.71457E-13 19392   0.101E-10    0.579E-05
DAV:   2    -0.107516741624E+03   -0.91404E-09    0.47331E-13 19392   0.553E-10    0.579E-05
DAV:   3    -0.107516741624E+03    0.25238E-09   -0.29713E-13 19392   0.370E-10    0.579E-05
DAV:   4    -0.107516741624E+03   -0.52751E-10    0.85944E-14 19392   0.212E-10    0.579E-05
DAV:   5    -0.107516741624E+03    0.46384E-10   -0.13067E-13 19392   0.174E-10    0.579E-05
DAV:   6    -0.107516741624E+03    0.16917E-09   -0.58356E-14 19392   0.105E-10
  65 F= -.10751674E+03 E0= -.10751674E+03  d E =0.000000E+00
       N       E                     dE             d eps       ncg     rms          rms(c)
DAV:   1    -0.107516741624E+03   -0.30923E-10   -0.14234E-13 19392   0.168E-10    0.579E-05
DAV:   2    -0.107516741624E+03    0.50932E-10   -0.20708E-13 19392   0.282E-10    0.579E-05
DAV:   3    -0.107516741624E+03    0.45475E-10   -0.42110E-14 19392   0.238E-10    0.579E-05
DAV:   4    -0.107516741624E+03   -0.25921E-10    0.10781E-13 19392   0.149E-10    0.579E-05
DAV:   5    -0.107516741624E+03   -0.33333E-09    0.16925E-13 19392   0.846E-11    0.579E-05
DAV:   6    -0.107516741623E+03    0.50477E-09   -0.27362E-13 19392   0.168E-10
  66 F= -.10751674E+03 E0= -.10751674E+03  d E =0.000000E+00
       N       E                     dE             d eps       ncg     rms          rms(c)
DAV:   1    -0.107516741623E+03    0.75124E-09   -0.20162E-13 19392   0.223E-10    0.579E-05
DAV:   2    -0.107516741623E+03    0.56389E-10    0.13528E-13 19392   0.214E-10    0.579E-05
DAV:   3    -0.107516741623E+03   -0.28831E-09   -0.51552E-13 19392   0.217E-10    0.579E-05
DAV:   4    -0.107516741624E+03   -0.17235E-09   -0.54220E-13 19392   0.309E-10    0.579E-05
DAV:   5    -0.107516741624E+03   -0.18917E-09    0.20108E-13 19392   0.126E-10    0.579E-05
DAV:   6    -0.107516741623E+03    0.72987E-09    0.24901E-13 19392   0.105E-10
  67 F= -.10751674E+03 E0= -.10751674E+03  d E =0.000000E+00
       N       E                     dE             d eps       ncg     rms          rms(c)
DAV:   1    -0.107516741624E+03   -0.20555E-09    0.24056E-13 19392   0.210E-10    0.579E-05
DAV:   2    -0.107516741623E+03    0.88903E-09   -0.54933E-13 19392   0.629E-10    0.579E-05
DAV:   3    -0.107516741623E+03   -0.23238E-09    0.51458E-13 19392   0.415E-10    0.579E-05
DAV:   4    -0.107516741623E+03    0.38153E-09   -0.23611E-13 19392   0.213E-10    0.579E-05
DAV:   5    -0.107516741624E+03   -0.53296E-09    0.78271E-14 19392   0.186E-10    0.579E-05
DAV:   6    -0.107516741624E+03   -0.60299E-09   -0.29641E-13 19392   0.189E-10
  68 F= -.10751674E+03 E0= -.10751674E+03  d E =0.000000E+00
       N       E                     dE             d eps       ncg     rms          rms(c)
DAV:   1    -0.107516741624E+03   -0.45020E-10    0.50525E-14 19392   0.130E-10    0.579E-05
DAV:   2    -0.107516741623E+03    0.60163E-09    0.71926E-14 19392   0.218E-10    0.579E-05
DAV:   3    -0.107516741624E+03   -0.68167E-09   -0.74979E-14 19392   0.155E-10    0.579E-05
DAV:   4    -0.107516741624E+03   -0.12096E-09    0.32140E-13 19392   0.165E-10    0.579E-05
DAV:   5    -0.107516741624E+03   -0.40927E-11   -0.56951E-14 19392   0.709E-11    0.579E-05
DAV:   6    -0.107516741624E+03    0.23556E-09    0.27324E-13 19392   0.694E-11
  69 F= -.10751674E+03 E0= -.10751674E+03  d E =0.000000E+00
       N       E                     dE             d eps       ncg     rms          rms(c)
DAV:   1    -0.107516741624E+03   -0.30286E-09    0.33608E-13 19392   0.132E-10    0.579E-05
DAV:   2    -0.107516741624E+03    0.17644E-09   -0.12842E-13 19392   0.470E-10    0.579E-05
DAV:   3    -0.107516741623E+03    0.43065E-09    0.39996E-13 19392   0.277E-10    0.579E-05
DAV:   4    -0.107516741623E+03    0.23283E-09    0.63528E-13 19392   0.258E-10    0.579E-05
DAV:   5    -0.107516741624E+03   -0.46975E-09    0.14862E-13 19392   0.246E-10    0.579E-05
DAV:   6    -0.107516741624E+03    0.60027E-10    0.51885E-13 19392   0.212E-10
  70 F= -.10751674E+03 E0= -.10751674E+03  d E =0.000000E+00
       N       E                     dE             d eps       ncg     rms          rms(c)
DAV:   1    -0.107516741623E+03    0.40200E-09    0.62583E-13 19392   0.104E-10    0.579E-05
DAV:   2    -0.107516741624E+03   -0.66802E-09   -0.54488E-13 19392   0.320E-10    0.579E-05
DAV:   3    -0.107516741624E+03    0.60027E-10   -0.41074E-13 19392   0.301E-10    0.579E-05
DAV:   4    -0.107516741624E+03   -0.15871E-09    0.12397E-14 19392   0.154E-10    0.579E-05
DAV:   5    -0.107516741623E+03    0.63437E-09    0.63645E-13 19392   0.114E-10    0.579E-05
DAV:   6    -0.107516741623E+03    0.12960E-09    0.11801E-13 19392   0.168E-10
  71 F= -.10751674E+03 E0= -.10751674E+03  d E =0.000000E+00
       N       E                     dE             d eps       ncg     rms          rms(c)
DAV:   1    -0.107516741624E+03   -0.36835E-09    0.39751E-13 19392   0.901E-11    0.579E-05
DAV:   2    -0.107516741623E+03    0.39427E-09    0.23913E-13 19392   0.285E-10    0.579E-05
DAV:   3    -0.107516741623E+03    0.33651E-09   -0.11959E-13 19392   0.218E-10    0.579E-05
DAV:   4    -0.107516741624E+03   -0.10164E-08    0.18898E-13 19392   0.154E-10    0.579E-05
DAV:   5    -0.107516741624E+03    0.58299E-09    0.42682E-14 19392   0.321E-10    0.579E-05
DAV:   6    -0.107516741624E+03   -0.61482E-09    0.52321E-13 19392   0.283E-10
  72 F= -.10751674E+03 E0= -.10751674E+03  d E =0.000000E+00
       N       E                     dE             d eps       ncg     rms          rms(c)
DAV:   1    -0.107516741623E+03    0.31559E-09   -0.14907E-14 19392   0.204E-10    0.579E-05
DAV:   2    -0.107516741624E+03   -0.31059E-09    0.24316E-13 19392   0.555E-10    0.579E-05
DAV:   3    -0.107516741623E+03    0.49567E-09   -0.15920E-13 19392   0.367E-10    0.579E-05
DAV:   4    -0.107516741623E+03   -0.47658E-09    0.32322E-13 19392   0.238E-10    0.579E-05
DAV:   5    -0.107516741624E+03   -0.31605E-09    0.57846E-13 19392   0.179E-10    0.579E-05
DAV:   6    -0.107516741623E+03    0.83446E-09   -0.32584E-13 19392   0.237E-10
  73 F= -.10751674E+03 E0= -.10751674E+03  d E =0.000000E+00
       N       E                     dE             d eps       ncg     rms          rms(c)
DAV:   1    -0.107516741624E+03    0.26148E-09    0.58869E-13 19392   0.242E-10    0.579E-05
DAV:   2    -0.107516741623E+03    0.50022E-10   -0.39523E-13 19392   0.196E-10    0.579E-05
DAV:   3    -0.107516741624E+03   -0.44565E-09    0.11805E-13 19392   0.103E-10    0.579E-05
DAV:   4    -0.107516741624E+03    0.36607E-09   -0.34712E-13 19392   0.106E-10    0.579E-05
DAV:   5    -0.107516741624E+03    0.57298E-10   -0.42467E-13 19392   0.145E-10    0.579E-05
DAV:   6    -0.107516741623E+03    0.85493E-10    0.34562E-13 19392   0.172E-10
  74 F= -.10751674E+03 E0= -.10751674E+03  d E =0.000000E+00
       N       E                     dE             d eps       ncg     rms          rms(c)
DAV:   1    -0.107516741624E+03   -0.20827E-09    0.13545E-13 19392   0.970E-11    0.579E-05
DAV:   2    -0.107516741624E+03   -0.85493E-10    0.10935E-12 19392   0.163E-10    0.579E-05
DAV:   3    -0.107516741623E+03    0.33833E-09   -0.17324E-13 19392   0.174E-10    0.579E-05
DAV:   4    -0.107516741623E+03    0.78217E-10   -0.23812E-13 19392   0.220E-10    0.579E-05
DAV:   5    -0.107516741623E+03    0.93223E-10   -0.72419E-13 19392   0.116E-10    0.579E-05
DAV:   6    -0.107516741623E+03   -0.57753E-10   -0.40689E-13 19392   0.194E-10
  75 F= -.10751674E+03 E0= -.10751674E+03  d E =0.000000E+00
       N       E                     dE             d eps       ncg     rms          rms(c)
DAV:   1    -0.107516741623E+03    0.25875E-09    0.19604E-13 19392   0.108E-10    0.579E-05
DAV:   2    -0.107516741624E+03   -0.69485E-09    0.22591E-13 19392   0.579E-10    0.579E-05
DAV:   3    -0.107516741623E+03    0.41564E-09    0.25138E-15 19392   0.363E-10    0.579E-05
DAV:   4    -0.107516741624E+03   -0.28922E-09    0.13103E-14 19392   0.146E-10    0.579E-05
DAV:   5    -0.107516741624E+03   -0.48021E-09    0.87390E-14 19392   0.235E-10    0.579E-05
DAV:   6    -0.107516741623E+03    0.77125E-09    0.29885E-13 19392   0.287E-10
  76 F= -.10751674E+03 E0= -.10751674E+03  d E =0.000000E+00
       N       E                     dE             d eps       ncg     rms          rms(c)
DAV:   1    -0.107516741624E+03    0.27012E-09    0.17721E-13 19392   0.189E-10    0.579E-05
DAV:   2    -0.107516741623E+03    0.72168E-09    0.17994E-13 19392   0.396E-10    0.579E-05
DAV:   3    -0.107516741623E+03   -0.19418E-09    0.15997E-13 19392   0.332E-10    0.579E-05
DAV:   4    -0.107516741624E+03   -0.57935E-09    0.30805E-13 19392   0.242E-10    0.579E-05
DAV:   5    -0.107516741624E+03    0.24920E-09   -0.17853E-13 19392   0.134E-10    0.579E-05
DAV:   6    -0.107516741624E+03   -0.51978E-09    0.80175E-14 19392   0.782E-11
  77 F= -.10751674E+03 E0= -.10751674E+03  d E =0.000000E+00
       N       E                     dE             d eps       ncg     rms          rms(c)
DAV:   1    -0.107516741623E+03    0.42064E-09    0.51085E-13 19392   0.128E-10    0.579E-05
DAV:   2    -0.107516741623E+03    0.10732E-09    0.72438E-14 19392   0.444E-10    0.579E-05
DAV:   3    -0.107516741623E+03   -0.14825E-09   -0.19777E-13 19392   0.404E-10    0.579E-05
DAV:   4    -0.107516741623E+03    0.21055E-09    0.84015E-13 19392   0.210E-10    0.579E-05
DAV:   5    -0.107516741623E+03   -0.43792E-09   -0.16175E-13 19392   0.132E-10    0.579E-05
DAV:   6    -0.107516741623E+03    0.30604E-09    0.17901E-13 19392   0.357E-10
  78 F= -.10751674E+03 E0= -.10751674E+03  d E =0.000000E+00
       N       E                     dE             d eps       ncg     rms          rms(c)
DAV:   1    -0.107516741624E+03   -0.10732E-09   -0.29487E-13 19392   0.419E-10    0.579E-05
DAV:   2    -0.107516741624E+03   -0.36698E-09    0.27273E-13 19392   0.204E-10    0.579E-05
DAV:   3    -0.107516741623E+03    0.85402E-09   -0.39797E-14 19392   0.223E-10    0.579E-05
DAV:   4    -0.107516741624E+03   -0.93723E-09   -0.17754E-13 19392   0.183E-10    0.579E-05
DAV:   5    -0.107516741624E+03    0.15643E-09    0.33112E-13 19392   0.254E-10    0.579E-05
DAV:   6    -0.107516741624E+03    0.32423E-09    0.71310E-13 19392   0.282E-10
  79 F= -.10751674E+03 E0= -.10751674E+03  d E =0.000000E+00
       N       E                     dE             d eps       ncg     rms          rms(c)
DAV:   1    -0.107516741623E+03    0.72669E-09   -0.16121E-13 19392   0.856E-11    0.579E-05
DAV:   2    -0.107516741623E+03   -0.15189E-09   -0.21650E-14 19392   0.328E-10    0.579E-05
DAV:   3    -0.107516741624E+03   -0.43019E-09   -0.85557E-14 19392   0.348E-10    0.579E-05
DAV:   4    -0.107516741624E+03   -0.35106E-09   -0.66198E-14 19392   0.249E-10    0.579E-05
DAV:   5    -0.107516741624E+03    0.62755E-10   -0.40879E-13 19392   0.208E-10    0.579E-05
DAV:   6    -0.107516741624E+03    0.34561E-09   -0.27165E-13 19392   0.126E-10
  80 F= -.10751674E+03 E0= -.10751674E+03  d E =0.000000E+00
       N       E                     dE             d eps       ncg     rms          rms(c)
DAV:   1    -0.107516741624E+03    0.14506E-09   -0.15974E-14 19392   0.871E-11    0.579E-05
DAV:   2    -0.107516741623E+03    0.37744E-09   -0.60807E-13 19392   0.380E-10    0.579E-05
DAV:   3    -0.107516741623E+03    0.31241E-09   -0.77076E-15 19392   0.223E-10    0.579E-05
DAV:   4    -0.107516741624E+03   -0.66166E-09   -0.46830E-13 19392   0.198E-10    0.579E-05
DAV:   5    -0.107516741624E+03    0.61846E-10    0.73704E-14 19392   0.170E-10    0.579E-05
DAV:   6    -0.107516741623E+03    0.69349E-09    0.42739E-13 19392   0.924E-11
  81 F= -.10751674E+03 E0= -.10751674E+03  d E =0.000000E+00
       N       E                     dE             d eps       ncg     rms          rms(c)
DAV:   1    -0.107516741624E+03   -0.39108E-10    0.19684E-14 19392   0.163E-10    0.579E-05
DAV:   2    -0.107516741624E+03   -0.17371E-09   -0.15492E-13 19392   0.301E-10    0.579E-05
DAV:   3    -0.107516741623E+03    0.69167E-09    0.45650E-13 19392   0.523E-10    0.579E-05
DAV:   4    -0.107516741624E+03   -0.57298E-09   -0.58282E-13 19392   0.569E-10    0.579E-05
DAV:   5    -0.107516741623E+03    0.89813E-09   -0.33733E-13 19392   0.293E-10    0.579E-05
DAV:   6    -0.107516741624E+03   -0.10245E-08   -0.12236E-14 19392   0.231E-10
  82 F= -.10751674E+03 E0= -.10751674E+03  d E =0.000000E+00
       N       E                     dE             d eps       ncg     rms          rms(c)
DAV:   1    -0.107516741624E+03   -0.65302E-09   -0.29623E-14 19392   0.226E-10    0.579E-05
DAV:   2    -0.107516741623E+03    0.57889E-09    0.46029E-13 19392   0.177E-10    0.579E-05
DAV:   3    -0.107516741624E+03   -0.10723E-08    0.21482E-13 19392   0.299E-10    0.579E-05
DAV:   4    -0.107516741624E+03    0.22419E-09   -0.18375E-13 19392   0.358E-10    0.579E-05
DAV:   5    -0.107516741623E+03    0.48476E-09   -0.12233E-13 19392   0.189E-10    0.579E-05
DAV:   6    -0.107516741624E+03   -0.61118E-09    0.56844E-14 19392   0.207E-10
  83 F= -.10751674E+03 E0= -.10751674E+03  d E =0.000000E+00
       N       E                     dE             d eps       ncg     rms          rms(c)
DAV:   1    -0.107516741624E+03   -0.30059E-09    0.55744E-13 19392   0.127E-10    0.579E-05
DAV:   2    -0.107516741624E+03   -0.43065E-09    0.31370E-13 19392   0.168E-10    0.579E-05
DAV:   3    -0.107516741624E+03    0.32242E-09    0.10728E-12 19392   0.221E-10    0.579E-05
DAV:   4    -0.107516741624E+03    0.11141E-09    0.60830E-13 19392   0.202E-10    0.579E-05
DAV:   5    -0.107516741624E+03   -0.16644E-09   -0.20550E-13 19392   0.141E-10    0.579E-05
DAV:   6    -0.107516741624E+03    0.35152E-09    0.46204E-13 19392   0.357E-10
  84 F= -.10751674E+03 E0= -.10751674E+03  d E =0.000000E+00
       N       E                     dE             d eps       ncg     rms          rms(c)
DAV:   1    -0.107516741624E+03    0.37289E-10    0.62919E-14 19392   0.317E-10    0.579E-05
DAV:   2    -0.107516741624E+03    0.17508E-09   -0.16264E-13 19392   0.452E-10    0.579E-05
DAV:   3    -0.107516741624E+03   -0.11460E-09    0.22151E-13 19392   0.356E-10    0.579E-05
DAV:   4    -0.107516741624E+03    0.19236E-09    0.99567E-14 19392   0.233E-10    0.579E-05
DAV:   5    -0.107516741623E+03    0.13415E-09    0.43146E-14 19392   0.116E-10    0.579E-05
DAV:   6    -0.107516741624E+03   -0.32196E-09   -0.17526E-14 19392   0.223E-10
  85 F= -.10751674E+03 E0= -.10751674E+03  d E =0.000000E+00
       N       E                     dE             d eps       ncg     rms          rms(c)
DAV:   1    -0.107516741624E+03   -0.18008E-09   -0.41638E-13 19392   0.257E-10    0.579E-05
DAV:   2    -0.107516741624E+03    0.60027E-10    0.60512E-13 19392   0.145E-10    0.579E-05
DAV:   3    -0.107516741624E+03   -0.51068E-09   -0.46873E-14 19392   0.997E-11    0.579E-05
DAV:   4    -0.107516741624E+03    0.47976E-09    0.10888E-13 19392   0.155E-10    0.579E-05
DAV:   5    -0.107516741624E+03   -0.46566E-09    0.77572E-14 19392   0.312E-10    0.579E-05
DAV:   6    -0.107516741624E+03    0.44975E-09    0.59543E-13 19392   0.256E-10
  86 F= -.10751674E+03 E0= -.10751674E+03  d E =0.000000E+00
       N       E                     dE             d eps       ncg     rms          rms(c)
DAV:   1    -0.107516741623E+03    0.71122E-09    0.95919E-14 19392   0.260E-10    0.579E-05
DAV:   2    -0.107516741624E+03   -0.62755E-09   -0.31881E-13 19392   0.236E-10    0.579E-05
DAV:   3    -0.107516741624E+03    0.76398E-10   -0.19744E-13 19392   0.441E-10    0.579E-05
DAV:   4    -0.107516741624E+03    0.22555E-09   -0.40202E-13 19392   0.311E-10    0.579E-05
DAV:   5    -0.107516741624E+03   -0.32924E-09    0.30970E-14 19392   0.119E-10    0.579E-05
DAV:   6    -0.107516741623E+03    0.82036E-09    0.44490E-13 19392   0.106E-10
  87 F= -.10751674E+03 E0= -.10751674E+03  d E =0.000000E+00
       N       E                     dE             d eps       ncg     rms          rms(c)
DAV:   1    -0.107516741624E+03    0.46020E-09    0.16601E-13 19392   0.203E-10    0.579E-05
DAV:   2    -0.107516741624E+03   -0.61391E-10   -0.47624E-13 19392   0.121E-10    0.579E-05
DAV:   3    -0.107516741624E+03   -0.14552E-10    0.30430E-13 19392   0.894E-11    0.579E-05
DAV:   4    -0.107516741624E+03   -0.46794E-09    0.57106E-13 19392   0.934E-11    0.579E-05
DAV:   5    -0.107516741623E+03    0.10568E-08    0.42497E-13 19392   0.115E-10    0.579E-05
DAV:   6    -0.107516741624E+03   -0.81036E-09   -0.13376E-13 19392   0.208E-10
  88 F= -.10751674E+03 E0= -.10751674E+03  d E =0.000000E+00
       N       E                     dE             d eps       ncg     rms          rms(c)
DAV:   1    -0.107516741624E+03   -0.72487E-09    0.10944E-14 19392   0.232E-10    0.579E-05
DAV:   2    -0.107516741623E+03    0.68940E-09    0.27578E-13 19392   0.357E-10    0.579E-05
DAV:   3    -0.107516741624E+03   -0.65620E-09    0.71859E-13 19392   0.277E-10    0.579E-05
DAV:   4    -0.107516741623E+03    0.34925E-09    0.60052E-14 19392   0.151E-10    0.579E-05
DAV:   5    -0.107516741623E+03    0.63210E-10   -0.41319E-13 19392   0.154E-10    0.579E-05
DAV:   6    -0.107516741624E+03   -0.25648E-09    0.66706E-14 19392   0.731E-11
  89 F= -.10751674E+03 E0= -.10751674E+03  d E =0.000000E+00
       N       E                     dE             d eps       ncg     rms          rms(c)
DAV:   1    -0.107516741624E+03   -0.18827E-09    0.37247E-14 19392   0.179E-10    0.579E-05
DAV:   2    -0.107516741624E+03   -0.68212E-11   -0.13468E-13 19392   0.155E-10    0.579E-05
DAV:   3    -0.107516741623E+03    0.28786E-09    0.23861E-14 19392   0.165E-10    0.579E-05
DAV:   4    -0.107516741624E+03   -0.46430E-09    0.12912E-14 19392   0.117E-10    0.579E-05
DAV:   5    -0.107516741624E+03    0.30468E-10    0.45333E-13 19392   0.174E-10    0.579E-05
DAV:   6    -0.107516741624E+03    0.47294E-10    0.74968E-14 19392   0.164E-10
  90 F= -.10751674E+03 E0= -.10751674E+03  d E =0.000000E+00
       N       E                     dE             d eps       ncg     rms          rms(c)
DAV:   1    -0.107516741624E+03    0.23647E-10    0.57886E-14 19392   0.570E-11    0.579E-05
DAV:   2    -0.107516741624E+03    0.35925E-10   -0.55365E-14 19392   0.124E-10    0.579E-05
DAV:   3    -0.107516741623E+03    0.39881E-09   -0.34226E-13 19392   0.125E-10    0.579E-05
DAV:   4    -0.107516741624E+03   -0.52387E-09   -0.38532E-13 19392   0.130E-10    0.579E-05
DAV:   5    -0.107516741623E+03    0.41064E-09    0.23202E-13 19392   0.137E-10    0.579E-05
DAV:   6    -0.107516741624E+03   -0.28740E-09   -0.23059E-13 19392   0.121E-10
  91 F= -.10751674E+03 E0= -.10751674E+03  d E =0.000000E+00
       N       E                     dE             d eps       ncg     rms          rms(c)
DAV:   1    -0.107516741624E+03   -0.26694E-09    0.17312E-13 19392   0.838E-11    0.579E-05
DAV:   2    -0.107516741623E+03    0.44292E-09    0.12487E-13 19392   0.101E-10    0.579E-05
DAV:   3    -0.107516741624E+03   -0.37926E-09    0.61989E-13 19392   0.116E-10    0.579E-05
DAV:   4    -0.107516741623E+03    0.48931E-09   -0.12241E-13 19392   0.173E-10    0.579E-05
DAV:   5    -0.107516741623E+03   -0.35288E-09    0.18062E-13 19392   0.170E-10    0.579E-05
DAV:   6    -0.107516741624E+03   -0.41791E-09   -0.58700E-13 19392   0.220E-10
  92 F= -.10751674E+03 E0= -.10751674E+03  d E =0.000000E+00
       N       E                     dE             d eps       ncg     rms          rms(c)
DAV:   1    -0.107516741624E+03   -0.30423E-09    0.31429E-13 19392   0.176E-10    0.579E-05
DAV:   2    -0.107516741624E+03    0.14370E-09   -0.17204E-13 19392   0.939E-11    0.579E-05
DAV:   3    -0.107516741623E+03    0.54388E-09   -0.49577E-14 19392   0.857E-11    0.579E-05
DAV:   4    -0.107516741624E+03   -0.70258E-09   -0.11230E-13 19392   0.120E-10    0.579E-05
DAV:   5    -0.107516741624E+03    0.77307E-11   -0.42429E-13 19392   0.151E-10    0.579E-05
DAV:   6    -0.107516741623E+03    0.62209E-09   -0.14856E-13 19392   0.796E-11
  93 F= -.10751674E+03 E0= -.10751674E+03  d E =0.000000E+00
       N       E                     dE             d eps       ncg     rms          rms(c)
DAV:   1    -0.107516741623E+03    0.19918E-09   -0.97762E-14 19392   0.154E-10    0.579E-05
DAV:   2    -0.107516741624E+03   -0.12096E-09    0.49844E-13 19392   0.196E-10    0.579E-05
DAV:   3    -0.107516741624E+03   -0.77307E-10   -0.85603E-14 19392   0.193E-10    0.579E-05
DAV:   4    -0.107516741624E+03   -0.38244E-09   -0.68994E-14 19392   0.173E-10    0.579E-05
DAV:   5    -0.107516741624E+03    0.41427E-09   -0.82732E-14 19392   0.139E-10    0.579E-05
DAV:   6    -0.107516741624E+03   -0.26012E-09   -0.13595E-13 19392   0.136E-10
  94 F= -.10751674E+03 E0= -.10751674E+03  d E =0.000000E+00
       N       E                     dE             d eps       ncg     rms          rms(c)
DAV:   1    -0.107516741623E+03    0.55661E-09   -0.26679E-13 19392   0.140E-10    0.579E-05
DAV:   2    -0.107516741623E+03   -0.34561E-09    0.61160E-13 19392   0.431E-10    0.579E-05
DAV:   3    -0.107516741623E+03    0.34788E-09    0.27688E-13 19392   0.281E-10    0.579E-05
DAV:   4    -0.107516741624E+03   -0.92041E-09    0.16265E-13 19392   0.266E-10    0.579E-05
DAV:   5    -0.107516741624E+03    0.40927E-11   -0.16429E-13 19392   0.276E-10    0.579E-05
DAV:   6    -0.107516741623E+03    0.10068E-08    0.22767E-14 19392   0.139E-10
  95 F= -.10751674E+03 E0= -.10751674E+03  d E =0.000000E+00
       N       E                     dE             d eps       ncg     rms          rms(c)
DAV:   1    -0.107516741624E+03    0.39154E-09    0.82141E-13 19392   0.203E-10    0.579E-05
DAV:   2    -0.107516741624E+03   -0.21373E-10    0.26551E-14 19392   0.290E-10    0.579E-05
DAV:   3    -0.107516741623E+03    0.51887E-09    0.18027E-13 19392   0.338E-10    0.579E-05
DAV:   4    -0.107516741623E+03   -0.18281E-09   -0.37397E-13 19392   0.284E-10    0.579E-05
DAV:   5    -0.107516741623E+03    0.12278E-10   -0.35611E-14 19392   0.115E-10    0.579E-05
DAV:   6    -0.107516741623E+03    0.31241E-09    0.71995E-14 19392   0.903E-11
  96 F= -.10751674E+03 E0= -.10751674E+03  d E =0.000000E+00
       N       E                     dE             d eps       ncg     rms          rms(c)
DAV:   1    -0.107516741623E+03    0.18190E-09    0.20475E-13 19392   0.144E-10    0.579E-05
DAV:   2    -0.107516741624E+03   -0.80900E-09    0.60668E-13 19392   0.408E-10    0.579E-05
DAV:   3    -0.107516741623E+03    0.57753E-09   -0.73986E-14 19392   0.366E-10    0.579E-05
DAV:   4    -0.107516741623E+03   -0.70031E-10   -0.12260E-13 19392   0.160E-10    0.579E-05
DAV:   5    -0.107516741624E+03   -0.26012E-09    0.91270E-14 19392   0.976E-11    0.579E-05
DAV:   6    -0.107516741623E+03    0.64256E-09   -0.12129E-13 19392   0.122E-10
  97 F= -.10751674E+03 E0= -.10751674E+03  d E =0.000000E+00
       N       E                     dE             d eps       ncg     rms          rms(c)
DAV:   1    -0.107516741624E+03   -0.27921E-09   -0.45528E-13 19392   0.187E-10    0.579E-05
DAV:   2    -0.107516741624E+03    0.26330E-09    0.95694E-14 19392   0.538E-10    0.579E-05
DAV:   3    -0.107516741624E+03    0.17690E-09    0.38318E-14 19392   0.319E-10    0.579E-05
DAV:   4    -0.107516741623E+03    0.68212E-10    0.20670E-13 19392   0.194E-10    0.579E-05
DAV:   5    -0.107516741624E+03   -0.16689E-09    0.19097E-13 19392   0.208E-10    0.579E-05
DAV:   6    -0.107516741623E+03    0.21282E-09    0.17603E-13 19392   0.148E-10
  98 F= -.10751674E+03 E0= -.10751674E+03  d E =0.000000E+00
       N       E                     dE             d eps       ncg     rms          rms(c)
DAV:   1    -0.107516741624E+03   -0.10141E-09   -0.13945E-13 19392   0.174E-10    0.579E-05
DAV:   2    -0.107516741623E+03    0.34515E-09    0.18055E-13 19392   0.111E-10    0.579E-05
DAV:   3    -0.107516741624E+03   -0.45020E-09   -0.14311E-13 19392   0.105E-10    0.579E-05
DAV:   4    -0.107516741624E+03   -0.27603E-09   -0.14560E-14 19392   0.106E-10    0.579E-05
DAV:   5    -0.107516741623E+03    0.82082E-09    0.15710E-13 19392   0.883E-11    0.579E-05
DAV:   6    -0.107516741624E+03   -0.33015E-09    0.12601E-13 19392   0.185E-10
  99 F= -.10751674E+03 E0= -.10751674E+03  d E =0.000000E+00
       N       E                     dE             d eps       ncg     rms          rms(c)
DAV:   1    -0.107516741624E+03   -0.30877E-09    0.90891E-14 19392   0.129E-10    0.579E-05
DAV:   2    -0.107516741624E+03   -0.16735E-09    0.16490E-13 19392   0.104E-10    0.579E-05
DAV:   3    -0.107516741624E+03   -0.12551E-09    0.10235E-12 19392   0.105E-10    0.579E-05
DAV:   4    -0.107516741623E+03    0.68849E-09    0.82218E-14 19392   0.107E-10    0.579E-05
DAV:   5    -0.107516741623E+03   -0.19281E-09    0.35203E-14 19392   0.181E-10    0.579E-05
DAV:   6    -0.107516741623E+03    0.14825E-09   -0.46743E-14 19392   0.102E-10
 100 F= -.10751674E+03 E0= -.10751674E+03  d E =0.000000E+00
