 B  C 
 1.0000000000000000
     5.6740272189994743    0.0000000000000000    0.0000000000000000
     2.2246881039505344    4.6625667818125685    0.0000000000000000
     2.5485786522381519    1.1353210965285392    4.6496730580805394
 B   C  
  11   4
Cartesian
  5.6030604610102657  4.6585579767599059  3.7378693916875974
  7.1423043146675180  4.0994267089287204  1.4479642713884204
  7.3544021825091059  2.3830976437965155  3.7636961980603587
  4.8326047067851334  1.1430475092066557  0.9170030607427127
  3.3054745894614013  1.6977784549371229  3.1888867955455935
  3.0899247625694874  3.4206508674856182  0.8824879795700934
  8.5453875324517288  5.7521557390238147  4.6248799476637670
  9.5584431155029286  5.3841626811463703  3.1177755591868141
  9.6265923383294965  4.2058711031794305  4.6126920144197578
  1.8875134035296273  0.0618422885192509  0.0180030709209100
  0.8804416341205471  0.4276617224479057  1.5162054485369154
  0.7630141748042103  1.5027416295816607  0.0278456944284786
  6.4512458718929961  3.5362859283744181  2.8838812718643907
  4.0549660969294399  2.3056680414942177  1.7887301364882675
  5.2593304546834201  2.9052112507097809  2.3446274624240875
