  60  60   0   0
  0.6719064E+01  0.1033771E-08  0.1006612E-08  0.5103106E-09  0.5000000E-15
  1.000000000000000E-004
  CAR 
 unknown system                          
     16.01265592    -13.96538278  301      7.74731525      1.00000000
    -13.965  0.0000E+00  0.0000E+00
    -13.865  0.0000E+00  0.0000E+00
    -13.766  0.0000E+00  0.0000E+00
    -13.666  0.0000E+00  0.0000E+00
    -13.566  0.0000E+00  0.0000E+00
    -13.466  0.0000E+00  0.0000E+00
    -13.366  0.0000E+00  0.0000E+00
    -13.266  0.0000E+00  0.0000E+00
    -13.166  0.0000E+00  0.0000E+00
    -13.066  0.0000E+00  0.0000E+00
    -12.966  0.0000E+00  0.0000E+00
    -12.866  0.0000E+00  0.0000E+00
    -12.766  0.0000E+00  0.0000E+00
    -12.666  0.0000E+00  0.0000E+00
    -12.566  0.0000E+00  0.0000E+00
    -12.466  0.0000E+00  0.0000E+00
    -12.367  0.0000E+00  0.0000E+00
    -12.267  0.0000E+00  0.0000E+00
    -12.167  0.0000E+00  0.0000E+00
    -12.067  0.0000E+00  0.0000E+00
    -11.967  0.0000E+00  0.0000E+00
    -11.867  0.5382E-01  0.5908E-02
    -11.767  0.3543E-01  0.1001E-01
    -11.667  0.3352E-01  0.1326E-01
    -11.567  0.6273E-01  0.1694E-01
    -11.467  0.0000E+00  0.2000E-01
    -11.367  0.0000E+00  0.2000E-01
    -11.267  0.0000E+00  0.2000E-01
    -11.167  0.3330E-01  0.2144E-01
    -11.068  0.6072E-01  0.2581E-01
    -10.968  0.3821E-01  0.3061E-01
    -10.868  0.4894E-01  0.3456E-01
    -10.768  0.9558E-03  0.4000E-01
    -10.668  0.3881E-01  0.4198E-01
    -10.568  0.7977E-01  0.4826E-01
    -10.468  0.1562E+00  0.6236E-01
    -10.368  0.8880E-01  0.7859E-01
    -10.268  0.2256E+00  0.8613E-01
    -10.168  0.2480E-01  0.9956E-01
    -10.068  0.1127E+00  0.1015E+00
     -9.968  0.7195E-01  0.1095E+00
     -9.868  0.5762E-01  0.1160E+00
     -9.768  0.1569E-01  0.1199E+00
     -9.669  0.0000E+00  0.1200E+00
     -9.569  0.0000E+00  0.1200E+00
     -9.469  0.0000E+00  0.1200E+00
     -9.369  0.0000E+00  0.1200E+00
     -9.269  0.0000E+00  0.1200E+00
     -9.169  0.0000E+00  0.1200E+00
     -9.069  0.2225E-01  0.1205E+00
     -8.969  0.6004E-01  0.1281E+00
     -8.869  0.1150E+00  0.1367E+00
     -8.769  0.1146E+00  0.1471E+00
     -8.669  0.9279E-01  0.1594E+00
     -8.569  0.9851E-01  0.1686E+00
     -8.469  0.8659E-01  0.1785E+00
     -8.369  0.6953E-01  0.1827E+00
     -8.270  0.1266E+00  0.1933E+00
     -8.170  0.7247E-01  0.2038E+00
     -8.070  0.5942E-01  0.2101E+00
     -7.970  0.1029E+00  0.2174E+00
     -7.870  0.1099E+00  0.2269E+00
     -7.770  0.5740E-01  0.2368E+00
     -7.670  0.9457E-01  0.2430E+00
     -7.570  0.8699E-01  0.2540E+00
     -7.470  0.1982E-01  0.2592E+00
     -7.370  0.0000E+00  0.2600E+00
     -7.270  0.0000E+00  0.2600E+00
     -7.170  0.0000E+00  0.2600E+00
     -7.070  0.0000E+00  0.2600E+00
     -6.971  0.0000E+00  0.2600E+00
     -6.871  0.6591E-01  0.2623E+00
     -6.771  0.1328E+00  0.2748E+00
     -6.671  0.0000E+00  0.2800E+00
     -6.571  0.0000E+00  0.2800E+00
     -6.471  0.0000E+00  0.2800E+00
     -6.371  0.2218E-01  0.2804E+00
     -6.271  0.5267E-01  0.2845E+00
     -6.171  0.3791E-01  0.2893E+00
     -6.071  0.4200E-01  0.2930E+00
     -5.971  0.4441E-01  0.2994E+00
     -5.871  0.1329E+00  0.3052E+00
     -5.771  0.6417E-01  0.3176E+00
     -5.671  0.2393E-01  0.3206E+00
     -5.572  0.4505E-01  0.3243E+00
     -5.472  0.9948E-01  0.3298E+00
     -5.372  0.3584E-01  0.3364E+00
     -5.272  0.9981E-01  0.3433E+00
     -5.172  0.9988E-01  0.3524E+00
     -5.072  0.1259E+00  0.3639E+00
     -4.972  0.1746E+00  0.3771E+00
     -4.872  0.7597E-01  0.3896E+00
     -4.772  0.1158E+00  0.4016E+00
     -4.672  0.1066E+00  0.4117E+00
     -4.572  0.7258E-01  0.4205E+00
     -4.472  0.6727E-01  0.4271E+00
     -4.372  0.8594E-01  0.4347E+00
     -4.272  0.6373E-01  0.4426E+00
     -4.173  0.1108E+00  0.4506E+00
     -4.073  0.6716E-01  0.4613E+00
     -3.973  0.1000E+00  0.4687E+00
     -3.873  0.7032E-01  0.4783E+00
     -3.773  0.7572E-01  0.4847E+00
     -3.673  0.8573E-01  0.4907E+00
     -3.573  0.3393E-01  0.4970E+00
     -3.473  0.4446E-01  0.5007E+00
     -3.373  0.8038E-01  0.5072E+00
     -3.273  0.8993E-01  0.5154E+00
     -3.173  0.7351E-01  0.5222E+00
     -3.073  0.1124E+00  0.5313E+00
     -2.973  0.1059E+00  0.5433E+00
     -2.874  0.1203E+00  0.5554E+00
     -2.774  0.9287E-01  0.5660E+00
     -2.674  0.1204E+00  0.5765E+00
     -2.574  0.1149E+00  0.5873E+00
     -2.474  0.1058E+00  0.5986E+00
     -2.374  0.1230E+00  0.6118E+00
     -2.274  0.1047E+00  0.6222E+00
     -2.174  0.1275E+00  0.6330E+00
     -2.074  0.1462E+00  0.6473E+00
     -1.974  0.1170E+00  0.6598E+00
     -1.874  0.1249E+00  0.6730E+00
     -1.774  0.1406E+00  0.6856E+00
     -1.674  0.1607E+00  0.7002E+00
     -1.574  0.1322E+00  0.7139E+00
     -1.475  0.1222E+00  0.7278E+00
     -1.375  0.1489E+00  0.7407E+00
     -1.275  0.1321E+00  0.7548E+00
     -1.175  0.1348E+00  0.7684E+00
     -1.075  0.1109E+00  0.7805E+00
     -0.975  0.1395E+00  0.7927E+00
     -0.875  0.1675E+00  0.8072E+00
     -0.775  0.1537E+00  0.8231E+00
     -0.675  0.1436E+00  0.8379E+00
     -0.575  0.1654E+00  0.8532E+00
     -0.475  0.1515E+00  0.8685E+00
     -0.375  0.1608E+00  0.8855E+00
     -0.275  0.1735E+00  0.9028E+00
     -0.175  0.1737E+00  0.9188E+00
     -0.076  0.1639E+00  0.9360E+00
      0.024  0.1719E+00  0.9547E+00
      0.124  0.1699E+00  0.9714E+00
      0.224  0.1583E+00  0.9895E+00
      0.324  0.1707E+00  0.1006E+01
      0.424  0.1599E+00  0.1022E+01
      0.524  0.1723E+00  0.1039E+01
      0.624  0.1747E+00  0.1054E+01
      0.724  0.1560E+00  0.1071E+01
      0.824  0.1738E+00  0.1088E+01
      0.924  0.1527E+00  0.1104E+01
      1.024  0.1657E+00  0.1119E+01
      1.124  0.1741E+00  0.1137E+01
      1.223  0.1952E+00  0.1156E+01
      1.323  0.1729E+00  0.1172E+01
      1.423  0.1584E+00  0.1189E+01
      1.523  0.1691E+00  0.1207E+01
      1.623  0.1504E+00  0.1224E+01
      1.723  0.1696E+00  0.1243E+01
      1.823  0.1531E+00  0.1260E+01
      1.923  0.1533E+00  0.1276E+01
      2.023  0.1453E+00  0.1293E+01
      2.123  0.1453E+00  0.1309E+01
      2.223  0.1171E+00  0.1325E+01
      2.323  0.1323E+00  0.1339E+01
      2.423  0.1702E+00  0.1353E+01
      2.523  0.1476E+00  0.1369E+01
      2.622  0.1756E+00  0.1385E+01
      2.722  0.1511E+00  0.1400E+01
      2.822  0.1897E+00  0.1417E+01
      2.922  0.1638E+00  0.1435E+01
      3.022  0.1861E+00  0.1455E+01
      3.122  0.2088E+00  0.1476E+01
      3.222  0.1966E+00  0.1497E+01
      3.322  0.2069E+00  0.1519E+01
      3.422  0.1976E+00  0.1539E+01
      3.522  0.2222E+00  0.1560E+01
      3.622  0.1981E+00  0.1579E+01
      3.722  0.1664E+00  0.1599E+01
      3.822  0.1843E+00  0.1619E+01
      3.922  0.1759E+00  0.1636E+01
      4.021  0.1912E+00  0.1655E+01
      4.121  0.1649E+00  0.1674E+01
      4.221  0.1792E+00  0.1693E+01
      4.321  0.2028E+00  0.1715E+01
      4.421  0.1929E+00  0.1734E+01
      4.521  0.2108E+00  0.1752E+01
      4.621  0.2069E+00  0.1772E+01
      4.721  0.1746E+00  0.1792E+01
      4.821  0.1676E+00  0.1808E+01
      4.921  0.1529E+00  0.1824E+01
      5.021  0.1256E+00  0.1837E+01
      5.121  0.1347E+00  0.1851E+01
      5.221  0.1239E+00  0.1864E+01
      5.320  0.1072E+00  0.1875E+01
      5.420  0.1004E+00  0.1886E+01
      5.520  0.9220E-01  0.1895E+01
      5.620  0.9815E-01  0.1905E+01
      5.720  0.4722E-01  0.1912E+01
      5.820  0.2333E-01  0.1915E+01
      5.920  0.1654E-01  0.1917E+01
      6.020  0.1302E-01  0.1918E+01
      6.120  0.1085E-01  0.1920E+01
      6.220  0.0000E+00  0.1920E+01
      6.320  0.0000E+00  0.1920E+01
      6.420  0.0000E+00  0.1920E+01
      6.520  0.0000E+00  0.1920E+01
      6.620  0.0000E+00  0.1920E+01
      6.719  0.0000E+00  0.1920E+01
      6.819  0.0000E+00  0.1920E+01
      6.919  0.0000E+00  0.1920E+01
      7.019  0.0000E+00  0.1920E+01
      7.119  0.0000E+00  0.1920E+01
      7.219  0.0000E+00  0.1920E+01
      7.319  0.2293E-02  0.1920E+01
      7.419  0.2899E-01  0.1921E+01
      7.519  0.7802E-01  0.1927E+01
      7.619  0.1134E+00  0.1937E+01
      7.719  0.8260E-01  0.1948E+01
      7.819  0.1168E+00  0.1958E+01
      7.919  0.1112E+00  0.1968E+01
      8.019  0.1216E+00  0.1979E+01
      8.118  0.1666E+00  0.1993E+01
      8.218  0.1334E+00  0.2007E+01
      8.318  0.1121E+00  0.2019E+01
      8.418  0.1497E+00  0.2031E+01
      8.518  0.1150E+00  0.2047E+01
      8.618  0.1246E+00  0.2060E+01
      8.718  0.1079E+00  0.2070E+01
      8.818  0.4236E-01  0.2077E+01
      8.918  0.1273E-01  0.2080E+01
      9.018  0.1185E-01  0.2080E+01
      9.118  0.3435E-01  0.2083E+01
      9.218  0.2347E-01  0.2085E+01
      9.318  0.4014E-01  0.2089E+01
      9.417  0.6660E-01  0.2094E+01
      9.517  0.5796E-01  0.2101E+01
      9.617  0.6897E-01  0.2106E+01
      9.717  0.7170E-01  0.2113E+01
      9.817  0.8497E-01  0.2120E+01
      9.917  0.6641E-01  0.2129E+01
     10.017  0.5576E-01  0.2135E+01
     10.117  0.7200E-01  0.2141E+01
     10.217  0.6216E-01  0.2147E+01
     10.317  0.7400E-01  0.2154E+01
     10.417  0.8842E-01  0.2163E+01
     10.517  0.8451E-01  0.2171E+01
     10.617  0.9023E-01  0.2180E+01
     10.717  0.7550E-01  0.2188E+01
     10.816  0.1091E+00  0.2198E+01
     10.916  0.9467E-01  0.2207E+01
     11.016  0.9763E-01  0.2217E+01
     11.116  0.1281E+00  0.2228E+01
     11.216  0.1044E+00  0.2239E+01
     11.316  0.1309E+00  0.2251E+01
     11.416  0.1173E+00  0.2264E+01
     11.516  0.1156E+00  0.2276E+01
     11.616  0.1133E+00  0.2287E+01
     11.716  0.1383E+00  0.2300E+01
     11.816  0.1438E+00  0.2314E+01
     11.916  0.1236E+00  0.2327E+01
     12.016  0.1250E+00  0.2339E+01
     12.116  0.1255E+00  0.2351E+01
     12.215  0.1176E+00  0.2363E+01
     12.315  0.1267E+00  0.2375E+01
     12.415  0.1196E+00  0.2387E+01
     12.515  0.1363E+00  0.2401E+01
     12.615  0.1381E+00  0.2413E+01
     12.715  0.1379E+00  0.2426E+01
     12.815  0.1089E+00  0.2438E+01
     12.915  0.1450E+00  0.2451E+01
     13.015  0.1177E+00  0.2464E+01
     13.115  0.1391E+00  0.2477E+01
     13.215  0.1177E+00  0.2491E+01
     13.315  0.1433E+00  0.2503E+01
     13.415  0.9994E-01  0.2516E+01
     13.514  0.1706E+00  0.2530E+01
     13.614  0.1558E+00  0.2543E+01
     13.714  0.6594E-01  0.2553E+01
     13.814  0.2708E-01  0.2558E+01
     13.914  0.8033E-02  0.2559E+01
     14.014  0.0000E+00  0.2560E+01
     14.114  0.0000E+00  0.2560E+01
     14.214  0.0000E+00  0.2560E+01
     14.314  0.0000E+00  0.2560E+01
     14.414  0.0000E+00  0.2560E+01
     14.514  0.0000E+00  0.2560E+01
     14.614  0.0000E+00  0.2560E+01
     14.714  0.0000E+00  0.2560E+01
     14.814  0.0000E+00  0.2560E+01
     14.913  0.0000E+00  0.2560E+01
     15.013  0.0000E+00  0.2560E+01
     15.113  0.0000E+00  0.2560E+01
     15.213  0.0000E+00  0.2560E+01
     15.313  0.0000E+00  0.2560E+01
     15.413  0.0000E+00  0.2560E+01
     15.513  0.0000E+00  0.2560E+01
     15.613  0.0000E+00  0.2560E+01
     15.713  0.0000E+00  0.2560E+01
     15.813  0.0000E+00  0.2560E+01
     15.913  0.0000E+00  0.2560E+01
     16.013  0.0000E+00  0.2560E+01
