 B  C 
 1.0000000000000000
    10.3377066317602466    0.0000000000000000    0.0000000000000000
     4.5634081604386099    8.9722981109647399    0.0000000000000000
     2.1437104221106127    1.5983716778432726    4.3464241173212752
 B   C  
  45  15
Cartesian
  5.1814133355994123  4.8734189543553468  3.5000121354562745
  7.4991011231476143  9.4237492502286297  3.5264751475904874
 10.3015018277122987  4.9075168167983110  3.4820907450653018
 12.6286126850607054  9.3859315318743519  3.4967022656985849
  6.6373302963024425  4.1149097702399269  1.3259804688252588
  8.9789061282462264  8.6109480942294017  1.3458611162553993
 11.8286261476766228  4.0899563523894349  1.3484215104085067
 14.1505931463309267  8.6132633393552513  1.3817776471258902
  6.6311331038861541  2.6860505859384500  3.4979960247229358
  8.8324755628970166  7.1721977185533792  3.4792683465224243
 11.7972048466361930  2.7132984904484672  3.5278462494724372
 14.0432498288873031  7.1378654974208366  3.4993527464393064
  4.4452418115152383  1.1807108154297010  0.8403423451756685
  6.6520230842960668  5.6598415010294465  0.8160011415934666
  9.6090974825944517  1.2116300846435484  0.8780483149037395
 11.8627299632825167  5.6395735891524348  0.8325937247800463
  2.9636058728846257  2.0046304520894607  3.0160078311388405
  5.2005652486923735  6.4324626727314946  2.9899478527338750
  8.1058539171720501  1.9693737379399252  2.9796631019199342
 10.3288955604059911  6.4539289081062678  2.9735944679443529
  2.9934273214865521  3.3755738382291680  0.8437859525166821
  5.3093780526810246  7.9139688317856764  0.8887638373744955
  8.1113445262150297  3.4016137456006952  0.8107353378418813
 10.4491632545880915  7.8841452205370546  0.8308999528478979
  7.7788210515261902  6.0369979259344122  4.2981884732559639
 10.1762205014728817 10.5479901161193617  4.3099405389015306
 13.0062097045251672  6.0048716101024446  4.3050026812709534
 15.3434894506926369 10.5385925126592568  4.3271712357817727
  8.7784667976426700  5.5254562866127008  2.8843456368159610
 11.1302483520416349 10.0152072207200806  2.9080500905860580
 14.0095682021209136  5.4867280213841934  2.9182030708720301
  8.7480590459820782  4.6020573409743850  4.2913705888538667
 11.0642693281358415  9.0869114139814844  4.3085334520724849
 13.9479320117677457  4.5490766717621547  4.3193131211441154
 16.2832373546786471  9.0949507789475454  4.3285245706601856
  1.7643523854767591  0.0820947912598702  0.0687849269057886
  6.9150598512566432  0.0437269229121111  0.0124976951226293
  9.1397715870886369  4.5269074904825954  0.0099101582866834
  0.8003680888055066  0.5989051931453955  1.5128039512561726
  3.0434411517394322  5.0217325508817243  1.4130240721943141
  5.9528553220712475  0.5571467584918942  1.4161933111876646
  8.1668123367132850  5.0402584428464881  1.3912314090191782
  3.0833571339551100  5.9558870246215898  0.0186736016527064
  5.9834960036755982  1.4838917417132376  0.0205685677422866
  8.2169181102584474  5.9726456049874077  0.0076546769284068
 16.3520571807365478 10.0684581042850212  3.0033384140808446
  3.9440079823558918  4.5048664044684026  0.0206048390313462
  0.8076552401452478  1.4512079641887676  0.0676252684175183
  5.8997984690800678  3.7364867527748382  2.6672169153176712
  8.1443687745348665  8.2727653759980964  2.6479064521181037
 11.0614330615605692  3.7052331114893842  2.6763438983384149
 13.3212615907328225  8.1882653616990417  2.6501855252933719
  3.7380800433751573  2.3736429342235970  1.7056619456607165
  6.0181562835364231  6.8342828361388284  1.7106913444680290
  8.8867099761953909  2.3927145306143678  1.6519095356598552
 11.1734419039494384  6.8262250978382806  1.6748324216708099
  4.8355187130345758  3.0367179177146757  2.1890697798603962
  7.1020995614098901  7.5319208927812893  2.1795895016853901
  9.9567914871400838  3.0469545106764127  2.1968059718053299
 12.2289519491108098  7.5217579671920776  2.1687889848358406
