 B  C                                   
   1.00000000000000     
    10.1236948266838560    0.0000000000000000    0.0000000000000000
     5.2472230338509398    9.5998855187494971    0.0000000000000000
     4.1485552377343851    3.3722256598258360    8.4394775565801279
   B    C 
   101    19
Direct
  0.1546455732104590  0.4027833923926707  0.4028973908094073
  0.1595516164996837  0.4022496571175367  0.9017817901169707
  0.1546921294060297  0.9024141638328089  0.4030545315899019
  0.1593570058811764  0.9021773909878945  0.9021036864030378
  0.6539601256944039  0.4024547079164549  0.4029426162774215
  0.6592746689093829  0.4023095949602862  0.9017054835950375
  0.6594396745811721  0.9017667693088498  0.4022676569828434
  0.6587321116965370  0.9021429285651834  0.9016944739441612
  0.4028994996228690  0.4028994996228690  0.1552653695845123
  0.4018008511542632  0.4018008511542632  0.6587191684292932
  0.4028967555727476  0.9027861324252981  0.1548723844178141
  0.4021712110552187  0.9016822163844225  0.6586706922811771
  0.9027861324252981  0.4028967555727476  0.1548723844178141
  0.9016822163844225  0.4021712110552187  0.6586706922811771
  0.9022674793312575  0.9022674793312575  0.1601649069613416
  0.9017877555525260  0.9017877555525260  0.6586568160914510
  0.4027833923926707  0.1546455732104590  0.4028973908094073
  0.4022496571175367  0.1595516164996837  0.9017817901169707
  0.4024547079164549  0.6539601256944039  0.4029426162774215
  0.4023095949602862  0.6592746689093829  0.9017054835950375
  0.9024141638328018  0.1546921294060297  0.4030545315899019
  0.9021773909878945  0.1593570058811764  0.9021036864030378
  0.9017667693088498  0.6594396745811721  0.4022676569828434
  0.9021429285651834  0.6587321116965370  0.9016944739441612
  0.3453544117895433  0.0972166076073293  0.0971026091905927
  0.3404483685003186  0.0977503428824633  0.5982182098830293
  0.3453078555939726  0.5975858361671982  0.0969454684100981
  0.3406429791188259  0.5978226090121126  0.5978963135969622
  0.8460398743055961  0.0975452920835451  0.0970573837225785
  0.8407253310906171  0.0976904050397138  0.5982945164049625
  0.8405603254188279  0.5982332306911502  0.0977323430171566
  0.8412678883034630  0.5978570714348166  0.5983055260558388
  0.0971005003771310  0.0971005003771310  0.3447346154154900
  0.0981991488457368  0.0981991488457368  0.8412808315707068
  0.0971032444272524  0.5972138675747019  0.3451276005821882
  0.0978287889447813  0.5983177836155775  0.8413293077188229
  0.5972138675747019  0.0971032444272524  0.3451276005821882
  0.5983177836155775  0.0978287889447813  0.8413293077188229
  0.5977325206687425  0.5977325206687425  0.3398350780386608
  0.5982122444474740  0.5982122444474740  0.8413431839085490
  0.0972166076073293  0.3453544117895433  0.0971026091905927
  0.0977503428824633  0.3404483685003186  0.5982182098830293
  0.0975452920835451  0.8460398743055961  0.0970573837225785
  0.0976904050397138  0.8407253310906171  0.5982945164049625
  0.5975858361671982  0.3453078555939726  0.0969454684100981
  0.5978226090121126  0.3406429791188259  0.5978963135969622
  0.5982332306911502  0.8405603254188279  0.0977323430171566
  0.5978570714348166  0.8412678883034630  0.5983055260558388
  0.3370719650318890  0.4950701182117569  0.4969637831311999
  0.3368782922154239  0.4973279350554805  0.9963011038553304
  0.3382758367602179  0.9949813992065870  0.4958029996646047
  0.3367929319710754  0.9977733346199713  0.9959468050523128
  0.8372796472819530  0.4969664228990780  0.4959460203036912
  0.8384580673818860  0.4957670315360474  0.9950552970567514
  0.8373193170097863  0.9955174215934690  0.4964824493559519
  0.8370396019050901  0.9967617556777810  0.9977754994045185
  0.4949503775461821  0.4949503775461821  0.3380205251242216
  0.4964577448854968  0.4964577448854968  0.8374531739205295
  0.4977601161063490  0.9958604536477296  0.3366962322712510
  0.4958739047010283  0.9969392828546617  0.8375774570368861
  0.9958604536477296  0.4977601161063490  0.3366962322712510
  0.9969392828546617  0.4958739047010283  0.8375774570368861
  0.9963972641130212  0.9963972641130212  0.3366465390513014
  0.9958725523304821  0.9958725523304821  0.8386194270490464
  0.4950701182117569  0.3370719650318890  0.4969637831311999
  0.4973279350554805  0.3368782922154239  0.9963011038553304
  0.4969664228990780  0.8372796472819530  0.4959460203036912
  0.4957670315360474  0.8384580673818860  0.9950552970567514
  0.9949813992065870  0.3382758367602179  0.4958029996646047
  0.9977733346199713  0.3367929319710754  0.9959468050523128
  0.9955174215934690  0.8373193170097863  0.4964824493559519
  0.9967617556777810  0.8370396019050901  0.9977754994045185
  0.1629280499681158  0.0049298947882406  0.0030362298687976
  0.1631217227845809  0.0026720779445171  0.5036988961446696
  0.1617241782397869  0.5050186007934130  0.0041970133353928
  0.1632070830289294  0.5022266653800287  0.5040531949476872
  0.6627204127180448  0.0030335901009195  0.0040539926963064
  0.6615419926181119  0.0042329814639501  0.5049447029432486
  0.6626807429902115  0.5044825784065310  0.0035175636440457
  0.6629604580949078  0.5032382443222190  0.5022245005954815
  0.0050496354538154  0.0050496354538154  0.1619794898757831
  0.0035422681145008  0.0035422681145008  0.6625468860794683
  0.0022398968936486  0.5041395463522704  0.1633037827287538
  0.0041261082989692  0.5030607171453383  0.6624226029631117
  0.5041395463522704  0.0022398968936486  0.1633037827287538
  0.5030607171453383  0.0041261082989692  0.6624226029631117
  0.5036027358869788  0.5036027358869788  0.1633534759487034
  0.5041274476695179  0.5041274476695179  0.6613806329509515
  0.0049298947882406  0.1629280499681158  0.0030362298687976
  0.0026720779445171  0.1631217227845809  0.5036988961446696
  0.0030335901009195  0.6627204127180448  0.0040539926963064
  0.0042329814639501  0.6615419926181119  0.5049447029432486
  0.5050186007934130  0.1617241782397869  0.0041970133353928
  0.5022266653800287  0.1632070830289294  0.5040531949476872
  0.5044825784065310  0.6626807429902115  0.0035175636440457
  0.5032382443222190  0.6629604580949078  0.5022245005954815
  0.2500000000000000  0.2500000000000000  0.7500000000000000
  0.2500000000000000  0.7500000000000000  0.7500000000000000
  0.7500000000000000  0.2500000000000000  0.7500000000000000
  0.7500000000000000  0.7500000000000000  0.2500000000000000
  0.7500000000000000  0.7500000000000000  0.7500000000000000
  0.3052120778603680  0.3052120778603680  0.3049745313765158
  0.3096758280458332  0.3096758280458332  0.8098185920119363
  0.3049991106897991  0.8051764814197071  0.3050557374044658
  0.3093883158769728  0.8094213357325941  0.8095047351587681
  0.8051764814197071  0.3049991106897991  0.3050557374044658
  0.8094213357325941  0.3093883158769728  0.8095047351587681
  0.8098459059878138  0.8098459059878138  0.3096497038821937
  0.8093477319535722  0.8093477319535722  0.8094180546644481
  0.1947879371396368  0.1947879371396368  0.1950254836234890
  0.1903241869541716  0.1903241869541716  0.6901814079880637
  0.1950009043102057  0.6948235185802929  0.1949442775955390
  0.1906116991230320  0.6905786642674059  0.6904952648412319
  0.6948235185802929  0.1950009043102057  0.1949442775955390
  0.6905786642674059  0.1906116991230320  0.6904952648412319
  0.6901540940121862  0.6901540940121862  0.1903503111178111
  0.6906522680464278  0.6906522680464278  0.6905819453355519
  0.2500000000000000  0.2500000000000000  0.2500000000000000
  0.2500000000000000  0.7500000000000000  0.2500000000000000
  0.7500000000000000  0.2500000000000000  0.2500000000000000
 
  0.00000000E+00  0.00000000E+00  0.00000000E+00
  0.00000000E+00  0.00000000E+00  0.00000000E+00
  0.00000000E+00  0.00000000E+00  0.00000000E+00
  0.00000000E+00  0.00000000E+00  0.00000000E+00
  0.00000000E+00  0.00000000E+00  0.00000000E+00
  0.00000000E+00  0.00000000E+00  0.00000000E+00
  0.00000000E+00  0.00000000E+00  0.00000000E+00
  0.00000000E+00  0.00000000E+00  0.00000000E+00
  0.00000000E+00  0.00000000E+00  0.00000000E+00
  0.00000000E+00  0.00000000E+00  0.00000000E+00
  0.00000000E+00  0.00000000E+00  0.00000000E+00
  0.00000000E+00  0.00000000E+00  0.00000000E+00
  0.00000000E+00  0.00000000E+00  0.00000000E+00
  0.00000000E+00  0.00000000E+00  0.00000000E+00
  0.00000000E+00  0.00000000E+00  0.00000000E+00
  0.00000000E+00  0.00000000E+00  0.00000000E+00
  0.00000000E+00  0.00000000E+00  0.00000000E+00
  0.00000000E+00  0.00000000E+00  0.00000000E+00
  0.00000000E+00  0.00000000E+00  0.00000000E+00
  0.00000000E+00  0.00000000E+00  0.00000000E+00
  0.00000000E+00  0.00000000E+00  0.00000000E+00
  0.00000000E+00  0.00000000E+00  0.00000000E+00
  0.00000000E+00  0.00000000E+00  0.00000000E+00
  0.00000000E+00  0.00000000E+00  0.00000000E+00
  0.00000000E+00  0.00000000E+00  0.00000000E+00
  0.00000000E+00  0.00000000E+00  0.00000000E+00
  0.00000000E+00  0.00000000E+00  0.00000000E+00
  0.00000000E+00  0.00000000E+00  0.00000000E+00
  0.00000000E+00  0.00000000E+00  0.00000000E+00
  0.00000000E+00  0.00000000E+00  0.00000000E+00
  0.00000000E+00  0.00000000E+00  0.00000000E+00
  0.00000000E+00  0.00000000E+00  0.00000000E+00
  0.00000000E+00  0.00000000E+00  0.00000000E+00
  0.00000000E+00  0.00000000E+00  0.00000000E+00
  0.00000000E+00  0.00000000E+00  0.00000000E+00
  0.00000000E+00  0.00000000E+00  0.00000000E+00
  0.00000000E+00  0.00000000E+00  0.00000000E+00
  0.00000000E+00  0.00000000E+00  0.00000000E+00
  0.00000000E+00  0.00000000E+00  0.00000000E+00
  0.00000000E+00  0.00000000E+00  0.00000000E+00
  0.00000000E+00  0.00000000E+00  0.00000000E+00
  0.00000000E+00  0.00000000E+00  0.00000000E+00
  0.00000000E+00  0.00000000E+00  0.00000000E+00
  0.00000000E+00  0.00000000E+00  0.00000000E+00
  0.00000000E+00  0.00000000E+00  0.00000000E+00
  0.00000000E+00  0.00000000E+00  0.00000000E+00
  0.00000000E+00  0.00000000E+00  0.00000000E+00
  0.00000000E+00  0.00000000E+00  0.00000000E+00
  0.00000000E+00  0.00000000E+00  0.00000000E+00
  0.00000000E+00  0.00000000E+00  0.00000000E+00
  0.00000000E+00  0.00000000E+00  0.00000000E+00
  0.00000000E+00  0.00000000E+00  0.00000000E+00
  0.00000000E+00  0.00000000E+00  0.00000000E+00
  0.00000000E+00  0.00000000E+00  0.00000000E+00
  0.00000000E+00  0.00000000E+00  0.00000000E+00
  0.00000000E+00  0.00000000E+00  0.00000000E+00
  0.00000000E+00  0.00000000E+00  0.00000000E+00
  0.00000000E+00  0.00000000E+00  0.00000000E+00
  0.00000000E+00  0.00000000E+00  0.00000000E+00
  0.00000000E+00  0.00000000E+00  0.00000000E+00
  0.00000000E+00  0.00000000E+00  0.00000000E+00
  0.00000000E+00  0.00000000E+00  0.00000000E+00
  0.00000000E+00  0.00000000E+00  0.00000000E+00
  0.00000000E+00  0.00000000E+00  0.00000000E+00
  0.00000000E+00  0.00000000E+00  0.00000000E+00
  0.00000000E+00  0.00000000E+00  0.00000000E+00
  0.00000000E+00  0.00000000E+00  0.00000000E+00
  0.00000000E+00  0.00000000E+00  0.00000000E+00
  0.00000000E+00  0.00000000E+00  0.00000000E+00
  0.00000000E+00  0.00000000E+00  0.00000000E+00
  0.00000000E+00  0.00000000E+00  0.00000000E+00
  0.00000000E+00  0.00000000E+00  0.00000000E+00
  0.00000000E+00  0.00000000E+00  0.00000000E+00
  0.00000000E+00  0.00000000E+00  0.00000000E+00
  0.00000000E+00  0.00000000E+00  0.00000000E+00
  0.00000000E+00  0.00000000E+00  0.00000000E+00
  0.00000000E+00  0.00000000E+00  0.00000000E+00
  0.00000000E+00  0.00000000E+00  0.00000000E+00
  0.00000000E+00  0.00000000E+00  0.00000000E+00
  0.00000000E+00  0.00000000E+00  0.00000000E+00
  0.00000000E+00  0.00000000E+00  0.00000000E+00
  0.00000000E+00  0.00000000E+00  0.00000000E+00
  0.00000000E+00  0.00000000E+00  0.00000000E+00
  0.00000000E+00  0.00000000E+00  0.00000000E+00
  0.00000000E+00  0.00000000E+00  0.00000000E+00
  0.00000000E+00  0.00000000E+00  0.00000000E+00
  0.00000000E+00  0.00000000E+00  0.00000000E+00
  0.00000000E+00  0.00000000E+00  0.00000000E+00
  0.00000000E+00  0.00000000E+00  0.00000000E+00
  0.00000000E+00  0.00000000E+00  0.00000000E+00
  0.00000000E+00  0.00000000E+00  0.00000000E+00
  0.00000000E+00  0.00000000E+00  0.00000000E+00
  0.00000000E+00  0.00000000E+00  0.00000000E+00
  0.00000000E+00  0.00000000E+00  0.00000000E+00
  0.00000000E+00  0.00000000E+00  0.00000000E+00
  0.00000000E+00  0.00000000E+00  0.00000000E+00
  0.00000000E+00  0.00000000E+00  0.00000000E+00
  0.00000000E+00  0.00000000E+00  0.00000000E+00
  0.00000000E+00  0.00000000E+00  0.00000000E+00
  0.00000000E+00  0.00000000E+00  0.00000000E+00
  0.00000000E+00  0.00000000E+00  0.00000000E+00
  0.00000000E+00  0.00000000E+00  0.00000000E+00
  0.00000000E+00  0.00000000E+00  0.00000000E+00
  0.00000000E+00  0.00000000E+00  0.00000000E+00
  0.00000000E+00  0.00000000E+00  0.00000000E+00
  0.00000000E+00  0.00000000E+00  0.00000000E+00
  0.00000000E+00  0.00000000E+00  0.00000000E+00
  0.00000000E+00  0.00000000E+00  0.00000000E+00
  0.00000000E+00  0.00000000E+00  0.00000000E+00
  0.00000000E+00  0.00000000E+00  0.00000000E+00
  0.00000000E+00  0.00000000E+00  0.00000000E+00
  0.00000000E+00  0.00000000E+00  0.00000000E+00
  0.00000000E+00  0.00000000E+00  0.00000000E+00
  0.00000000E+00  0.00000000E+00  0.00000000E+00
  0.00000000E+00  0.00000000E+00  0.00000000E+00
  0.00000000E+00  0.00000000E+00  0.00000000E+00
  0.00000000E+00  0.00000000E+00  0.00000000E+00
  0.00000000E+00  0.00000000E+00  0.00000000E+00
  0.00000000E+00  0.00000000E+00  0.00000000E+00
  0.00000000E+00  0.00000000E+00  0.00000000E+00
