  120  120  100    1
  0.6835014E+01  0.1012369E-08  0.1094035E-08  0.9990355E-09  0.5000000E-15
  1.000000000000000E-004
  CAR 
 unknown system                          
    379    112    256
 
  0.0000000E+00  0.0000000E+00  0.0000000E+00  0.4629630E-02
    1      -11.537019   1.000000
    2      -11.264337   1.000000
    3      -11.193361   1.000000
    4       -9.928236   1.000000
    5       -9.915763   1.000000
    6       -9.540513   1.000000
    7       -9.470425   1.000000
    8       -9.449177   1.000000
    9       -9.361536   1.000000
   10       -9.258852   1.000000
   11       -9.099791   1.000000
   12       -8.872935   1.000000
   13       -8.744566   1.000000
   14       -8.738020   1.000000
   15       -8.527509   1.000000
   16       -8.306437   1.000000
   17       -8.075718   1.000000
   18       -7.919051   1.000000
   19       -7.887344   1.000000
   20       -7.430927   1.000000
   21       -7.397026   1.000000
   22       -7.301147   1.000000
   23       -6.964821   1.000000
   24       -6.861413   1.000000
   25       -6.201861   1.000000
   26       -6.183560   1.000000
   27       -6.117873   1.000000
   28       -6.005288   1.000000
   29       -5.737480   1.000000
   30       -5.699825   1.000000
   31       -5.661798   1.000000
   32       -5.660517   1.000000
   33       -5.448341   1.000000
   34       -5.353016   1.000000
   35       -5.282738   1.000000
   36       -4.976867   1.000000
   37       -4.955740   1.000000
   38       -4.884687   1.000000
   39       -4.721826   1.000000
   40       -4.570749   1.000000
   41       -4.271792   1.000000
   42       -4.244828   1.000000
   43       -4.125144   1.000000
   44       -4.008334   1.000000
   45       -3.840917   1.000000
   46       -3.815992   1.000000
   47       -3.608831   1.000000
   48       -3.570422   1.000000
   49       -3.570111   1.000000
   50       -3.367157   1.000000
   51       -3.363445   1.000000
   52       -3.294416   1.000000
   53       -3.252288   1.000000
   54       -3.017726   1.000000
   55       -2.993055   1.000000
   56       -2.921607   1.000000
   57       -2.892131   1.000000
   58       -2.819051   1.000000
   59       -2.681872   1.000000
   60       -2.654791   1.000000
   61       -2.460722   1.000000
   62       -2.384306   1.000000
   63       -1.783796   1.000000
   64       -1.719003   1.000000
   65       -1.668320   1.000000
   66       -1.632746   1.000000
   67       -1.498578   1.000000
   68       -1.064782   1.000000
   69       -1.056218   1.000000
   70       -1.032568   1.000000
   71       -1.008441   1.000000
   72       -0.988437   1.000000
   73       -0.942386   1.000000
   74       -0.868941   1.000000
   75       -0.860885   1.000000
   76       -0.789280   1.000000
   77       -0.689786   1.000000
   78       -0.640411   1.000000
   79       -0.620108   1.000000
   80       -0.579696   1.000000
   81       -0.508603   1.000000
   82       -0.473523   1.000000
   83       -0.466427   1.000000
   84       -0.426461   1.000000
   85       -0.343967   1.000000
   86       -0.315183   1.000000
   87       -0.125229   1.000000
   88       -0.076497   1.000000
   89       -0.072577   1.000000
   90       -0.057077   1.000000
   91        0.160654   1.000000
   92        0.161418   1.000000
   93        0.180556   1.000000
   94        0.190334   1.000000
   95        0.288301   1.000000
   96        0.301188   1.000000
   97        0.333268   1.000000
   98        0.346077   1.000000
   99        0.377290   1.000000
  100        0.409124   1.000000
  101        0.445566   1.000000
  102        0.530302   1.000000
  103        0.531902   1.000000
  104        0.653354   1.000000
  105        0.667870   1.000000
  106        0.741741   1.000000
  107        0.878593   1.000000
  108        0.957552   1.000000
  109        0.985567   1.000000
  110        1.025599   1.000000
  111        1.082551   1.000000
  112        1.153656   1.000000
  113        1.173225   1.000000
  114        1.217967   1.000000
  115        1.223162   1.000000
  116        1.342643   1.000000
  117        1.441281   1.000000
  118        1.555605   1.000000
  119        1.572952   1.000000
  120        1.677456   1.000000
  121        1.725108   1.000000
  122        1.800052   1.000000
  123        1.864752   1.000000
  124        1.926403   1.000000
  125        2.020505   1.000000
  126        2.040046   1.000000
  127        2.081009   1.000000
  128        2.208347   1.000000
  129        2.271623   1.000000
  130        2.309717   1.000000
  131        2.337272   1.000000
  132        2.347103   1.000000
  133        2.464631   1.000000
  134        2.538066   1.000000
  135        2.560590   1.000000
  136        2.591501   1.000000
  137        2.624739   1.000000
  138        2.695398   1.000000
  139        2.776640   1.000000
  140        2.840506   1.000000
  141        2.937891   1.000000
  142        2.938077   1.000000
  143        2.996995   1.000000
  144        3.056500   1.000000
  145        3.068148   1.000000
  146        3.164032   1.000000
  147        3.184594   1.000000
  148        3.196403   1.000000
  149        3.256852   1.000000
  150        3.310388   1.000000
  151        3.355403   1.000000
  152        3.371500   1.000000
  153        3.396205   1.000000
  154        3.421699   1.000000
  155        3.444283   1.000000
  156        3.502437   1.000000
  157        3.665346   1.000000
  158        3.772565   1.000000
  159        3.777072   1.000000
  160        3.879998   1.000000
  161        3.958019   1.000000
  162        4.098010   1.000000
  163        4.107890   1.000000
  164        4.167300   1.000000
  165        4.187964   1.000000
  166        4.242606   1.000000
  167        4.261712   1.000000
  168        4.372343   1.000000
  169        4.473598   1.000000
  170        4.513279   1.000000
  171        4.548147   1.000000
  172        4.557156   1.000000
  173        4.656248   1.000000
  174        4.698980   1.000000
  175        4.757555   1.000000
  176        4.859560   1.000000
  177        4.881691   1.000000
  178        5.018023   1.000000
  179        5.048648   1.000000
  180        5.130976   1.000000
  181        5.174107   1.000000
  182        5.183354   1.000000
  183        5.201550   1.000000
  184        5.216445   1.000000
  185        5.223834   1.000000
  186        5.243994   1.000000
  187        5.299466   1.000000
  188        5.323917   1.019421
  189        5.389877   0.351275
  190        5.585611   0.000000
  191        5.683263   0.000000
  192        5.727223   0.000000
  193        6.583843   0.000000
  194        6.753744   0.000000
  195        6.947228   0.000000
  196        7.425147   0.000000
  197        7.660253   0.000000
  198        7.717029   0.000000
  199        8.188517   0.000000
  200        8.780997   0.000000
  201        8.880971   0.000000
  202        9.003217   0.000000
  203        9.101683   0.000000
  204        9.198624   0.000000
  205        9.275163   0.000000
  206        9.339412   0.000000
  207        9.385844   0.000000
  208        9.404302   0.000000
  209        9.753713   0.000000
  210        9.805420   0.000000
  211        9.821687   0.000000
  212        9.892913   0.000000
  213        9.945904   0.000000
  214       10.071085   0.000000
  215       10.309399   0.000000
  216       10.393081   0.000000
  217       10.524127   0.000000
  218       10.676397   0.000000
  219       10.811366   0.000000
  220       10.974109   0.000000
  221       11.030851   0.000000
  222       11.164683   0.000000
  223       11.328365   0.000000
  224       11.344220   0.000000
  225       11.418395   0.000000
  226       11.579207   0.000000
  227       11.634992   0.000000
  228       11.659009   0.000000
  229       11.739910   0.000000
  230       11.744087   0.000000
  231       11.834888   0.000000
  232       11.861617   0.000000
  233       11.876913   0.000000
  234       11.935730   0.000000
  235       12.015475   0.000000
  236       12.134114   0.000000
  237       12.167302   0.000000
  238       12.219602   0.000000
  239       12.239084   0.000000
  240       12.360280   0.000000
  241       12.407075   0.000000
  242       12.443459   0.000000
  243       12.718181   0.000000
  244       12.865868   0.000000
  245       12.903968   0.000000
  246       12.919260   0.000000
  247       13.073353   0.000000
  248       13.110513   0.000000
  249       13.211661   0.000000
  250       13.253750   0.000000
  251       13.297467   0.000000
  252       13.424767   0.000000
  253       13.600228   0.000000
  254       13.636034   0.000000
  255       13.682767   0.000000
  256       13.696593   0.000000
 
  0.1666667E+00  0.1387779E-16 -0.6938894E-17  0.9259259E-02
    1      -11.519774   1.000000
    2      -11.268184   1.000000
    3      -11.215523   1.000000
    4       -9.931913   1.000000
    5       -9.884052   1.000000
    6       -9.570863   1.000000
    7       -9.458830   1.000000
    8       -9.447233   1.000000
    9       -9.401254   1.000000
   10       -9.269666   1.000000
   11       -9.160972   1.000000
   12       -8.815151   1.000000
   13       -8.715501   1.000000
   14       -8.646744   1.000000
   15       -8.518261   1.000000
   16       -8.263969   1.000000
   17       -8.065656   1.000000
   18       -7.964198   1.000000
   19       -7.869080   1.000000
   20       -7.459262   1.000000
   21       -7.432681   1.000000
   22       -7.320263   1.000000
   23       -7.037898   1.000000
   24       -6.915880   1.000000
   25       -6.226741   1.000000
   26       -6.133528   1.000000
   27       -6.100566   1.000000
   28       -6.046636   1.000000
   29       -5.693995   1.000000
   30       -5.669318   1.000000
   31       -5.630577   1.000000
   32       -5.587927   1.000000
   33       -5.440946   1.000000
   34       -5.399807   1.000000
   35       -5.298644   1.000000
   36       -5.020303   1.000000
   37       -4.961442   1.000000
   38       -4.865776   1.000000
   39       -4.740903   1.000000
   40       -4.599233   1.000000
   41       -4.368078   1.000000
   42       -4.324379   1.000000
   43       -4.130575   1.000000
   44       -4.030476   1.000000
   45       -3.919074   1.000000
   46       -3.856491   1.000000
   47       -3.662947   1.000000
   48       -3.519025   1.000000
   49       -3.488338   1.000000
   50       -3.343066   1.000000
   51       -3.308649   1.000000
   52       -3.191492   1.000000
   53       -3.132964   1.000000
   54       -2.950575   1.000000
   55       -2.895102   1.000000
   56       -2.755967   1.000000
   57       -2.734543   1.000000
   58       -2.695727   1.000000
   59       -2.611725   1.000000
   60       -2.486396   1.000000
   61       -2.360063   1.000000
   62       -2.346825   1.000000
   63       -1.934850   1.000000
   64       -1.832486   1.000000
   65       -1.808399   1.000000
   66       -1.621798   1.000000
   67       -1.559392   1.000000
   68       -1.419544   1.000000
   69       -1.304449   1.000000
   70       -1.246150   1.000000
   71       -1.162503   1.000000
   72       -1.006453   1.000000
   73       -0.939532   1.000000
   74       -0.898433   1.000000
   75       -0.856546   1.000000
   76       -0.817729   1.000000
   77       -0.806108   1.000000
   78       -0.762273   1.000000
   79       -0.708610   1.000000
   80       -0.658387   1.000000
   81       -0.567690   1.000000
   82       -0.518602   1.000000
   83       -0.451770   1.000000
   84       -0.386404   1.000000
   85       -0.277437   1.000000
   86       -0.253086   1.000000
   87       -0.117400   1.000000
   88       -0.080338   1.000000
   89       -0.037486   1.000000
   90        0.014944   1.000000
   91        0.033494   1.000000
   92        0.111942   1.000000
   93        0.149000   1.000000
   94        0.199951   1.000000
   95        0.272635   1.000000
   96        0.337352   1.000000
   97        0.371518   1.000000
   98        0.397473   1.000000
   99        0.427879   1.000000
  100        0.468202   1.000000
  101        0.548393   1.000000
  102        0.551070   1.000000
  103        0.634860   1.000000
  104        0.675592   1.000000
  105        0.757690   1.000000
  106        0.801431   1.000000
  107        0.862518   1.000000
  108        0.882471   1.000000
  109        0.947363   1.000000
  110        0.970419   1.000000
  111        1.102171   1.000000
  112        1.150096   1.000000
  113        1.221210   1.000000
  114        1.269554   1.000000
  115        1.310294   1.000000
  116        1.370318   1.000000
  117        1.522107   1.000000
  118        1.617697   1.000000
  119        1.687695   1.000000
  120        1.747726   1.000000
  121        1.802434   1.000000
  122        1.888682   1.000000
  123        1.914530   1.000000
  124        1.965520   1.000000
  125        2.002403   1.000000
  126        2.109646   1.000000
  127        2.166086   1.000000
  128        2.230701   1.000000
  129        2.262300   1.000000
  130        2.309878   1.000000
  131        2.329182   1.000000
  132        2.433066   1.000000
  133        2.523764   1.000000
  134        2.588286   1.000000
  135        2.597506   1.000000
  136        2.628125   1.000000
  137        2.667741   1.000000
  138        2.675667   1.000000
  139        2.742671   1.000000
  140        2.774572   1.000000
  141        2.883635   1.000000
  142        2.962639   1.000000
  143        2.966005   1.000000
  144        3.015343   1.000000
  145        3.053033   1.000000
  146        3.075770   1.000000
  147        3.081917   1.000000
  148        3.144773   1.000000
  149        3.216324   1.000000
  150        3.233596   1.000000
  151        3.446192   1.000000
  152        3.476427   1.000000
  153        3.526869   1.000000
  154        3.542330   1.000000
  155        3.568495   1.000000
  156        3.658031   1.000000
  157        3.707901   1.000000
  158        3.721084   1.000000
  159        3.732758   1.000000
  160        3.780999   1.000000
  161        3.914670   1.000000
  162        3.968810   1.000000
  163        4.022720   1.000000
  164        4.105912   1.000000
  165        4.156071   1.000000
  166        4.242334   1.000000
  167        4.294994   1.000000
  168        4.319643   1.000000
  169        4.365835   1.000000
  170        4.418264   1.000000
  171        4.480136   1.000000
  172        4.522259   1.000000
  173        4.681865   1.000000
  174        4.719835   1.000000
  175        4.742270   1.000000
  176        4.792356   1.000000
  177        4.853581   1.000000
  178        4.983314   1.000000
  179        5.045535   1.000000
  180        5.072764   1.000000
  181        5.092843   1.000000
  182        5.098205   1.000000
  183        5.181659   1.000000
  184        5.209568   1.000000
  185        5.227089   1.000000
  186        5.277071   1.000000
  187        5.289065   1.000000
  188        5.306675   1.038989
  189        5.445055  -0.110750
  190        5.537208   0.000000
  191        5.613976   0.000000
  192        5.653662   0.000000
  193        6.641696   0.000000
  194        6.785045   0.000000
  195        6.951730   0.000000
  196        7.498966   0.000000
  197        7.706817   0.000000
  198        7.765563   0.000000
  199        8.223206   0.000000
  200        8.736798   0.000000
  201        8.798827   0.000000
  202        8.878058   0.000000
  203        9.171027   0.000000
  204        9.271342   0.000000
  205        9.282742   0.000000
  206        9.383931   0.000000
  207        9.463889   0.000000
  208        9.483745   0.000000
  209        9.739996   0.000000
  210        9.782764   0.000000
  211        9.867842   0.000000
  212        9.968473   0.000000
  213       10.048816   0.000000
  214       10.078276   0.000000
  215       10.394535   0.000000
  216       10.493181   0.000000
  217       10.519385   0.000000
  218       10.579045   0.000000
  219       10.771206   0.000000
  220       10.930211   0.000000
  221       11.043194   0.000000
  222       11.300807   0.000000
  223       11.351959   0.000000
  224       11.394689   0.000000
  225       11.415754   0.000000
  226       11.511171   0.000000
  227       11.624440   0.000000
  228       11.640788   0.000000
  229       11.737923   0.000000
  230       11.807451   0.000000
  231       11.809806   0.000000
  232       11.853701   0.000000
  233       11.937534   0.000000
  234       11.990514   0.000000
  235       12.003542   0.000000
  236       12.041150   0.000000
  237       12.107449   0.000000
  238       12.227456   0.000000
  239       12.247913   0.000000
  240       12.256414   0.000000
  241       12.417125   0.000000
  242       12.548529   0.000000
  243       12.620843   0.000000
  244       12.752622   0.000000
  245       12.801914   0.000000
  246       12.828895   0.000000
  247       12.933388   0.000000
  248       13.037419   0.000000
  249       13.093804   0.000000
  250       13.154496   0.000000
  251       13.209486   0.000000
  252       13.311375   0.000000
  253       13.568201   0.000000
  254       13.624849   0.000000
  255       13.757764   0.000000
  256       13.786581   0.000000
 
  0.3333333E+00  0.2775558E-16  0.2775558E-16  0.9259259E-02
    1      -11.472958   1.000000
    2      -11.298980   1.000000
    3      -11.248455   1.000000
    4       -9.939286   1.000000
    5       -9.799669   1.000000
    6       -9.618368   1.000000
    7       -9.542373   1.000000
    8       -9.431976   1.000000
    9       -9.399305   1.000000
   10       -9.295810   1.000000
   11       -9.235657   1.000000
   12       -8.720333   1.000000
   13       -8.639851   1.000000
   14       -8.533274   1.000000
   15       -8.494925   1.000000
   16       -8.148956   1.000000
   17       -8.068961   1.000000
   18       -8.016032   1.000000
   19       -7.808565   1.000000
   20       -7.576042   1.000000
   21       -7.486075   1.000000
   22       -7.356123   1.000000
   23       -7.190377   1.000000
   24       -7.028814   1.000000
   25       -6.265291   1.000000
   26       -6.180877   1.000000
   27       -5.993573   1.000000
   28       -5.974891   1.000000
   29       -5.669495   1.000000
   30       -5.625243   1.000000
   31       -5.585482   1.000000
   32       -5.547183   1.000000
   33       -5.427769   1.000000
   34       -5.347133   1.000000
   35       -5.293972   1.000000
   36       -5.179916   1.000000
   37       -4.999248   1.000000
   38       -4.928715   1.000000
   39       -4.736739   1.000000
   40       -4.643957   1.000000
   41       -4.406866   1.000000
   42       -4.344079   1.000000
   43       -4.129459   1.000000
   44       -4.119504   1.000000
   45       -4.062799   1.000000
   46       -3.920657   1.000000
   47       -3.844332   1.000000
   48       -3.618444   1.000000
   49       -3.325780   1.000000
   50       -3.139833   1.000000
   51       -2.993081   1.000000
   52       -2.978902   1.000000
   53       -2.795908   1.000000
   54       -2.700760   1.000000
   55       -2.661222   1.000000
   56       -2.635393   1.000000
   57       -2.495704   1.000000
   58       -2.480399   1.000000
   59       -2.356172   1.000000
   60       -2.245868   1.000000
   61       -2.212851   1.000000
   62       -2.167160   1.000000
   63       -2.109875   1.000000
   64       -2.103907   1.000000
   65       -1.922465   1.000000
   66       -1.847275   1.000000
   67       -1.783085   1.000000
   68       -1.710980   1.000000
   69       -1.546308   1.000000
   70       -1.457102   1.000000
   71       -1.407039   1.000000
   72       -1.311770   1.000000
   73       -1.229572   1.000000
   74       -1.212517   1.000000
   75       -1.093371   1.000000
   76       -1.021750   1.000000
   77       -0.923682   1.000000
   78       -0.858389   1.000000
   79       -0.791662   1.000000
   80       -0.753410   1.000000
   81       -0.712687   1.000000
   82       -0.550552   1.000000
   83       -0.531733   1.000000
   84       -0.379336   1.000000
   85       -0.338274   1.000000
   86       -0.222457   1.000000
   87       -0.158503   1.000000
   88       -0.123245   1.000000
   89       -0.076783   1.000000
   90        0.033088   1.000000
   91        0.051140   1.000000
   92        0.115700   1.000000
   93        0.173355   1.000000
   94        0.223803   1.000000
   95        0.242510   1.000000
   96        0.316687   1.000000
   97        0.437356   1.000000
   98        0.470305   1.000000
   99        0.496218   1.000000
  100        0.524757   1.000000
  101        0.591194   1.000000
  102        0.627756   1.000000
  103        0.740083   1.000000
  104        0.843732   1.000000
  105        0.862844   1.000000
  106        0.934005   1.000000
  107        0.958098   1.000000
  108        1.004127   1.000000
  109        1.056794   1.000000
  110        1.128265   1.000000
  111        1.170044   1.000000
  112        1.206816   1.000000
  113        1.284928   1.000000
  114        1.290264   1.000000
  115        1.478203   1.000000
  116        1.503679   1.000000
  117        1.662871   1.000000
  118        1.698711   1.000000
  119        1.772253   1.000000
  120        1.793733   1.000000
  121        1.836739   1.000000
  122        1.898752   1.000000
  123        2.084041   1.000000
  124        2.138597   1.000000
  125        2.153312   1.000000
  126        2.167351   1.000000
  127        2.172817   1.000000
  128        2.196890   1.000000
  129        2.213784   1.000000
  130        2.259813   1.000000
  131        2.325249   1.000000
  132        2.379977   1.000000
  133        2.470907   1.000000
  134        2.527308   1.000000
  135        2.555883   1.000000
  136        2.638417   1.000000
  137        2.723544   1.000000
  138        2.754084   1.000000
  139        2.834308   1.000000
  140        2.850731   1.000000
  141        2.888230   1.000000
  142        2.947857   1.000000
  143        2.974500   1.000000
  144        2.996620   1.000000
  145        3.035921   1.000000
  146        3.071771   1.000000
  147        3.111717   1.000000
  148        3.154448   1.000000
  149        3.324922   1.000000
  150        3.378331   1.000000
  151        3.413474   1.000000
  152        3.460120   1.000000
  153        3.522150   1.000000
  154        3.610400   1.000000
  155        3.643326   1.000000
  156        3.688390   1.000000
  157        3.720291   1.000000
  158        3.750096   1.000000
  159        3.784054   1.000000
  160        3.816693   1.000000
  161        3.879747   1.000000
  162        3.914902   1.000000
  163        3.960938   1.000000
  164        4.008350   1.000000
  165        4.073161   1.000000
  166        4.169015   1.000000
  167        4.171028   1.000000
  168        4.248049   1.000000
  169        4.292325   1.000000
  170        4.338206   1.000000
  171        4.423673   1.000000
  172        4.520793   1.000000
  173        4.539492   1.000000
  174        4.557761   1.000000
  175        4.677031   1.000000
  176        4.762066   1.000000
  177        4.775789   1.000000
  178        4.830532   1.000000
  179        4.886761   1.000000
  180        4.905301   1.000000
  181        4.958666   1.000000
  182        5.062444   1.000000
  183        5.140853   1.000000
  184        5.199154   1.000000
  185        5.221460   1.000000
  186        5.227002   1.000000
  187        5.292810   1.000000
  188        5.341162   1.006931
  189        5.424067   0.025328
  190        5.457218  -0.024651
  191        5.530711   0.000000
  192        5.578536   0.000000
  193        6.756516   0.000000
  194        6.843762   0.000000
  195        6.942912   0.000000
  196        7.650406   0.000000
  197        7.788087   0.000000
  198        7.852743   0.000000
  199        8.318294   0.000000
  200        8.568234   0.000000
  201        8.692953   0.000000
  202        8.829808   0.000000
  203        9.179774   0.000000
  204        9.263064   0.000000
  205        9.351062   0.000000
  206        9.512362   0.000000
  207        9.634655   0.000000
  208        9.714416   0.000000
  209        9.762659   0.000000
  210        9.802939   0.000000
  211        9.905230   0.000000
  212       10.005269   0.000000
  213       10.113790   0.000000
  214       10.402016   0.000000
  215       10.444664   0.000000
  216       10.459220   0.000000
  217       10.511422   0.000000
  218       10.755743   0.000000
  219       10.833376   0.000000
  220       10.908104   0.000000
  221       11.041643   0.000000
  222       11.198187   0.000000
  223       11.335469   0.000000
  224       11.375880   0.000000
  225       11.390794   0.000000
  226       11.429113   0.000000
  227       11.630294   0.000000
  228       11.701343   0.000000
  229       11.719536   0.000000
  230       11.765062   0.000000
  231       11.811904   0.000000
  232       11.843842   0.000000
  233       11.909866   0.000000
  234       12.024971   0.000000
  235       12.044562   0.000000
  236       12.062496   0.000000
  237       12.082901   0.000000
  238       12.162637   0.000000
  239       12.209388   0.000000
  240       12.282648   0.000000
  241       12.295957   0.000000
  242       12.318096   0.000000
  243       12.389571   0.000000
  244       12.580533   0.000000
  245       12.678122   0.000000
  246       12.813784   0.000000
  247       12.948380   0.000000
  248       12.996502   0.000000
  249       13.048902   0.000000
  250       13.093021   0.000000
  251       13.160976   0.000000
  252       13.263776   0.000000
  253       13.298293   0.000000
  254       13.426124   0.000000
  255       13.760604   0.000000
  256       13.783229   0.000000
 
  0.5000000E+00  0.5551115E-16  0.6938894E-16  0.4629630E-02
    1      -11.430394   1.000000
    2      -11.344010   1.000000
    3      -11.254187   1.000000
    4       -9.943095   1.000000
    5       -9.705758   1.000000
    6       -9.653357   1.000000
    7       -9.631791   1.000000
    8       -9.437087   1.000000
    9       -9.346665   1.000000
   10       -9.336400   1.000000
   11       -9.260719   1.000000
   12       -8.662174   1.000000
   13       -8.596935   1.000000
   14       -8.575010   1.000000
   15       -8.395849   1.000000
   16       -8.189069   1.000000
   17       -8.013429   1.000000
   18       -7.953296   1.000000
   19       -7.826458   1.000000
   20       -7.598703   1.000000
   21       -7.490119   1.000000
   22       -7.470262   1.000000
   23       -7.236474   1.000000
   24       -7.092944   1.000000
   25       -6.264964   1.000000
   26       -6.247520   1.000000
   27       -5.841333   1.000000
   28       -5.811349   1.000000
   29       -5.805705   1.000000
   30       -5.773937   1.000000
   31       -5.526260   1.000000
   32       -5.455159   1.000000
   33       -5.424454   1.000000
   34       -5.362971   1.000000
   35       -5.207488   1.000000
   36       -5.189964   1.000000
   37       -5.091677   1.000000
   38       -5.046772   1.000000
   39       -4.727867   1.000000
   40       -4.639241   1.000000
   41       -4.337421   1.000000
   42       -4.319329   1.000000
   43       -4.186138   1.000000
   44       -4.110193   1.000000
   45       -4.105260   1.000000
   46       -4.013666   1.000000
   47       -3.869835   1.000000
   48       -3.795886   1.000000
   49       -3.033852   1.000000
   50       -2.991740   1.000000
   51       -2.878787   1.000000
   52       -2.758575   1.000000
   53       -2.644678   1.000000
   54       -2.629837   1.000000
   55       -2.561837   1.000000
   56       -2.535263   1.000000
   57       -2.451906   1.000000
   58       -2.450230   1.000000
   59       -2.305619   1.000000
   60       -2.289332   1.000000
   61       -2.236751   1.000000
   62       -2.176195   1.000000
   63       -2.000616   1.000000
   64       -1.988536   1.000000
   65       -1.926785   1.000000
   66       -1.875588   1.000000
   67       -1.750771   1.000000
   68       -1.709811   1.000000
   69       -1.678668   1.000000
   70       -1.658501   1.000000
   71       -1.594375   1.000000
   72       -1.550173   1.000000
   73       -1.382743   1.000000
   74       -1.284297   1.000000
   75       -1.214203   1.000000
   76       -1.194925   1.000000
   77       -1.181131   1.000000
   78       -1.079692   1.000000
   79       -0.750975   1.000000
   80       -0.734224   1.000000
   81       -0.711314   1.000000
   82       -0.607570   1.000000
   83       -0.527400   1.000000
   84       -0.474246   1.000000
   85       -0.409680   1.000000
   86       -0.355853   1.000000
   87       -0.272785   1.000000
   88       -0.095288   1.000000
   89       -0.010214   1.000000
   90        0.055656   1.000000
   91        0.124794   1.000000
   92        0.167597   1.000000
   93        0.173584   1.000000
   94        0.216584   1.000000
   95        0.313499   1.000000
   96        0.328766   1.000000
   97        0.393872   1.000000
   98        0.405976   1.000000
   99        0.512156   1.000000
  100        0.558708   1.000000
  101        0.682567   1.000000
  102        0.682652   1.000000
  103        0.821126   1.000000
  104        0.848276   1.000000
  105        0.935712   1.000000
  106        1.026615   1.000000
  107        1.095778   1.000000
  108        1.112136   1.000000
  109        1.145982   1.000000
  110        1.174477   1.000000
  111        1.237845   1.000000
  112        1.300700   1.000000
  113        1.301373   1.000000
  114        1.322537   1.000000
  115        1.447890   1.000000
  116        1.572917   1.000000
  117        1.584849   1.000000
  118        1.641012   1.000000
  119        1.876542   1.000000
  120        1.899600   1.000000
  121        1.982662   1.000000
  122        2.009331   1.000000
  123        2.027315   1.000000
  124        2.063072   1.000000
  125        2.078330   1.000000
  126        2.102766   1.000000
  127        2.201878   1.000000
  128        2.212746   1.000000
  129        2.271220   1.000000
  130        2.350594   1.000000
  131        2.386764   1.000000
  132        2.436001   1.000000
  133        2.466330   1.000000
  134        2.479465   1.000000
  135        2.550219   1.000000
  136        2.572126   1.000000
  137        2.689978   1.000000
  138        2.743060   1.000000
  139        2.801942   1.000000
  140        2.811451   1.000000
  141        2.822066   1.000000
  142        2.867176   1.000000
  143        2.979677   1.000000
  144        3.068197   1.000000
  145        3.142648   1.000000
  146        3.152820   1.000000
  147        3.211748   1.000000
  148        3.240035   1.000000
  149        3.307763   1.000000
  150        3.345689   1.000000
  151        3.396629   1.000000
  152        3.412815   1.000000
  153        3.463200   1.000000
  154        3.553756   1.000000
  155        3.699328   1.000000
  156        3.715584   1.000000
  157        3.818347   1.000000
  158        3.853236   1.000000
  159        3.869297   1.000000
  160        3.894878   1.000000
  161        3.916570   1.000000
  162        3.920031   1.000000
  163        3.982805   1.000000
  164        4.001599   1.000000
  165        4.045125   1.000000
  166        4.054839   1.000000
  167        4.084218   1.000000
  168        4.159535   1.000000
  169        4.314525   1.000000
  170        4.372480   1.000000
  171        4.422124   1.000000
  172        4.435087   1.000000
  173        4.457614   1.000000
  174        4.488661   1.000000
  175        4.637267   1.000000
  176        4.653419   1.000000
  177        4.683173   1.000000
  178        4.777792   1.000000
  179        4.799420   1.000000
  180        4.823964   1.000000
  181        4.908955   1.000000
  182        4.922250   1.000000
  183        5.143800   1.000000
  184        5.158779   1.000000
  185        5.221005   1.000000
  186        5.247237   1.000000
  187        5.272502   1.000000
  188        5.353021   0.988692
  189        5.373443   0.563217
  190        5.378641   0.171222
  191        5.541861   0.000000
  192        5.600276   0.000000
  193        6.827076   0.000000
  194        6.890947   0.000000
  195        6.900482   0.000000
  196        7.747726   0.000000
  197        7.799007   0.000000
  198        7.889771   0.000000
  199        8.455325   0.000000
  200        8.456225   0.000000
  201        8.570987   0.000000
  202        8.917407   0.000000
  203        9.060113   0.000000
  204        9.305322   0.000000
  205        9.334325   0.000000
  206        9.639239   0.000000
  207        9.680430   0.000000
  208        9.745294   0.000000
  209        9.895188   0.000000
  210        9.922505   0.000000
  211        9.936902   0.000000
  212       10.104039   0.000000
  213       10.165916   0.000000
  214       10.290282   0.000000
  215       10.301926   0.000000
  216       10.532715   0.000000
  217       10.746998   0.000000
  218       10.774541   0.000000
  219       10.789511   0.000000
  220       10.910842   0.000000
  221       11.216163   0.000000
  222       11.248732   0.000000
  223       11.269297   0.000000
  224       11.338241   0.000000
  225       11.408733   0.000000
  226       11.541863   0.000000
  227       11.570658   0.000000
  228       11.596298   0.000000
  229       11.613649   0.000000
  230       11.624190   0.000000
  231       11.638880   0.000000
  232       11.736748   0.000000
  233       11.856240   0.000000
  234       11.867776   0.000000
  235       12.030162   0.000000
  236       12.057966   0.000000
  237       12.161026   0.000000
  238       12.214909   0.000000
  239       12.284557   0.000000
  240       12.309340   0.000000
  241       12.352110   0.000000
  242       12.396764   0.000000
  243       12.456600   0.000000
  244       12.460643   0.000000
  245       12.757074   0.000000
  246       12.757324   0.000000
  247       12.897326   0.000000
  248       12.939227   0.000000
  249       12.970302   0.000000
  250       12.986681   0.000000
  251       13.127152   0.000000
  252       13.155627   0.000000
  253       13.360049   0.000000
  254       13.409397   0.000000
  255       13.654445   0.000000
  256       13.702361   0.000000
 
  0.0000000E+00  0.1666667E+00  0.0000000E+00  0.9259259E-02
    1      -11.525260   1.000000
    2      -11.278756   1.000000
    3      -11.194200   1.000000
    4       -9.922576   1.000000
    5       -9.895037   1.000000
    6       -9.559561   1.000000
    7       -9.527089   1.000000
    8       -9.473443   1.000000
    9       -9.330767   1.000000
   10       -9.243398   1.000000
   11       -9.224802   1.000000
   12       -8.769261   1.000000
   13       -8.663117   1.000000
   14       -8.653510   1.000000
   15       -8.492553   1.000000
   16       -8.286484   1.000000
   17       -8.100046   1.000000
   18       -7.965604   1.000000
   19       -7.864385   1.000000
   20       -7.483042   1.000000
   21       -7.439701   1.000000
   22       -7.332080   1.000000
   23       -7.044141   1.000000
   24       -6.915546   1.000000
   25       -6.179705   1.000000
   26       -6.173041   1.000000
   27       -6.107918   1.000000
   28       -5.977603   1.000000
   29       -5.778321   1.000000
   30       -5.711592   1.000000
   31       -5.661109   1.000000
   32       -5.589759   1.000000
   33       -5.468378   1.000000
   34       -5.279559   1.000000
   35       -5.265108   1.000000
   36       -4.997971   1.000000
   37       -4.941900   1.000000
   38       -4.927461   1.000000
   39       -4.686502   1.000000
   40       -4.606467   1.000000
   41       -4.375681   1.000000
   42       -4.274420   1.000000
   43       -4.147835   1.000000
   44       -4.027491   1.000000
   45       -3.883181   1.000000
   46       -3.850978   1.000000
   47       -3.649066   1.000000
   48       -3.536068   1.000000
   49       -3.461228   1.000000
   50       -3.382601   1.000000
   51       -3.317711   1.000000
   52       -3.238101   1.000000
   53       -3.086250   1.000000
   54       -2.913533   1.000000
   55       -2.895186   1.000000
   56       -2.823928   1.000000
   57       -2.769494   1.000000
   58       -2.723336   1.000000
   59       -2.601236   1.000000
   60       -2.487889   1.000000
   61       -2.398768   1.000000
   62       -2.331996   1.000000
   63       -1.943301   1.000000
   64       -1.838393   1.000000
   65       -1.794722   1.000000
   66       -1.698182   1.000000
   67       -1.552451   1.000000
   68       -1.351510   1.000000
   69       -1.266760   1.000000
   70       -1.196835   1.000000
   71       -1.070151   1.000000
   72       -1.035113   1.000000
   73       -0.942894   1.000000
   74       -0.934237   1.000000
   75       -0.895276   1.000000
   76       -0.838041   1.000000
   77       -0.806377   1.000000
   78       -0.671409   1.000000
   79       -0.639118   1.000000
   80       -0.611986   1.000000
   81       -0.588851   1.000000
   82       -0.584319   1.000000
   83       -0.498764   1.000000
   84       -0.398854   1.000000
   85       -0.367060   1.000000
   86       -0.360237   1.000000
   87       -0.289366   1.000000
   88       -0.183315   1.000000
   89       -0.140507   1.000000
   90       -0.028448   1.000000
   91        0.043698   1.000000
   92        0.108313   1.000000
   93        0.147531   1.000000
   94        0.203007   1.000000
   95        0.263254   1.000000
   96        0.273929   1.000000
   97        0.346476   1.000000
   98        0.411133   1.000000
   99        0.449170   1.000000
  100        0.558940   1.000000
  101        0.637631   1.000000
  102        0.671359   1.000000
  103        0.732600   1.000000
  104        0.778353   1.000000
  105        0.802732   1.000000
  106        0.840927   1.000000
  107        0.920378   1.000000
  108        0.957265   1.000000
  109        1.011830   1.000000
  110        1.055936   1.000000
  111        1.069023   1.000000
  112        1.101901   1.000000
  113        1.135976   1.000000
  114        1.229096   1.000000
  115        1.266956   1.000000
  116        1.376171   1.000000
  117        1.558835   1.000000
  118        1.595693   1.000000
  119        1.748254   1.000000
  120        1.772217   1.000000
  121        1.817127   1.000000
  122        1.832153   1.000000
  123        1.971554   1.000000
  124        2.023789   1.000000
  125        2.089876   1.000000
  126        2.098564   1.000000
  127        2.119314   1.000000
  128        2.212734   1.000000
  129        2.249705   1.000000
  130        2.286365   1.000000
  131        2.350909   1.000000
  132        2.412750   1.000000
  133        2.515724   1.000000
  134        2.593992   1.000000
  135        2.628333   1.000000
  136        2.662973   1.000000
  137        2.699520   1.000000
  138        2.737958   1.000000
  139        2.781300   1.000000
  140        2.811044   1.000000
  141        2.905901   1.000000
  142        2.937177   1.000000
  143        2.983518   1.000000
  144        3.003019   1.000000
  145        3.012080   1.000000
  146        3.078792   1.000000
  147        3.127791   1.000000
  148        3.146821   1.000000
  149        3.190121   1.000000
  150        3.281960   1.000000
  151        3.328016   1.000000
  152        3.428762   1.000000
  153        3.489442   1.000000
  154        3.500279   1.000000
  155        3.539432   1.000000
  156        3.587800   1.000000
  157        3.707379   1.000000
  158        3.719718   1.000000
  159        3.774143   1.000000
  160        3.864568   1.000000
  161        3.917464   1.000000
  162        3.973734   1.000000
  163        3.992575   1.000000
  164        4.053499   1.000000
  165        4.168637   1.000000
  166        4.191348   1.000000
  167        4.214582   1.000000
  168        4.267921   1.000000
  169        4.297916   1.000000
  170        4.358185   1.000000
  171        4.375843   1.000000
  172        4.491198   1.000000
  173        4.638374   1.000000
  174        4.711659   1.000000
  175        4.775184   1.000000
  176        4.849954   1.000000
  177        4.877186   1.000000
  178        4.966231   1.000000
  179        5.024357   1.000000
  180        5.077719   1.000000
  181        5.092069   1.000000
  182        5.103740   1.000000
  183        5.153072   1.000000
  184        5.164838   1.000000
  185        5.201066   1.000000
  186        5.259433   1.000000
  187        5.327887   1.000000
  188        5.405518   0.477128
  189        5.438818  -0.051786
  190        5.584834   0.000000
  191        5.678033   0.000000
  192        5.727364   0.000000
  193        6.658072   0.000000
  194        6.792145   0.000000
  195        6.979549   0.000000
  196        7.499551   0.000000
  197        7.708583   0.000000
  198        7.761465   0.000000
  199        8.232485   0.000000
  200        8.760503   0.000000
  201        8.843461   0.000000
  202        8.989002   0.000000
  203        9.117369   0.000000
  204        9.146701   0.000000
  205        9.264951   0.000000
  206        9.444970   0.000000
  207        9.458664   0.000000
  208        9.514753   0.000000
  209        9.757126   0.000000
  210        9.796946   0.000000
  211        9.846287   0.000000
  212        9.960967   0.000000
  213        9.993260   0.000000
  214       10.023174   0.000000
  215       10.318197   0.000000
  216       10.351178   0.000000
  217       10.454093   0.000000
  218       10.563351   0.000000
  219       10.738850   0.000000
  220       10.934449   0.000000
  221       11.138675   0.000000
  222       11.274447   0.000000
  223       11.344885   0.000000
  224       11.378354   0.000000
  225       11.430863   0.000000
  226       11.501860   0.000000
  227       11.597475   0.000000
  228       11.662048   0.000000
  229       11.704350   0.000000
  230       11.751270   0.000000
  231       11.792976   0.000000
  232       11.798294   0.000000
  233       11.906044   0.000000
  234       12.028517   0.000000
  235       12.058000   0.000000
  236       12.118287   0.000000
  237       12.144532   0.000000
  238       12.151406   0.000000
  239       12.271311   0.000000
  240       12.385145   0.000000
  241       12.429144   0.000000
  242       12.647417   0.000000
  243       12.770156   0.000000
  244       12.815903   0.000000
  245       12.902757   0.000000
  246       12.918200   0.000000
  247       12.986664   0.000000
  248       13.066330   0.000000
  249       13.072904   0.000000
  250       13.251134   0.000000
  251       13.340222   0.000000
  252       13.429961   0.000000
  253       13.482234   0.000000
  254       13.617485   0.000000
  255       13.711894   0.000000
  256       13.729540   0.000000
 
  0.1666667E+00  0.1666667E+00  0.0000000E+00  0.9259259E-02
    1      -11.517560   1.000000
    2      -11.268534   1.000000
    3      -11.217412   1.000000
    4       -9.941128   1.000000
    5       -9.880079   1.000000
    6       -9.560005   1.000000
    7       -9.495935   1.000000
    8       -9.469507   1.000000
    9       -9.363387   1.000000
   10       -9.256076   1.000000
   11       -9.130191   1.000000
   12       -8.869538   1.000000
   13       -8.734885   1.000000
   14       -8.643808   1.000000
   15       -8.439847   1.000000
   16       -8.295157   1.000000
   17       -8.094893   1.000000
   18       -7.900105   1.000000
   19       -7.855574   1.000000
   20       -7.484038   1.000000
   21       -7.446882   1.000000
   22       -7.338494   1.000000
   23       -7.026795   1.000000
   24       -6.914389   1.000000
   25       -6.189688   1.000000
   26       -6.172162   1.000000
   27       -6.074995   1.000000
   28       -6.027277   1.000000
   29       -5.787424   1.000000
   30       -5.680056   1.000000
   31       -5.638120   1.000000
   32       -5.618429   1.000000
   33       -5.475194   1.000000
   34       -5.340014   1.000000
   35       -5.321453   1.000000
   36       -5.004761   1.000000
   37       -4.963744   1.000000
   38       -4.911135   1.000000
   39       -4.739668   1.000000
   40       -4.621441   1.000000
   41       -4.284934   1.000000
   42       -4.241776   1.000000
   43       -4.115145   1.000000
   44       -4.038446   1.000000
   45       -3.903798   1.000000
   46       -3.802374   1.000000
   47       -3.748031   1.000000
   48       -3.468160   1.000000
   49       -3.449826   1.000000
   50       -3.371457   1.000000
   51       -3.332322   1.000000
   52       -3.156651   1.000000
   53       -3.120506   1.000000
   54       -2.933751   1.000000
   55       -2.873788   1.000000
   56       -2.792689   1.000000
   57       -2.762722   1.000000
   58       -2.676199   1.000000
   59       -2.647967   1.000000
   60       -2.520867   1.000000
   61       -2.422573   1.000000
   62       -2.282675   1.000000
   63       -1.951551   1.000000
   64       -1.778486   1.000000
   65       -1.740585   1.000000
   66       -1.596777   1.000000
   67       -1.524510   1.000000
   68       -1.424052   1.000000
   69       -1.254731   1.000000
   70       -1.192094   1.000000
   71       -1.085188   1.000000
   72       -1.022298   1.000000
   73       -0.986253   1.000000
   74       -0.973635   1.000000
   75       -0.943077   1.000000
   76       -0.922639   1.000000
   77       -0.853201   1.000000
   78       -0.794571   1.000000
   79       -0.728788   1.000000
   80       -0.685519   1.000000
   81       -0.608846   1.000000
   82       -0.518925   1.000000
   83       -0.483959   1.000000
   84       -0.362629   1.000000
   85       -0.276287   1.000000
   86       -0.221964   1.000000
   87       -0.114930   1.000000
   88       -0.083279   1.000000
   89       -0.015676   1.000000
   90        0.003757   1.000000
   91        0.018760   1.000000
   92        0.092028   1.000000
   93        0.128636   1.000000
   94        0.186350   1.000000
   95        0.273836   1.000000
   96        0.349287   1.000000
   97        0.376511   1.000000
   98        0.426299   1.000000
   99        0.437701   1.000000
  100        0.492650   1.000000
  101        0.526064   1.000000
  102        0.532684   1.000000
  103        0.616718   1.000000
  104        0.673594   1.000000
  105        0.724083   1.000000
  106        0.752061   1.000000
  107        0.777561   1.000000
  108        0.894373   1.000000
  109        0.952945   1.000000
  110        1.002383   1.000000
  111        1.104725   1.000000
  112        1.114361   1.000000
  113        1.187991   1.000000
  114        1.277593   1.000000
  115        1.325760   1.000000
  116        1.463810   1.000000
  117        1.490572   1.000000
  118        1.550589   1.000000
  119        1.680170   1.000000
  120        1.701667   1.000000
  121        1.761939   1.000000
  122        1.916734   1.000000
  123        2.039964   1.000000
  124        2.077100   1.000000
  125        2.119526   1.000000
  126        2.128491   1.000000
  127        2.188317   1.000000
  128        2.211009   1.000000
  129        2.247845   1.000000
  130        2.275387   1.000000
  131        2.398533   1.000000
  132        2.427785   1.000000
  133        2.478332   1.000000
  134        2.512429   1.000000
  135        2.594349   1.000000
  136        2.658622   1.000000
  137        2.704079   1.000000
  138        2.718493   1.000000
  139        2.749875   1.000000
  140        2.816030   1.000000
  141        2.868176   1.000000
  142        2.974203   1.000000
  143        3.027472   1.000000
  144        3.047659   1.000000
  145        3.090936   1.000000
  146        3.111822   1.000000
  147        3.192065   1.000000
  148        3.215110   1.000000
  149        3.247120   1.000000
  150        3.293247   1.000000
  151        3.381585   1.000000
  152        3.444407   1.000000
  153        3.471407   1.000000
  154        3.517607   1.000000
  155        3.546119   1.000000
  156        3.603590   1.000000
  157        3.660388   1.000000
  158        3.742033   1.000000
  159        3.801060   1.000000
  160        3.876172   1.000000
  161        3.954095   1.000000
  162        4.013544   1.000000
  163        4.052242   1.000000
  164        4.107234   1.000000
  165        4.119641   1.000000
  166        4.193773   1.000000
  167        4.309406   1.000000
  168        4.356942   1.000000
  169        4.389926   1.000000
  170        4.414939   1.000000
  171        4.470722   1.000000
  172        4.513046   1.000000
  173        4.603489   1.000000
  174        4.692935   1.000000
  175        4.749172   1.000000
  176        4.821457   1.000000
  177        4.852364   1.000000
  178        4.918060   1.000000
  179        4.985536   1.000000
  180        5.004647   1.000000
  181        5.021685   1.000000
  182        5.043911   1.000000
  183        5.069634   1.000000
  184        5.161678   1.000000
  185        5.178324   1.000000
  186        5.225695   1.000000
  187        5.246733   1.000000
  188        5.396753   0.817240
  189        5.423856   0.004942
  190        5.513135  -0.000832
  191        5.644785   0.000000
  192        5.650576   0.000000
  193        6.707116   0.000000
  194        6.818331   0.000000
  195        6.955326   0.000000
  196        7.467862   0.000000
  197        7.699584   0.000000
  198        7.736700   0.000000
  199        8.275831   0.000000
  200        8.734483   0.000000
  201        8.782484   0.000000
  202        8.924621   0.000000
  203        9.099605   0.000000
  204        9.278695   0.000000
  205        9.350655   0.000000
  206        9.432021   0.000000
  207        9.474903   0.000000
  208        9.523934   0.000000
  209        9.664106   0.000000
  210        9.790792   0.000000
  211        9.921659   0.000000
  212        9.974661   0.000000
  213       10.041521   0.000000
  214       10.123626   0.000000
  215       10.393040   0.000000
  216       10.449550   0.000000
  217       10.460342   0.000000
  218       10.658902   0.000000
  219       10.836841   0.000000
  220       10.870524   0.000000
  221       11.045324   0.000000
  222       11.221586   0.000000
  223       11.386137   0.000000
  224       11.400664   0.000000
  225       11.462205   0.000000
  226       11.520152   0.000000
  227       11.547557   0.000000
  228       11.715003   0.000000
  229       11.745725   0.000000
  230       11.785376   0.000000
  231       11.824578   0.000000
  232       11.837147   0.000000
  233       11.885716   0.000000
  234       11.904163   0.000000
  235       11.977519   0.000000
  236       12.050811   0.000000
  237       12.096354   0.000000
  238       12.138830   0.000000
  239       12.178534   0.000000
  240       12.260666   0.000000
  241       12.422918   0.000000
  242       12.641504   0.000000
  243       12.767220   0.000000
  244       12.777110   0.000000
  245       12.836440   0.000000
  246       12.903279   0.000000
  247       12.953558   0.000000
  248       12.990386   0.000000
  249       13.078882   0.000000
  250       13.161619   0.000000
  251       13.181695   0.000000
  252       13.224625   0.000000
  253       13.366204   0.000000
  254       13.612594   0.000000
  255       13.748168   0.000000
  256       13.760603   0.000000
 
  0.3333333E+00  0.1666667E+00  0.2775558E-16  0.9259259E-02
    1      -11.478698   1.000000
    2      -11.277472   1.000000
    3      -11.262431   1.000000
    4       -9.942757   1.000000
    5       -9.829234   1.000000
    6       -9.627216   1.000000
    7       -9.475955   1.000000
    8       -9.469620   1.000000
    9       -9.368976   1.000000
   10       -9.326769   1.000000
   11       -9.115785   1.000000
   12       -8.875857   1.000000
   13       -8.707826   1.000000
   14       -8.520464   1.000000
   15       -8.405535   1.000000
   16       -8.227521   1.000000
   17       -8.081576   1.000000
   18       -7.929291   1.000000
   19       -7.804140   1.000000
   20       -7.556531   1.000000
   21       -7.501981   1.000000
   22       -7.351304   1.000000
   23       -7.138699   1.000000
   24       -7.000174   1.000000
   25       -6.237364   1.000000
   26       -6.165129   1.000000
   27       -6.088977   1.000000
   28       -5.977842   1.000000
   29       -5.728340   1.000000
   30       -5.611461   1.000000
   31       -5.591565   1.000000
   32       -5.524906   1.000000
   33       -5.491578   1.000000
   34       -5.420010   1.000000
   35       -5.316037   1.000000
   36       -5.164755   1.000000
   37       -4.953357   1.000000
   38       -4.842049   1.000000
   39       -4.762044   1.000000
   40       -4.694332   1.000000
   41       -4.349580   1.000000
   42       -4.272670   1.000000
   43       -4.155471   1.000000
   44       -4.056077   1.000000
   45       -4.009099   1.000000
   46       -3.937187   1.000000
   47       -3.825104   1.000000
   48       -3.559153   1.000000
   49       -3.309207   1.000000
   50       -3.245902   1.000000
   51       -3.102687   1.000000
   52       -3.005675   1.000000
   53       -2.841297   1.000000
   54       -2.826584   1.000000
   55       -2.723599   1.000000
   56       -2.699473   1.000000
   57       -2.568969   1.000000
   58       -2.499253   1.000000
   59       -2.400637   1.000000
   60       -2.281641   1.000000
   61       -2.196122   1.000000
   62       -2.146040   1.000000
   63       -2.132696   1.000000
   64       -1.961594   1.000000
   65       -1.901697   1.000000
   66       -1.752426   1.000000
   67       -1.656347   1.000000
   68       -1.539229   1.000000
   69       -1.467132   1.000000
   70       -1.381271   1.000000
   71       -1.356963   1.000000
   72       -1.271082   1.000000
   73       -1.164901   1.000000
   74       -1.076066   1.000000
   75       -1.027607   1.000000
   76       -1.000115   1.000000
   77       -0.897748   1.000000
   78       -0.839830   1.000000
   79       -0.786169   1.000000
   80       -0.724560   1.000000
   81       -0.686847   1.000000
   82       -0.619024   1.000000
   83       -0.601504   1.000000
   84       -0.506555   1.000000
   85       -0.421339   1.000000
   86       -0.394004   1.000000
   87       -0.188133   1.000000
   88       -0.139768   1.000000
   89       -0.091449   1.000000
   90        0.005722   1.000000
   91        0.068613   1.000000
   92        0.164281   1.000000
   93        0.183414   1.000000
   94        0.200975   1.000000
   95        0.311465   1.000000
   96        0.341658   1.000000
   97        0.360139   1.000000
   98        0.403180   1.000000
   99        0.460887   1.000000
  100        0.529733   1.000000
  101        0.582658   1.000000
  102        0.612107   1.000000
  103        0.672241   1.000000
  104        0.715124   1.000000
  105        0.864377   1.000000
  106        0.871992   1.000000
  107        0.920992   1.000000
  108        0.946613   1.000000
  109        1.067762   1.000000
  110        1.103287   1.000000
  111        1.157718   1.000000
  112        1.203284   1.000000
  113        1.255026   1.000000
  114        1.345623   1.000000
  115        1.445146   1.000000
  116        1.527335   1.000000
  117        1.550399   1.000000
  118        1.615961   1.000000
  119        1.730268   1.000000
  120        1.770523   1.000000
  121        1.843450   1.000000
  122        1.866865   1.000000
  123        2.001077   1.000000
  124        2.154977   1.000000
  125        2.168973   1.000000
  126        2.192139   1.000000
  127        2.226182   1.000000
  128        2.245247   1.000000
  129        2.314200   1.000000
  130        2.349566   1.000000
  131        2.387547   1.000000
  132        2.406314   1.000000
  133        2.509830   1.000000
  134        2.550962   1.000000
  135        2.585736   1.000000
  136        2.646831   1.000000
  137        2.706516   1.000000
  138        2.777655   1.000000
  139        2.798463   1.000000
  140        2.847211   1.000000
  141        2.900892   1.000000
  142        2.925475   1.000000
  143        2.953215   1.000000
  144        3.048623   1.000000
  145        3.106578   1.000000
  146        3.130247   1.000000
  147        3.204744   1.000000
  148        3.274623   1.000000
  149        3.289719   1.000000
  150        3.402757   1.000000
  151        3.439246   1.000000
  152        3.457578   1.000000
  153        3.542704   1.000000
  154        3.566643   1.000000
  155        3.616073   1.000000
  156        3.654251   1.000000
  157        3.678544   1.000000
  158        3.713531   1.000000
  159        3.732480   1.000000
  160        3.793248   1.000000
  161        3.834608   1.000000
  162        3.937860   1.000000
  163        3.987468   1.000000
  164        4.148375   1.000000
  165        4.193484   1.000000
  166        4.226114   1.000000
  167        4.258877   1.000000
  168        4.325838   1.000000
  169        4.355547   1.000000
  170        4.380739   1.000000
  171        4.503703   1.000000
  172        4.527099   1.000000
  173        4.548610   1.000000
  174        4.634169   1.000000
  175        4.650858   1.000000
  176        4.728967   1.000000
  177        4.742880   1.000000
  178        4.818186   1.000000
  179        4.834640   1.000000
  180        4.880139   1.000000
  181        4.923023   1.000000
  182        4.969363   1.000000
  183        4.986062   1.000000
  184        5.109436   1.000000
  185        5.136843   1.000000
  186        5.180505   1.000000
  187        5.209963   1.000000
  188        5.347051   0.999064
  189        5.445501  -0.000540
  190        5.487363  -0.070079
  191        5.505849   0.000000
  192        5.554556   0.000000
  193        6.795462   0.000000
  194        6.881041   0.000000
  195        6.932612   0.000000
  196        7.556722   0.000000
  197        7.760444   0.000000
  198        7.778598   0.000000
  199        8.380514   0.000000
  200        8.615114   0.000000
  201        8.764455   0.000000
  202        8.834446   0.000000
  203        9.138546   0.000000
  204        9.208102   0.000000
  205        9.416127   0.000000
  206        9.614229   0.000000
  207        9.628629   0.000000
  208        9.693519   0.000000
  209        9.747653   0.000000
  210        9.838769   0.000000
  211        9.873834   0.000000
  212       10.042975   0.000000
  213       10.128886   0.000000
  214       10.392051   0.000000
  215       10.434170   0.000000
  216       10.501901   0.000000
  217       10.647495   0.000000
  218       10.777544   0.000000
  219       10.812101   0.000000
  220       10.958668   0.000000
  221       11.043237   0.000000
  222       11.143483   0.000000
  223       11.163141   0.000000
  224       11.343104   0.000000
  225       11.356521   0.000000
  226       11.451828   0.000000
  227       11.476089   0.000000
  228       11.574357   0.000000
  229       11.668756   0.000000
  230       11.729043   0.000000
  231       11.838921   0.000000
  232       11.927046   0.000000
  233       11.959862   0.000000
  234       11.972848   0.000000
  235       12.006312   0.000000
  236       12.029052   0.000000
  237       12.059025   0.000000
  238       12.147908   0.000000
  239       12.153992   0.000000
  240       12.213834   0.000000
  241       12.273173   0.000000
  242       12.297459   0.000000
  243       12.589684   0.000000
  244       12.662254   0.000000
  245       12.815459   0.000000
  246       12.842382   0.000000
  247       12.929472   0.000000
  248       12.944080   0.000000
  249       12.954072   0.000000
  250       13.075324   0.000000
  251       13.200409   0.000000
  252       13.260169   0.000000
  253       13.377629   0.000000
  254       13.405280   0.000000
  255       13.612292   0.000000
  256       13.751199   0.000000
 
  0.5000000E+00  0.1666667E+00  0.2775558E-16  0.9259259E-02
    1      -11.426022   1.000000
    2      -11.345219   1.000000
    3      -11.257269   1.000000
    4       -9.933492   1.000000
    5       -9.757126   1.000000
    6       -9.654046   1.000000
    7       -9.586879   1.000000
    8       -9.501048   1.000000
    9       -9.355336   1.000000
   10       -9.295664   1.000000
   11       -9.194715   1.000000
   12       -8.772080   1.000000
   13       -8.635451   1.000000
   14       -8.449374   1.000000
   15       -8.382466   1.000000
   16       -8.159878   1.000000
   17       -8.030783   1.000000
   18       -7.988574   1.000000
   19       -7.786107   1.000000
   20       -7.616374   1.000000
   21       -7.586765   1.000000
   22       -7.341236   1.000000
   23       -7.273435   1.000000
   24       -7.104473   1.000000
   25       -6.277027   1.000000
   26       -6.243047   1.000000
   27       -5.935832   1.000000
   28       -5.827214   1.000000
   29       -5.799512   1.000000
   30       -5.759420   1.000000
   31       -5.514261   1.000000
   32       -5.501830   1.000000
   33       -5.394666   1.000000
   34       -5.339021   1.000000
   35       -5.253269   1.000000
   36       -5.183196   1.000000
   37       -5.002701   1.000000
   38       -4.905079   1.000000
   39       -4.770029   1.000000
   40       -4.692372   1.000000
   41       -4.389582   1.000000
   42       -4.342312   1.000000
   43       -4.231538   1.000000
   44       -4.120604   1.000000
   45       -4.084924   1.000000
   46       -3.978191   1.000000
   47       -3.859524   1.000000
   48       -3.765961   1.000000
   49       -3.084122   1.000000
   50       -3.018840   1.000000
   51       -2.915327   1.000000
   52       -2.739773   1.000000
   53       -2.632355   1.000000
   54       -2.627270   1.000000
   55       -2.532238   1.000000
   56       -2.467029   1.000000
   57       -2.455784   1.000000
   58       -2.421524   1.000000
   59       -2.357292   1.000000
   60       -2.285923   1.000000
   61       -2.182336   1.000000
   62       -2.119887   1.000000
   63       -2.043408   1.000000
   64       -1.968382   1.000000
   65       -1.873929   1.000000
   66       -1.825534   1.000000
   67       -1.727029   1.000000
   68       -1.704902   1.000000
   69       -1.651205   1.000000
   70       -1.620137   1.000000
   71       -1.525103   1.000000
   72       -1.481071   1.000000
   73       -1.392140   1.000000
   74       -1.322767   1.000000
   75       -1.233750   1.000000
   76       -1.196014   1.000000
   77       -1.005941   1.000000
   78       -0.968482   1.000000
   79       -0.890736   1.000000
   80       -0.830582   1.000000
   81       -0.725159   1.000000
   82       -0.658431   1.000000
   83       -0.562601   1.000000
   84       -0.537538   1.000000
   85       -0.481703   1.000000
   86       -0.447115   1.000000
   87       -0.344804   1.000000
   88       -0.297244   1.000000
   89       -0.207005   1.000000
   90       -0.139195   1.000000
   91       -0.008901   1.000000
   92        0.031364   1.000000
   93        0.088007   1.000000
   94        0.236204   1.000000
   95        0.325748   1.000000
   96        0.404881   1.000000
   97        0.469112   1.000000
   98        0.578071   1.000000
   99        0.624062   1.000000
  100        0.664646   1.000000
  101        0.713496   1.000000
  102        0.752379   1.000000
  103        0.814318   1.000000
  104        0.884060   1.000000
  105        0.929241   1.000000
  106        0.986504   1.000000
  107        1.053947   1.000000
  108        1.110061   1.000000
  109        1.129508   1.000000
  110        1.209139   1.000000
  111        1.222424   1.000000
  112        1.271869   1.000000
  113        1.329749   1.000000
  114        1.397393   1.000000
  115        1.484207   1.000000
  116        1.588027   1.000000
  117        1.656592   1.000000
  118        1.752522   1.000000
  119        1.790938   1.000000
  120        1.919922   1.000000
  121        1.957416   1.000000
  122        1.969338   1.000000
  123        1.996228   1.000000
  124        2.025716   1.000000
  125        2.106525   1.000000
  126        2.179008   1.000000
  127        2.223958   1.000000
  128        2.254621   1.000000
  129        2.290853   1.000000
  130        2.335346   1.000000
  131        2.367975   1.000000
  132        2.496052   1.000000
  133        2.503788   1.000000
  134        2.533466   1.000000
  135        2.553206   1.000000
  136        2.575276   1.000000
  137        2.782162   1.000000
  138        2.816742   1.000000
  139        2.853604   1.000000
  140        2.897536   1.000000
  141        2.930741   1.000000
  142        2.981481   1.000000
  143        3.029362   1.000000
  144        3.076210   1.000000
  145        3.140175   1.000000
  146        3.171312   1.000000
  147        3.191399   1.000000
  148        3.225145   1.000000
  149        3.264453   1.000000
  150        3.308468   1.000000
  151        3.380786   1.000000
  152        3.399542   1.000000
  153        3.440529   1.000000
  154        3.532819   1.000000
  155        3.557839   1.000000
  156        3.645352   1.000000
  157        3.705547   1.000000
  158        3.762435   1.000000
  159        3.798133   1.000000
  160        3.898100   1.000000
  161        3.950310   1.000000
  162        3.968283   1.000000
  163        3.987174   1.000000
  164        4.017739   1.000000
  165        4.037239   1.000000
  166        4.150788   1.000000
  167        4.222852   1.000000
  168        4.236250   1.000000
  169        4.327497   1.000000
  170        4.348226   1.000000
  171        4.378460   1.000000
  172        4.425821   1.000000
  173        4.458849   1.000000
  174        4.550142   1.000000
  175        4.583083   1.000000
  176        4.612904   1.000000
  177        4.657377   1.000000
  178        4.694446   1.000000
  179        4.766087   1.000000
  180        4.843171   1.000000
  181        4.875911   1.000000
  182        4.928230   1.000000
  183        5.036496   1.000000
  184        5.070917   1.000000
  185        5.087519   1.000000
  186        5.196633   1.000000
  187        5.217817   1.000000
  188        5.322856   1.007406
  189        5.447310   0.036732
  190        5.472195  -0.084702
  191        5.488467   0.000000
  192        5.599122   0.000000
  193        6.852356   0.000000
  194        6.880928   0.000000
  195        6.955717   0.000000
  196        7.689000   0.000000
  197        7.786768   0.000000
  198        7.863414   0.000000
  199        8.452927   0.000000
  200        8.541298   0.000000
  201        8.676835   0.000000
  202        8.927743   0.000000
  203        9.054352   0.000000
  204        9.234832   0.000000
  205        9.500175   0.000000
  206        9.620001   0.000000
  207        9.767294   0.000000
  208        9.849912   0.000000
  209        9.884581   0.000000
  210        9.949828   0.000000
  211        9.973809   0.000000
  212       10.010472   0.000000
  213       10.210457   0.000000
  214       10.288798   0.000000
  215       10.340937   0.000000
  216       10.561304   0.000000
  217       10.703700   0.000000
  218       10.762550   0.000000
  219       10.847238   0.000000
  220       10.923820   0.000000
  221       11.074037   0.000000
  222       11.221393   0.000000
  223       11.229608   0.000000
  224       11.262795   0.000000
  225       11.305815   0.000000
  226       11.401242   0.000000
  227       11.484148   0.000000
  228       11.519878   0.000000
  229       11.553358   0.000000
  230       11.650875   0.000000
  231       11.698726   0.000000
  232       11.784171   0.000000
  233       11.819197   0.000000
  234       12.008960   0.000000
  235       12.025489   0.000000
  236       12.080297   0.000000
  237       12.108506   0.000000
  238       12.139054   0.000000
  239       12.177075   0.000000
  240       12.274826   0.000000
  241       12.309992   0.000000
  242       12.337002   0.000000
  243       12.426394   0.000000
  244       12.516457   0.000000
  245       12.714979   0.000000
  246       12.800219   0.000000
  247       12.941825   0.000000
  248       13.019056   0.000000
  249       13.027330   0.000000
  250       13.107784   0.000000
  251       13.154222   0.000000
  252       13.168870   0.000000
  253       13.280803   0.000000
  254       13.541709   0.000000
  255       13.579750   0.000000
  256       13.748176   0.000000
 
 -0.3333333E+00  0.1666667E+00  0.6938894E-17  0.9259259E-02
    1      -11.448409   1.000000
    2      -11.331756   1.000000
    3      -11.243648   1.000000
    4       -9.920215   1.000000
    5       -9.739621   1.000000
    6       -9.673919   1.000000
    7       -9.623412   1.000000
    8       -9.501450   1.000000
    9       -9.358139   1.000000
   10       -9.280695   1.000000
   11       -9.234853   1.000000
   12       -8.645912   1.000000
   13       -8.585755   1.000000
   14       -8.523905   1.000000
   15       -8.373588   1.000000
   16       -8.186756   1.000000
   17       -8.056789   1.000000
   18       -8.005402   1.000000
   19       -7.824609   1.000000
   20       -7.663445   1.000000
   21       -7.491339   1.000000
   22       -7.373986   1.000000
   23       -7.274084   1.000000
   24       -7.108892   1.000000
   25       -6.293995   1.000000
   26       -6.180714   1.000000
   27       -5.960670   1.000000
   28       -5.935400   1.000000
   29       -5.767587   1.000000
   30       -5.638393   1.000000
   31       -5.611426   1.000000
   32       -5.506036   1.000000
   33       -5.394632   1.000000
   34       -5.246506   1.000000
   35       -5.113657   1.000000
   36       -5.105067   1.000000
   37       -5.021879   1.000000
   38       -4.981519   1.000000
   39       -4.735644   1.000000
   40       -4.677987   1.000000
   41       -4.510581   1.000000
   42       -4.452615   1.000000
   43       -4.266224   1.000000
   44       -4.095044   1.000000
   45       -3.982859   1.000000
   46       -3.954579   1.000000
   47       -3.889650   1.000000
   48       -3.731706   1.000000
   49       -3.247571   1.000000
   50       -2.948980   1.000000
   51       -2.845711   1.000000
   52       -2.769271   1.000000
   53       -2.705611   1.000000
   54       -2.655582   1.000000
   55       -2.621800   1.000000
   56       -2.501274   1.000000
   57       -2.421989   1.000000
   58       -2.301616   1.000000
   59       -2.234840   1.000000
   60       -2.231974   1.000000
   61       -2.216778   1.000000
   62       -2.116930   1.000000
   63       -2.029715   1.000000
   64       -2.017805   1.000000
   65       -1.992813   1.000000
   66       -1.969440   1.000000
   67       -1.795100   1.000000
   68       -1.734138   1.000000
   69       -1.691212   1.000000
   70       -1.644343   1.000000
   71       -1.501744   1.000000
   72       -1.445486   1.000000
   73       -1.330506   1.000000
   74       -1.249702   1.000000
   75       -1.212237   1.000000
   76       -1.104922   1.000000
   77       -1.083846   1.000000
   78       -0.926495   1.000000
   79       -0.898190   1.000000
   80       -0.846678   1.000000
   81       -0.772716   1.000000
   82       -0.680320   1.000000
   83       -0.622347   1.000000
   84       -0.479964   1.000000
   85       -0.438474   1.000000
   86       -0.403426   1.000000
   87       -0.308044   1.000000
   88       -0.251038   1.000000
   89       -0.184282   1.000000
   90       -0.078433   1.000000
   91       -0.016737   1.000000
   92        0.057844   1.000000
   93        0.158245   1.000000
   94        0.217534   1.000000
   95        0.325928   1.000000
   96        0.421259   1.000000
   97        0.513023   1.000000
   98        0.518429   1.000000
   99        0.555906   1.000000
  100        0.587724   1.000000
  101        0.634021   1.000000
  102        0.682148   1.000000
  103        0.791994   1.000000
  104        0.860312   1.000000
  105        0.922030   1.000000
  106        0.982970   1.000000
  107        1.068840   1.000000
  108        1.151705   1.000000
  109        1.204099   1.000000
  110        1.240351   1.000000
  111        1.319430   1.000000
  112        1.373148   1.000000
  113        1.401692   1.000000
  114        1.432065   1.000000
  115        1.479049   1.000000
  116        1.618570   1.000000
  117        1.666616   1.000000
  118        1.775818   1.000000
  119        1.824269   1.000000
  120        1.877846   1.000000
  121        1.909123   1.000000
  122        1.976612   1.000000
  123        2.059705   1.000000
  124        2.092348   1.000000
  125        2.173071   1.000000
  126        2.201530   1.000000
  127        2.260642   1.000000
  128        2.289317   1.000000
  129        2.320092   1.000000
  130        2.346648   1.000000
  131        2.396534   1.000000
  132        2.411992   1.000000
  133        2.473145   1.000000
  134        2.515285   1.000000
  135        2.543083   1.000000
  136        2.677954   1.000000
  137        2.721168   1.000000
  138        2.738292   1.000000
  139        2.766497   1.000000
  140        2.876269   1.000000
  141        2.913953   1.000000
  142        2.965122   1.000000
  143        2.977981   1.000000
  144        3.061146   1.000000
  145        3.069923   1.000000
  146        3.104422   1.000000
  147        3.150428   1.000000
  148        3.201000   1.000000
  149        3.289037   1.000000
  150        3.330777   1.000000
  151        3.369417   1.000000
  152        3.405841   1.000000
  153        3.430414   1.000000
  154        3.525924   1.000000
  155        3.553540   1.000000
  156        3.608053   1.000000
  157        3.669301   1.000000
  158        3.698770   1.000000
  159        3.781593   1.000000
  160        3.815896   1.000000
  161        3.869572   1.000000
  162        3.894555   1.000000
  163        3.939634   1.000000
  164        4.021260   1.000000
  165        4.068579   1.000000
  166        4.083686   1.000000
  167        4.085846   1.000000
  168        4.185675   1.000000
  169        4.205439   1.000000
  170        4.245185   1.000000
  171        4.386627   1.000000
  172        4.423425   1.000000
  173        4.447437   1.000000
  174        4.494187   1.000000
  175        4.517358   1.000000
  176        4.700993   1.000000
  177        4.722092   1.000000
  178        4.789767   1.000000
  179        4.832019   1.000000
  180        4.908708   1.000000
  181        4.937509   1.000000
  182        5.020393   1.000000
  183        5.150533   1.000000
  184        5.158711   1.000000
  185        5.184709   1.000000
  186        5.231114   1.000000
  187        5.277644   1.000000
  188        5.430753   0.362483
  189        5.449776  -0.040279
  190        5.476719  -0.007997
  191        5.499031   0.000000
  192        5.620638   0.000000
  193        6.794557   0.000000
  194        6.854002   0.000000
  195        6.998135   0.000000
  196        7.741388   0.000000
  197        7.787788   0.000000
  198        7.899597   0.000000
  199        8.334925   0.000000
  200        8.623697   0.000000
  201        8.718038   0.000000
  202        8.869749   0.000000
  203        9.123884   0.000000
  204        9.331465   0.000000
  205        9.398176   0.000000
  206        9.585436   0.000000
  207        9.734300   0.000000
  208        9.790618   0.000000
  209        9.864809   0.000000
  210        9.889724   0.000000
  211        9.959705   0.000000
  212       10.036926   0.000000
  213       10.069797   0.000000
  214       10.323546   0.000000
  215       10.348667   0.000000
  216       10.471725   0.000000
  217       10.557933   0.000000
  218       10.645179   0.000000
  219       10.746532   0.000000
  220       10.809431   0.000000
  221       10.886122   0.000000
  222       11.241591   0.000000
  223       11.286257   0.000000
  224       11.318012   0.000000
  225       11.414056   0.000000
  226       11.503448   0.000000
  227       11.591168   0.000000
  228       11.637901   0.000000
  229       11.677631   0.000000
  230       11.741317   0.000000
  231       11.855153   0.000000
  232       11.863673   0.000000
  233       11.912378   0.000000
  234       11.958610   0.000000
  235       11.985963   0.000000
  236       12.053637   0.000000
  237       12.077066   0.000000
  238       12.101449   0.000000
  239       12.147239   0.000000
  240       12.300509   0.000000
  241       12.316366   0.000000
  242       12.362443   0.000000
  243       12.407622   0.000000
  244       12.597087   0.000000
  245       12.686603   0.000000
  246       12.825351   0.000000
  247       12.879909   0.000000
  248       12.974953   0.000000
  249       13.085841   0.000000
  250       13.167212   0.000000
  251       13.255075   0.000000
  252       13.368105   0.000000
  253       13.439719   0.000000
  254       13.475370   0.000000
  255       13.555339   0.000000
  256       13.830234   0.000000
 
 -0.1666667E+00  0.1666667E+00 -0.1387779E-16  0.9259259E-02
    1      -11.499785   1.000000
    2      -11.295984   1.000000
    3      -11.212879   1.000000
    4       -9.910506   1.000000
    5       -9.848357   1.000000
    6       -9.612758   1.000000
    7       -9.580336   1.000000
    8       -9.422138   1.000000
    9       -9.406708   1.000000
   10       -9.287712   1.000000
   11       -9.220084   1.000000
   12       -8.653297   1.000000
   13       -8.603799   1.000000
   14       -8.544485   1.000000
   15       -8.498511   1.000000
   16       -8.198014   1.000000
   17       -8.096609   1.000000
   18       -8.082239   1.000000
   19       -7.824724   1.000000
   20       -7.601351   1.000000
   21       -7.392036   1.000000
   22       -7.379665   1.000000
   23       -7.177419   1.000000
   24       -7.002617   1.000000
   25       -6.236314   1.000000
   26       -6.112203   1.000000
   27       -6.091520   1.000000
   28       -6.012410   1.000000
   29       -5.718153   1.000000
   30       -5.685740   1.000000
   31       -5.603952   1.000000
   32       -5.515492   1.000000
   33       -5.439214   1.000000
   34       -5.268000   1.000000
   35       -5.221444   1.000000
   36       -4.984588   1.000000
   37       -4.965927   1.000000
   38       -4.934480   1.000000
   39       -4.700628   1.000000
   40       -4.645785   1.000000
   41       -4.516949   1.000000
   42       -4.442797   1.000000
   43       -4.192030   1.000000
   44       -3.998005   1.000000
   45       -3.983972   1.000000
   46       -3.958329   1.000000
   47       -3.715212   1.000000
   48       -3.539813   1.000000
   49       -3.461307   1.000000
   50       -3.199560   1.000000
   51       -3.177821   1.000000
   52       -3.114574   1.000000
   53       -2.823455   1.000000
   54       -2.780543   1.000000
   55       -2.698898   1.000000
   56       -2.662135   1.000000
   57       -2.635890   1.000000
   58       -2.472018   1.000000
   59       -2.405823   1.000000
   60       -2.321250   1.000000
   61       -2.254441   1.000000
   62       -2.185066   1.000000
   63       -2.143894   1.000000
   64       -2.084253   1.000000
   65       -1.915146   1.000000
   66       -1.779578   1.000000
   67       -1.678207   1.000000
   68       -1.574329   1.000000
   69       -1.466116   1.000000
   70       -1.346371   1.000000
   71       -1.289921   1.000000
   72       -1.181725   1.000000
   73       -1.144588   1.000000
   74       -1.113367   1.000000
   75       -1.057299   1.000000
   76       -1.008235   1.000000
   77       -0.912562   1.000000
   78       -0.879019   1.000000
   79       -0.793201   1.000000
   80       -0.742491   1.000000
   81       -0.661616   1.000000
   82       -0.516139   1.000000
   83       -0.471700   1.000000
   84       -0.406836   1.000000
   85       -0.368690   1.000000
   86       -0.365773   1.000000
   87       -0.244481   1.000000
   88       -0.194138   1.000000
   89       -0.159751   1.000000
   90       -0.019258   1.000000
   91        0.032047   1.000000
   92        0.110353   1.000000
   93        0.177060   1.000000
   94        0.211142   1.000000
   95        0.275716   1.000000
   96        0.318321   1.000000
   97        0.404174   1.000000
   98        0.412424   1.000000
   99        0.451977   1.000000
  100        0.512357   1.000000
  101        0.544283   1.000000
  102        0.654383   1.000000
  103        0.738201   1.000000
  104        0.781715   1.000000
  105        0.871714   1.000000
  106        0.941608   1.000000
  107        1.049449   1.000000
  108        1.104394   1.000000
  109        1.106864   1.000000
  110        1.181449   1.000000
  111        1.194387   1.000000
  112        1.301563   1.000000
  113        1.322138   1.000000
  114        1.347708   1.000000
  115        1.444857   1.000000
  116        1.542937   1.000000
  117        1.568129   1.000000
  118        1.639287   1.000000
  119        1.675966   1.000000
  120        1.802530   1.000000
  121        1.832661   1.000000
  122        1.955913   1.000000
  123        2.073387   1.000000
  124        2.084022   1.000000
  125        2.162430   1.000000
  126        2.207254   1.000000
  127        2.264585   1.000000
  128        2.295608   1.000000
  129        2.312185   1.000000
  130        2.383290   1.000000
  131        2.417076   1.000000
  132        2.429118   1.000000
  133        2.490121   1.000000
  134        2.521737   1.000000
  135        2.612905   1.000000
  136        2.671623   1.000000
  137        2.734028   1.000000
  138        2.754610   1.000000
  139        2.773640   1.000000
  140        2.801374   1.000000
  141        2.847624   1.000000
  142        2.910340   1.000000
  143        2.917855   1.000000
  144        2.962821   1.000000
  145        3.006032   1.000000
  146        3.027329   1.000000
  147        3.069064   1.000000
  148        3.098122   1.000000
  149        3.224963   1.000000
  150        3.330751   1.000000
  151        3.347407   1.000000
  152        3.397334   1.000000
  153        3.479676   1.000000
  154        3.514092   1.000000
  155        3.554702   1.000000
  156        3.589974   1.000000
  157        3.724898   1.000000
  158        3.729934   1.000000
  159        3.781362   1.000000
  160        3.808983   1.000000
  161        3.828279   1.000000
  162        3.869083   1.000000
  163        3.945906   1.000000
  164        3.984901   1.000000
  165        4.020024   1.000000
  166        4.065237   1.000000
  167        4.142564   1.000000
  168        4.209983   1.000000
  169        4.266477   1.000000
  170        4.309490   1.000000
  171        4.342928   1.000000
  172        4.492271   1.000000
  173        4.517504   1.000000
  174        4.640940   1.000000
  175        4.703905   1.000000
  176        4.743152   1.000000
  177        4.828744   1.000000
  178        4.874124   1.000000
  179        4.960636   1.000000
  180        5.024793   1.000000
  181        5.076445   1.000000
  182        5.091974   1.000000
  183        5.159452   1.000000
  184        5.173870   1.000000
  185        5.286184   1.000000
  186        5.289304   1.000000
  187        5.343976   1.000000
  188        5.426705   0.190386
  189        5.475041  -0.010905
  190        5.546038   0.000000
  191        5.585662   0.000000
  192        5.667355   0.000000
  193        6.700845   0.000000
  194        6.816809   0.000000
  195        7.001614   0.000000
  196        7.632433   0.000000
  197        7.768167   0.000000
  198        7.844281   0.000000
  199        8.257656   0.000000
  200        8.683924   0.000000
  201        8.812608   0.000000
  202        8.901986   0.000000
  203        9.170854   0.000000
  204        9.266503   0.000000
  205        9.288153   0.000000
  206        9.460469   0.000000
  207        9.588429   0.000000
  208        9.624764   0.000000
  209        9.756542   0.000000
  210        9.849296   0.000000
  211        9.930517   0.000000
  212        9.935487   0.000000
  213       10.059240   0.000000
  214       10.152076   0.000000
  215       10.361068   0.000000
  216       10.403031   0.000000
  217       10.451400   0.000000
  218       10.521587   0.000000
  219       10.636928   0.000000
  220       10.820028   0.000000
  221       11.099089   0.000000
  222       11.249342   0.000000
  223       11.313125   0.000000
  224       11.358899   0.000000
  225       11.421287   0.000000
  226       11.537806   0.000000
  227       11.596615   0.000000
  228       11.656962   0.000000
  229       11.755840   0.000000
  230       11.757898   0.000000
  231       11.790115   0.000000
  232       11.853845   0.000000
  233       11.923951   0.000000
  234       11.998845   0.000000
  235       12.019587   0.000000
  236       12.130361   0.000000
  237       12.184769   0.000000
  238       12.200500   0.000000
  239       12.267429   0.000000
  240       12.274507   0.000000
  241       12.470552   0.000000
  242       12.505406   0.000000
  243       12.654153   0.000000
  244       12.725259   0.000000
  245       12.759367   0.000000
  246       12.827246   0.000000
  247       12.901994   0.000000
  248       13.119035   0.000000
  249       13.144700   0.000000
  250       13.176605   0.000000
  251       13.240765   0.000000
  252       13.270177   0.000000
  253       13.452654   0.000000
  254       13.661381   0.000000
  255       13.742567   0.000000
  256       13.817418   0.000000
 
  0.0000000E+00  0.3333333E+00  0.0000000E+00  0.9259259E-02
    1      -11.496427   1.000000
    2      -11.312968   1.000000
    3      -11.195766   1.000000
    4       -9.916382   1.000000
    5       -9.820161   1.000000
    6       -9.682517   1.000000
    7       -9.551736   1.000000
    8       -9.470192   1.000000
    9       -9.402782   1.000000
   10       -9.301676   1.000000
   11       -9.213205   1.000000
   12       -8.663206   1.000000
   13       -8.494223   1.000000
   14       -8.483068   1.000000
   15       -8.415405   1.000000
   16       -8.210740   1.000000
   17       -8.148140   1.000000
   18       -8.073004   1.000000
   19       -7.786595   1.000000
   20       -7.686500   1.000000
   21       -7.502546   1.000000
   22       -7.381041   1.000000
   23       -7.209823   1.000000
   24       -7.019718   1.000000
   25       -6.135050   1.000000
   26       -6.112015   1.000000
   27       -6.064962   1.000000
   28       -5.970053   1.000000
   29       -5.879941   1.000000
   30       -5.816667   1.000000
   31       -5.564689   1.000000
   32       -5.503740   1.000000
   33       -5.410653   1.000000
   34       -5.239947   1.000000
   35       -5.199414   1.000000
   36       -5.098424   1.000000
   37       -4.941849   1.000000
   38       -4.879885   1.000000
   39       -4.704845   1.000000
   40       -4.669205   1.000000
   41       -4.440528   1.000000
   42       -4.285018   1.000000
   43       -4.176992   1.000000
   44       -4.051079   1.000000
   45       -3.957707   1.000000
   46       -3.932066   1.000000
   47       -3.835774   1.000000
   48       -3.609986   1.000000
   49       -3.334541   1.000000
   50       -3.198761   1.000000
   51       -3.092681   1.000000
   52       -3.017474   1.000000
   53       -2.764805   1.000000
   54       -2.682241   1.000000
   55       -2.591769   1.000000
   56       -2.582910   1.000000
   57       -2.468246   1.000000
   58       -2.460083   1.000000
   59       -2.389059   1.000000
   60       -2.382476   1.000000
   61       -2.332691   1.000000
   62       -2.258350   1.000000
   63       -2.250989   1.000000
   64       -2.097193   1.000000
   65       -1.891010   1.000000
   66       -1.874059   1.000000
   67       -1.782003   1.000000
   68       -1.678036   1.000000
   69       -1.450608   1.000000
   70       -1.405243   1.000000
   71       -1.358976   1.000000
   72       -1.294820   1.000000
   73       -1.285035   1.000000
   74       -1.168233   1.000000
   75       -1.030790   1.000000
   76       -0.989593   1.000000
   77       -0.959826   1.000000
   78       -0.916126   1.000000
   79       -0.846560   1.000000
   80       -0.819401   1.000000
   81       -0.743816   1.000000
   82       -0.645629   1.000000
   83       -0.575851   1.000000
   84       -0.460912   1.000000
   85       -0.358482   1.000000
   86       -0.229992   1.000000
   87       -0.203447   1.000000
   88       -0.188141   1.000000
   89       -0.132414   1.000000
   90       -0.069439   1.000000
   91        0.063191   1.000000
   92        0.104272   1.000000
   93        0.153608   1.000000
   94        0.232083   1.000000
   95        0.277153   1.000000
   96        0.367173   1.000000
   97        0.394015   1.000000
   98        0.436562   1.000000
   99        0.449288   1.000000
  100        0.542312   1.000000
  101        0.565832   1.000000
  102        0.656503   1.000000
  103        0.786508   1.000000
  104        0.804263   1.000000
  105        0.890632   1.000000
  106        0.949842   1.000000
  107        0.959617   1.000000
  108        1.058839   1.000000
  109        1.081547   1.000000
  110        1.135574   1.000000
  111        1.222117   1.000000
  112        1.294981   1.000000
  113        1.383370   1.000000
  114        1.448193   1.000000
  115        1.538108   1.000000
  116        1.567085   1.000000
  117        1.636029   1.000000
  118        1.683415   1.000000
  119        1.741752   1.000000
  120        1.886899   1.000000
  121        1.973212   1.000000
  122        2.028405   1.000000
  123        2.118836   1.000000
  124        2.200101   1.000000
  125        2.222187   1.000000
  126        2.264061   1.000000
  127        2.289137   1.000000
  128        2.309793   1.000000
  129        2.331436   1.000000
  130        2.360924   1.000000
  131        2.421383   1.000000
  132        2.467722   1.000000
  133        2.503789   1.000000
  134        2.580147   1.000000
  135        2.679923   1.000000
  136        2.747537   1.000000
  137        2.765920   1.000000
  138        2.805834   1.000000
  139        2.847720   1.000000
  140        2.881043   1.000000
  141        2.920377   1.000000
  142        2.968828   1.000000
  143        2.994731   1.000000
  144        2.999769   1.000000
  145        3.025851   1.000000
  146        3.036808   1.000000
  147        3.121763   1.000000
  148        3.149936   1.000000
  149        3.232629   1.000000
  150        3.285214   1.000000
  151        3.293159   1.000000
  152        3.400123   1.000000
  153        3.412775   1.000000
  154        3.472347   1.000000
  155        3.543801   1.000000
  156        3.605657   1.000000
  157        3.608123   1.000000
  158        3.644942   1.000000
  159        3.657846   1.000000
  160        3.699817   1.000000
  161        3.789447   1.000000
  162        3.848853   1.000000
  163        3.852824   1.000000
  164        3.949947   1.000000
  165        3.971035   1.000000
  166        4.020912   1.000000
  167        4.072081   1.000000
  168        4.148478   1.000000
  169        4.167436   1.000000
  170        4.201391   1.000000
  171        4.227122   1.000000
  172        4.366696   1.000000
  173        4.559500   1.000000
  174        4.626696   1.000000
  175        4.685074   1.000000
  176        4.749339   1.000000
  177        4.789902   1.000000
  178        4.843907   1.000000
  179        4.897291   1.000000
  180        4.906098   1.000000
  181        5.037552   1.000000
  182        5.099090   1.000000
  183        5.121115   1.000000
  184        5.130799   1.000000
  185        5.152041   1.000000
  186        5.280974   1.000000
  187        5.385563   0.918393
  188        5.467923  -0.085621
  189        5.491669   0.000000
  190        5.582245   0.000000
  191        5.683021   0.000000
  192        5.722050   0.000000
  193        6.778809   0.000000
  194        6.886644   0.000000
  195        7.031530   0.000000
  196        7.657270   0.000000
  197        7.793798   0.000000
  198        7.827269   0.000000
  199        8.368683   0.000000
  200        8.669946   0.000000
  201        8.792219   0.000000
  202        8.940324   0.000000
  203        9.136109   0.000000
  204        9.186607   0.000000
  205        9.343744   0.000000
  206        9.441658   0.000000
  207        9.642862   0.000000
  208        9.746116   0.000000
  209        9.756818   0.000000
  210        9.768201   0.000000
  211        9.918164   0.000000
  212       10.001696   0.000000
  213       10.085554   0.000000
  214       10.252597   0.000000
  215       10.277770   0.000000
  216       10.350309   0.000000
  217       10.409001   0.000000
  218       10.475168   0.000000
  219       10.558509   0.000000
  220       10.824109   0.000000
  221       10.920481   0.000000
  222       10.998969   0.000000
  223       11.183369   0.000000
  224       11.336839   0.000000
  225       11.476837   0.000000
  226       11.495464   0.000000
  227       11.548960   0.000000
  228       11.665022   0.000000
  229       11.717473   0.000000
  230       11.771004   0.000000
  231       11.826332   0.000000
  232       11.878244   0.000000
  233       11.910423   0.000000
  234       12.070388   0.000000
  235       12.077525   0.000000
  236       12.210340   0.000000
  237       12.273419   0.000000
  238       12.354840   0.000000
  239       12.359526   0.000000
  240       12.395755   0.000000
  241       12.527893   0.000000
  242       12.569954   0.000000
  243       12.634566   0.000000
  244       12.746966   0.000000
  245       12.955093   0.000000
  246       13.009810   0.000000
  247       13.080986   0.000000
  248       13.141983   0.000000
  249       13.170610   0.000000
  250       13.202066   0.000000
  251       13.318913   0.000000
  252       13.338554   0.000000
  253       13.431775   0.000000
  254       13.460425   0.000000
  255       13.652852   0.000000
  256       13.657627   0.000000
 
  0.1666667E+00  0.3333333E+00  0.2775558E-16  0.9259259E-02
    1      -11.494296   1.000000
    2      -11.299143   1.000000
    3      -11.215222   1.000000
    4       -9.934505   1.000000
    5       -9.835652   1.000000
    6       -9.632467   1.000000
    7       -9.538203   1.000000
    8       -9.498568   1.000000
    9       -9.363818   1.000000
   10       -9.290075   1.000000
   11       -9.170119   1.000000
   12       -8.774836   1.000000
   13       -8.607447   1.000000
   14       -8.514629   1.000000
   15       -8.361578   1.000000
   16       -8.277589   1.000000
   17       -8.149696   1.000000
   18       -7.907434   1.000000
   19       -7.812444   1.000000
   20       -7.591487   1.000000
   21       -7.552040   1.000000
   22       -7.367369   1.000000
   23       -7.162842   1.000000
   24       -6.985322   1.000000
   25       -6.197454   1.000000
   26       -6.114480   1.000000
   27       -6.037476   1.000000
   28       -5.952758   1.000000
   29       -5.941656   1.000000
   30       -5.775188   1.000000
   31       -5.555782   1.000000
   32       -5.522748   1.000000
   33       -5.487623   1.000000
   34       -5.309965   1.000000
   35       -5.167246   1.000000
   36       -5.113607   1.000000
   37       -4.946723   1.000000
   38       -4.904431   1.000000
   39       -4.740417   1.000000
   40       -4.668162   1.000000
   41       -4.383497   1.000000
   42       -4.221382   1.000000
   43       -4.185599   1.000000
   44       -4.039503   1.000000
   45       -3.955697   1.000000
   46       -3.902966   1.000000
   47       -3.821321   1.000000
   48       -3.544968   1.000000
   49       -3.356119   1.000000
   50       -3.232898   1.000000
   51       -3.109678   1.000000
   52       -3.036378   1.000000
   53       -2.812797   1.000000
   54       -2.768346   1.000000
   55       -2.723207   1.000000
   56       -2.673618   1.000000
   57       -2.578415   1.000000
   58       -2.534903   1.000000
   59       -2.476424   1.000000
   60       -2.405224   1.000000
   61       -2.242894   1.000000
   62       -2.225354   1.000000
   63       -2.177847   1.000000
   64       -1.905139   1.000000
   65       -1.820127   1.000000
   66       -1.711598   1.000000
   67       -1.648639   1.000000
   68       -1.590111   1.000000
   69       -1.400603   1.000000
   70       -1.318051   1.000000
   71       -1.291829   1.000000
   72       -1.255378   1.000000
   73       -1.226342   1.000000
   74       -1.205550   1.000000
   75       -1.093127   1.000000
   76       -1.058604   1.000000
   77       -0.998515   1.000000
   78       -0.955029   1.000000
   79       -0.762779   1.000000
   80       -0.718072   1.000000
   81       -0.659159   1.000000
   82       -0.625510   1.000000
   83       -0.550621   1.000000
   84       -0.443227   1.000000
   85       -0.352518   1.000000
   86       -0.288506   1.000000
   87       -0.272823   1.000000
   88       -0.195930   1.000000
   89       -0.132762   1.000000
   90        0.003128   1.000000
   91        0.067633   1.000000
   92        0.102353   1.000000
   93        0.131709   1.000000
   94        0.215311   1.000000
   95        0.268785   1.000000
   96        0.308853   1.000000
   97        0.331527   1.000000
   98        0.350593   1.000000
   99        0.453972   1.000000
  100        0.523894   1.000000
  101        0.594762   1.000000
  102        0.626453   1.000000
  103        0.680674   1.000000
  104        0.755439   1.000000
  105        0.872999   1.000000
  106        0.918257   1.000000
  107        0.965585   1.000000
  108        1.019670   1.000000
  109        1.036042   1.000000
  110        1.090828   1.000000
  111        1.110903   1.000000
  112        1.233919   1.000000
  113        1.326083   1.000000
  114        1.363759   1.000000
  115        1.447543   1.000000
  116        1.499754   1.000000
  117        1.565578   1.000000
  118        1.802058   1.000000
  119        1.857626   1.000000
  120        1.881843   1.000000
  121        1.903786   1.000000
  122        1.953870   1.000000
  123        2.012502   1.000000
  124        2.133574   1.000000
  125        2.145640   1.000000
  126        2.204349   1.000000
  127        2.258008   1.000000
  128        2.310433   1.000000
  129        2.339296   1.000000
  130        2.412205   1.000000
  131        2.448002   1.000000
  132        2.532807   1.000000
  133        2.575870   1.000000
  134        2.595199   1.000000
  135        2.664044   1.000000
  136        2.666341   1.000000
  137        2.730158   1.000000
  138        2.771310   1.000000
  139        2.782033   1.000000
  140        2.861932   1.000000
  141        2.962328   1.000000
  142        2.983093   1.000000
  143        3.003670   1.000000
  144        3.041063   1.000000
  145        3.092079   1.000000
  146        3.100181   1.000000
  147        3.162472   1.000000
  148        3.204590   1.000000
  149        3.295479   1.000000
  150        3.309780   1.000000
  151        3.354801   1.000000
  152        3.408346   1.000000
  153        3.447614   1.000000
  154        3.518190   1.000000
  155        3.596448   1.000000
  156        3.642322   1.000000
  157        3.681429   1.000000
  158        3.712797   1.000000
  159        3.779943   1.000000
  160        3.826528   1.000000
  161        3.847662   1.000000
  162        3.872769   1.000000
  163        3.897265   1.000000
  164        3.970736   1.000000
  165        4.039366   1.000000
  166        4.058718   1.000000
  167        4.085927   1.000000
  168        4.165697   1.000000
  169        4.208721   1.000000
  170        4.340369   1.000000
  171        4.387542   1.000000
  172        4.399244   1.000000
  173        4.549188   1.000000
  174        4.623179   1.000000
  175        4.686594   1.000000
  176        4.724455   1.000000
  177        4.752045   1.000000
  178        4.778512   1.000000
  179        4.859699   1.000000
  180        4.916559   1.000000
  181        4.966332   1.000000
  182        5.044871   1.000000
  183        5.063426   1.000000
  184        5.108409   1.000000
  185        5.167898   1.000000
  186        5.187020   1.000000
  187        5.253555   1.000000
  188        5.400918   0.523385
  189        5.443226  -0.039833
  190        5.551566  -0.000652
  191        5.652262   0.000000
  192        5.663671   0.000000
  193        6.802630   0.000000
  194        6.914789   0.000000
  195        6.999581   0.000000
  196        7.562519   0.000000
  197        7.742877   0.000000
  198        7.775169   0.000000
  199        8.417448   0.000000
  200        8.671969   0.000000
  201        8.838497   0.000000
  202        8.872101   0.000000
  203        9.091039   0.000000
  204        9.382805   0.000000
  205        9.404446   0.000000
  206        9.462483   0.000000
  207        9.568600   0.000000
  208        9.619352   0.000000
  209        9.782390   0.000000
  210        9.857532   0.000000
  211        9.897509   0.000000
  212       10.034658   0.000000
  213       10.163512   0.000000
  214       10.289247   0.000000
  215       10.322453   0.000000
  216       10.368941   0.000000
  217       10.415044   0.000000
  218       10.563440   0.000000
  219       10.681124   0.000000
  220       10.837605   0.000000
  221       10.912590   0.000000
  222       11.167658   0.000000
  223       11.220627   0.000000
  224       11.292593   0.000000
  225       11.363577   0.000000
  226       11.436061   0.000000
  227       11.600521   0.000000
  228       11.634208   0.000000
  229       11.741537   0.000000
  230       11.780403   0.000000
  231       11.838779   0.000000
  232       11.878790   0.000000
  233       11.914937   0.000000
  234       11.926954   0.000000
  235       11.972238   0.000000
  236       12.017896   0.000000
  237       12.238662   0.000000
  238       12.278199   0.000000
  239       12.339486   0.000000
  240       12.363573   0.000000
  241       12.438280   0.000000
  242       12.552207   0.000000
  243       12.627115   0.000000
  244       12.700894   0.000000
  245       12.742729   0.000000
  246       12.884376   0.000000
  247       12.913955   0.000000
  248       13.083195   0.000000
  249       13.161414   0.000000
  250       13.187917   0.000000
  251       13.317454   0.000000
  252       13.375950   0.000000
  253       13.466323   0.000000
  254       13.480107   0.000000
  255       13.520094   0.000000
  256       13.787931   0.000000
 
  0.3333333E+00  0.3333333E+00  0.2775558E-16  0.9259259E-02
    1      -11.463584   1.000000
    2      -11.302834   1.000000
    3      -11.253668   1.000000
    4       -9.933170   1.000000
    5       -9.823181   1.000000
    6       -9.682539   1.000000
    7       -9.494715   1.000000
    8       -9.469430   1.000000
    9       -9.392070   1.000000
   10       -9.239173   1.000000
   11       -9.199049   1.000000
   12       -8.810621   1.000000
   13       -8.657687   1.000000
   14       -8.478779   1.000000
   15       -8.316524   1.000000
   16       -8.289000   1.000000
   17       -8.137965   1.000000
   18       -7.841429   1.000000
   19       -7.789003   1.000000
   20       -7.592768   1.000000
   21       -7.575015   1.000000
   22       -7.372780   1.000000
   23       -7.192663   1.000000
   24       -7.026664   1.000000
   25       -6.208403   1.000000
   26       -6.190457   1.000000
   27       -6.062932   1.000000
   28       -5.926079   1.000000
   29       -5.910474   1.000000
   30       -5.677237   1.000000
   31       -5.587161   1.000000
   32       -5.499955   1.000000
   33       -5.480907   1.000000
   34       -5.381262   1.000000
   35       -5.175636   1.000000
   36       -5.059596   1.000000
   37       -4.990957   1.000000
   38       -4.871636   1.000000
   39       -4.840341   1.000000
   40       -4.737886   1.000000
   41       -4.337589   1.000000
   42       -4.283459   1.000000
   43       -4.217317   1.000000
   44       -4.116995   1.000000
   45       -3.945286   1.000000
   46       -3.909690   1.000000
   47       -3.789523   1.000000
   48       -3.574193   1.000000
   49       -3.315927   1.000000
   50       -3.141305   1.000000
   51       -3.084418   1.000000
   52       -2.934214   1.000000
   53       -2.849384   1.000000
   54       -2.767485   1.000000
   55       -2.729201   1.000000
   56       -2.613668   1.000000
   57       -2.557126   1.000000
   58       -2.395740   1.000000
   59       -2.295086   1.000000
   60       -2.211742   1.000000
   61       -2.155630   1.000000
   62       -2.115526   1.000000
   63       -2.109229   1.000000
   64       -1.858324   1.000000
   65       -1.777595   1.000000
   66       -1.678446   1.000000
   67       -1.637070   1.000000
   68       -1.612343   1.000000
   69       -1.496175   1.000000
   70       -1.356574   1.000000
   71       -1.340730   1.000000
   72       -1.316491   1.000000
   73       -1.223707   1.000000
   74       -1.204122   1.000000
   75       -1.159459   1.000000
   76       -1.091428   1.000000
   77       -1.072850   1.000000
   78       -0.973635   1.000000
   79       -0.952526   1.000000
   80       -0.858718   1.000000
   81       -0.833423   1.000000
   82       -0.693042   1.000000
   83       -0.610783   1.000000
   84       -0.445064   1.000000
   85       -0.395705   1.000000
   86       -0.312051   1.000000
   87       -0.252617   1.000000
   88       -0.221758   1.000000
   89       -0.147158   1.000000
   90       -0.136671   1.000000
   91       -0.089111   1.000000
   92       -0.005728   1.000000
   93        0.040681   1.000000
   94        0.072382   1.000000
   95        0.188214   1.000000
   96        0.283313   1.000000
   97        0.343694   1.000000
   98        0.369607   1.000000
   99        0.404040   1.000000
  100        0.480389   1.000000
  101        0.630649   1.000000
  102        0.663629   1.000000
  103        0.746844   1.000000
  104        0.777739   1.000000
  105        0.861959   1.000000
  106        0.935139   1.000000
  107        1.034362   1.000000
  108        1.138522   1.000000
  109        1.154729   1.000000
  110        1.189571   1.000000
  111        1.236043   1.000000
  112        1.276389   1.000000
  113        1.336629   1.000000
  114        1.385756   1.000000
  115        1.443666   1.000000
  116        1.529202   1.000000
  117        1.662899   1.000000
  118        1.756726   1.000000
  119        1.780258   1.000000
  120        1.806302   1.000000
  121        1.976311   1.000000
  122        2.060842   1.000000
  123        2.092033   1.000000
  124        2.155433   1.000000
  125        2.187868   1.000000
  126        2.281285   1.000000
  127        2.330583   1.000000
  128        2.341530   1.000000
  129        2.346035   1.000000
  130        2.358298   1.000000
  131        2.405447   1.000000
  132        2.501245   1.000000
  133        2.558200   1.000000
  134        2.588820   1.000000
  135        2.679915   1.000000
  136        2.700064   1.000000
  137        2.740738   1.000000
  138        2.804879   1.000000
  139        2.850109   1.000000
  140        2.882238   1.000000
  141        2.909301   1.000000
  142        2.951156   1.000000
  143        2.970338   1.000000
  144        3.002654   1.000000
  145        3.111516   1.000000
  146        3.152420   1.000000
  147        3.182193   1.000000
  148        3.223922   1.000000
  149        3.293584   1.000000
  150        3.338966   1.000000
  151        3.368663   1.000000
  152        3.464322   1.000000
  153        3.511941   1.000000
  154        3.547729   1.000000
  155        3.632107   1.000000
  156        3.668812   1.000000
  157        3.732234   1.000000
  158        3.780689   1.000000
  159        3.799187   1.000000
  160        3.848976   1.000000
  161        3.854288   1.000000
  162        3.967019   1.000000
  163        3.978808   1.000000
  164        4.009999   1.000000
  165        4.103216   1.000000
  166        4.117591   1.000000
  167        4.166080   1.000000
  168        4.228967   1.000000
  169        4.252398   1.000000
  170        4.348581   1.000000
  171        4.405813   1.000000
  172        4.476097   1.000000
  173        4.507233   1.000000
  174        4.535658   1.000000
  175        4.610263   1.000000
  176        4.672791   1.000000
  177        4.681865   1.000000
  178        4.713727   1.000000
  179        4.744269   1.000000
  180        4.790585   1.000000
  181        4.908446   1.000000
  182        4.964471   1.000000
  183        5.008246   1.000000
  184        5.026845   1.000000
  185        5.070946   1.000000
  186        5.124748   1.000000
  187        5.192845   1.000000
  188        5.277250   1.018915
  189        5.436651   0.117509
  190        5.485715  -0.065998
  191        5.497277   0.000000
  192        5.580973   0.000000
  193        6.847778   0.000000
  194        6.928209   0.000000
  195        6.997085   0.000000
  196        7.551283   0.000000
  197        7.703342   0.000000
  198        7.788012   0.000000
  199        8.483824   0.000000
  200        8.692797   0.000000
  201        8.808058   0.000000
  202        8.896757   0.000000
  203        9.141813   0.000000
  204        9.276193   0.000000
  205        9.380658   0.000000
  206        9.543647   0.000000
  207        9.759520   0.000000
  208        9.842271   0.000000
  209        9.924981   0.000000
  210        9.938493   0.000000
  211       10.023138   0.000000
  212       10.116516   0.000000
  213       10.239408   0.000000
  214       10.349513   0.000000
  215       10.433582   0.000000
  216       10.434971   0.000000
  217       10.608206   0.000000
  218       10.661388   0.000000
  219       10.743799   0.000000
  220       10.831420   0.000000
  221       10.990556   0.000000
  222       11.064086   0.000000
  223       11.133660   0.000000
  224       11.171289   0.000000
  225       11.272731   0.000000
  226       11.325352   0.000000
  227       11.394677   0.000000
  228       11.411435   0.000000
  229       11.445502   0.000000
  230       11.615606   0.000000
  231       11.861087   0.000000
  232       11.900615   0.000000
  233       11.936634   0.000000
  234       11.967707   0.000000
  235       11.998310   0.000000
  236       12.045591   0.000000
  237       12.139171   0.000000
  238       12.276928   0.000000
  239       12.299663   0.000000
  240       12.325819   0.000000
  241       12.374564   0.000000
  242       12.414771   0.000000
  243       12.532238   0.000000
  244       12.612001   0.000000
  245       12.623902   0.000000
  246       12.688218   0.000000
  247       12.711753   0.000000
  248       12.896852   0.000000
  249       13.154279   0.000000
  250       13.235772   0.000000
  251       13.266320   0.000000
  252       13.397400   0.000000
  253       13.568874   0.000000
  254       13.626535   0.000000
  255       13.669065   0.000000
  256       13.737911   0.000000
 
  0.5000000E+00  0.3333333E+00  0.1110223E-15  0.9259259E-02
    1      -11.412841   1.000000
    2      -11.355279   1.000000
    3      -11.260051   1.000000
    4       -9.913331   1.000000
    5       -9.801111   1.000000
    6       -9.720511   1.000000
    7       -9.503055   1.000000
    8       -9.496890   1.000000
    9       -9.372128   1.000000
   10       -9.309857   1.000000
   11       -9.153995   1.000000
   12       -8.802180   1.000000
   13       -8.611690   1.000000
   14       -8.433273   1.000000
   15       -8.302551   1.000000
   16       -8.223852   1.000000
   17       -8.105126   1.000000
   18       -7.861865   1.000000
   19       -7.779089   1.000000
   20       -7.674066   1.000000
   21       -7.610104   1.000000
   22       -7.349532   1.000000
   23       -7.234219   1.000000
   24       -7.138531   1.000000
   25       -6.257531   1.000000
   26       -6.199989   1.000000
   27       -6.104247   1.000000
   28       -5.857861   1.000000
   29       -5.783001   1.000000
   30       -5.735834   1.000000
   31       -5.607039   1.000000
   32       -5.546221   1.000000
   33       -5.343837   1.000000
   34       -5.302898   1.000000
   35       -5.207044   1.000000
   36       -5.076925   1.000000
   37       -4.952509   1.000000
   38       -4.895388   1.000000
   39       -4.796135   1.000000
   40       -4.725990   1.000000
   41       -4.460120   1.000000
   42       -4.384530   1.000000
   43       -4.314304   1.000000
   44       -4.186314   1.000000
   45       -3.946629   1.000000
   46       -3.908111   1.000000
   47       -3.801475   1.000000
   48       -3.729485   1.000000
   49       -3.205449   1.000000
   50       -3.023163   1.000000
   51       -2.859983   1.000000
   52       -2.844623   1.000000
   53       -2.742417   1.000000
   54       -2.676549   1.000000
   55       -2.544078   1.000000
   56       -2.476483   1.000000
   57       -2.346576   1.000000
   58       -2.319350   1.000000
   59       -2.265968   1.000000
   60       -2.211616   1.000000
   61       -2.175668   1.000000
   62       -2.075248   1.000000
   63       -1.933247   1.000000
   64       -1.832735   1.000000
   65       -1.799825   1.000000
   66       -1.750387   1.000000
   67       -1.716933   1.000000
   68       -1.673930   1.000000
   69       -1.609479   1.000000
   70       -1.587817   1.000000
   71       -1.474429   1.000000
   72       -1.357324   1.000000
   73       -1.334304   1.000000
   74       -1.255431   1.000000
   75       -1.214386   1.000000
   76       -1.187235   1.000000
   77       -1.085757   1.000000
   78       -0.930408   1.000000
   79       -0.918957   1.000000
   80       -0.899618   1.000000
   81       -0.816077   1.000000
   82       -0.773098   1.000000
   83       -0.749003   1.000000
   84       -0.744625   1.000000
   85       -0.645158   1.000000
   86       -0.588151   1.000000
   87       -0.403087   1.000000
   88       -0.352451   1.000000
   89       -0.295951   1.000000
   90       -0.227777   1.000000
   91       -0.170778   1.000000
   92       -0.084022   1.000000
   93       -0.015272   1.000000
   94        0.171036   1.000000
   95        0.244048   1.000000
   96        0.327129   1.000000
   97        0.363443   1.000000
   98        0.464433   1.000000
   99        0.592172   1.000000
  100        0.693604   1.000000
  101        0.751948   1.000000
  102        0.810510   1.000000
  103        0.841766   1.000000
  104        0.897612   1.000000
  105        0.921601   1.000000
  106        1.038392   1.000000
  107        1.065922   1.000000
  108        1.097334   1.000000
  109        1.208469   1.000000
  110        1.250917   1.000000
  111        1.340186   1.000000
  112        1.390112   1.000000
  113        1.418909   1.000000
  114        1.467581   1.000000
  115        1.497821   1.000000
  116        1.662080   1.000000
  117        1.694223   1.000000
  118        1.725386   1.000000
  119        1.802696   1.000000
  120        1.854276   1.000000
  121        1.979644   1.000000
  122        1.997711   1.000000
  123        2.052933   1.000000
  124        2.136906   1.000000
  125        2.206235   1.000000
  126        2.301604   1.000000
  127        2.309262   1.000000
  128        2.379771   1.000000
  129        2.402073   1.000000
  130        2.413391   1.000000
  131        2.436324   1.000000
  132        2.498589   1.000000
  133        2.512073   1.000000
  134        2.625432   1.000000
  135        2.630399   1.000000
  136        2.687598   1.000000
  137        2.776755   1.000000
  138        2.808125   1.000000
  139        2.934711   1.000000
  140        2.935423   1.000000
  141        2.961350   1.000000
  142        3.013928   1.000000
  143        3.052469   1.000000
  144        3.082941   1.000000
  145        3.146753   1.000000
  146        3.165549   1.000000
  147        3.189488   1.000000
  148        3.222635   1.000000
  149        3.267264   1.000000
  150        3.277871   1.000000
  151        3.310920   1.000000
  152        3.329700   1.000000
  153        3.428740   1.000000
  154        3.504138   1.000000
  155        3.591343   1.000000
  156        3.666466   1.000000
  157        3.722513   1.000000
  158        3.757085   1.000000
  159        3.816131   1.000000
  160        3.888330   1.000000
  161        3.935961   1.000000
  162        3.945510   1.000000
  163        3.998793   1.000000
  164        4.029028   1.000000
  165        4.052499   1.000000
  166        4.104630   1.000000
  167        4.135723   1.000000
  168        4.192928   1.000000
  169        4.254396   1.000000
  170        4.308519   1.000000
  171        4.364881   1.000000
  172        4.383239   1.000000
  173        4.447273   1.000000
  174        4.515652   1.000000
  175        4.556966   1.000000
  176        4.610190   1.000000
  177        4.640647   1.000000
  178        4.701253   1.000000
  179        4.712377   1.000000
  180        4.739654   1.000000
  181        4.857493   1.000000
  182        4.890802   1.000000
  183        4.906306   1.000000
  184        4.988871   1.000000
  185        5.089189   1.000000
  186        5.111618   1.000000
  187        5.148192   1.000000
  188        5.230799   1.000000
  189        5.363435   0.881651
  190        5.511063  -0.131751
  191        5.517024   0.000000
  192        5.564573   0.000000
  193        6.887715   0.000000
  194        6.901339   0.000000
  195        7.031988   0.000000
  196        7.620433   0.000000
  197        7.708585   0.000000
  198        7.840785   0.000000
  199        8.555553   0.000000
  200        8.609318   0.000000
  201        8.838709   0.000000
  202        8.966095   0.000000
  203        9.062315   0.000000
  204        9.277121   0.000000
  205        9.517558   0.000000
  206        9.657407   0.000000
  207        9.784314   0.000000
  208        9.918491   0.000000
  209        9.976548   0.000000
  210       10.079195   0.000000
  211       10.135651   0.000000
  212       10.220887   0.000000
  213       10.236542   0.000000
  214       10.302034   0.000000
  215       10.411933   0.000000
  216       10.583837   0.000000
  217       10.655472   0.000000
  218       10.752505   0.000000
  219       10.896021   0.000000
  220       10.904361   0.000000
  221       10.930192   0.000000
  222       10.943510   0.000000
  223       11.017240   0.000000
  224       11.135327   0.000000
  225       11.163794   0.000000
  226       11.214343   0.000000
  227       11.275538   0.000000
  228       11.337949   0.000000
  229       11.399929   0.000000
  230       11.491611   0.000000
  231       11.553166   0.000000
  232       11.927033   0.000000
  233       11.972189   0.000000
  234       11.981688   0.000000
  235       12.043115   0.000000
  236       12.093313   0.000000
  237       12.134594   0.000000
  238       12.194255   0.000000
  239       12.270369   0.000000
  240       12.292947   0.000000
  241       12.341925   0.000000
  242       12.390047   0.000000
  243       12.417816   0.000000
  244       12.517816   0.000000
  245       12.550251   0.000000
  246       12.587174   0.000000
  247       12.844818   0.000000
  248       12.975006   0.000000
  249       13.165044   0.000000
  250       13.259732   0.000000
  251       13.348094   0.000000
  252       13.488809   0.000000
  253       13.507931   0.000000
  254       13.517664   0.000000
  255       13.647173   0.000000
  256       13.802474   0.000000
 
 -0.3333333E+00  0.3333333E+00  0.6938894E-17  0.9259259E-02
    1      -11.419966   1.000000
    2      -11.360798   1.000000
    3      -11.244647   1.000000
    4       -9.899107   1.000000
    5       -9.768228   1.000000
    6       -9.679092   1.000000
    7       -9.627911   1.000000
    8       -9.561147   1.000000
    9       -9.355691   1.000000
   10       -9.260260   1.000000
   11       -9.192327   1.000000
   12       -8.714322   1.000000
   13       -8.529329   1.000000
   14       -8.450269   1.000000
   15       -8.309794   1.000000
   16       -8.187656   1.000000
   17       -7.996513   1.000000
   18       -7.971829   1.000000
   19       -7.894533   1.000000
   20       -7.672975   1.000000
   21       -7.619899   1.000000
   22       -7.348202   1.000000
   23       -7.259693   1.000000
   24       -7.193016   1.000000
   25       -6.258477   1.000000
   26       -6.220167   1.000000
   27       -5.951867   1.000000
   28       -5.935465   1.000000
   29       -5.878585   1.000000
   30       -5.716794   1.000000
   31       -5.618389   1.000000
   32       -5.447361   1.000000
   33       -5.365035   1.000000
   34       -5.185663   1.000000
   35       -5.095785   1.000000
   36       -5.053790   1.000000
   37       -4.940486   1.000000
   38       -4.894752   1.000000
   39       -4.794861   1.000000
   40       -4.710334   1.000000
   41       -4.591906   1.000000
   42       -4.496825   1.000000
   43       -4.341286   1.000000
   44       -4.055503   1.000000
   45       -3.965249   1.000000
   46       -3.948038   1.000000
   47       -3.893363   1.000000
   48       -3.802549   1.000000
   49       -3.143523   1.000000
   50       -2.960863   1.000000
   51       -2.758221   1.000000
   52       -2.693490   1.000000
   53       -2.644172   1.000000
   54       -2.487593   1.000000
   55       -2.474542   1.000000
   56       -2.408660   1.000000
   57       -2.382901   1.000000
   58       -2.381295   1.000000
   59       -2.322708   1.000000
   60       -2.246370   1.000000
   61       -2.192479   1.000000
   62       -2.084612   1.000000
   63       -2.050527   1.000000
   64       -1.912670   1.000000
   65       -1.808570   1.000000
   66       -1.792229   1.000000
   67       -1.757024   1.000000
   68       -1.725235   1.000000
   69       -1.692479   1.000000
   70       -1.641889   1.000000
   71       -1.613992   1.000000
   72       -1.510659   1.000000
   73       -1.428083   1.000000
   74       -1.306198   1.000000
   75       -1.191177   1.000000
   76       -1.153341   1.000000
   77       -1.118560   1.000000
   78       -1.095559   1.000000
   79       -0.921070   1.000000
   80       -0.917744   1.000000
   81       -0.861384   1.000000
   82       -0.814437   1.000000
   83       -0.770581   1.000000
   84       -0.674565   1.000000
   85       -0.598010   1.000000
   86       -0.468074   1.000000
   87       -0.441020   1.000000
   88       -0.386290   1.000000
   89       -0.319145   1.000000
   90       -0.262636   1.000000
   91       -0.120060   1.000000
   92       -0.065279   1.000000
   93        0.107091   1.000000
   94        0.271742   1.000000
   95        0.342052   1.000000
   96        0.421503   1.000000
   97        0.474488   1.000000
   98        0.527551   1.000000
   99        0.557902   1.000000
  100        0.626578   1.000000
  101        0.780118   1.000000
  102        0.809080   1.000000
  103        0.840492   1.000000
  104        0.970339   1.000000
  105        1.005920   1.000000
  106        1.057000   1.000000
  107        1.083126   1.000000
  108        1.163432   1.000000
  109        1.205404   1.000000
  110        1.230818   1.000000
  111        1.328476   1.000000
  112        1.416820   1.000000
  113        1.459285   1.000000
  114        1.517178   1.000000
  115        1.580966   1.000000
  116        1.641067   1.000000
  117        1.727279   1.000000
  118        1.774484   1.000000
  119        1.797645   1.000000
  120        1.917347   1.000000
  121        1.949059   1.000000
  122        1.969857   1.000000
  123        2.123053   1.000000
  124        2.182090   1.000000
  125        2.231717   1.000000
  126        2.238253   1.000000
  127        2.292235   1.000000
  128        2.329412   1.000000
  129        2.381842   1.000000
  130        2.500087   1.000000
  131        2.525763   1.000000
  132        2.589071   1.000000
  133        2.591090   1.000000
  134        2.603327   1.000000
  135        2.670847   1.000000
  136        2.721867   1.000000
  137        2.743189   1.000000
  138        2.822061   1.000000
  139        2.856330   1.000000
  140        2.911752   1.000000
  141        2.971513   1.000000
  142        3.041933   1.000000
  143        3.058580   1.000000
  144        3.064709   1.000000
  145        3.124407   1.000000
  146        3.157533   1.000000
  147        3.198825   1.000000
  148        3.202054   1.000000
  149        3.252310   1.000000
  150        3.274500   1.000000
  151        3.324309   1.000000
  152        3.338481   1.000000
  153        3.371366   1.000000
  154        3.427153   1.000000
  155        3.467650   1.000000
  156        3.569795   1.000000
  157        3.628270   1.000000
  158        3.702154   1.000000
  159        3.714111   1.000000
  160        3.737132   1.000000
  161        3.806925   1.000000
  162        3.867812   1.000000
  163        3.930118   1.000000
  164        3.943886   1.000000
  165        3.983337   1.000000
  166        4.032070   1.000000
  167        4.068213   1.000000
  168        4.202221   1.000000
  169        4.214993   1.000000
  170        4.276883   1.000000
  171        4.284252   1.000000
  172        4.324772   1.000000
  173        4.368878   1.000000
  174        4.450227   1.000000
  175        4.492044   1.000000
  176        4.609855   1.000000
  177        4.669101   1.000000
  178        4.758425   1.000000
  179        4.779953   1.000000
  180        4.842981   1.000000
  181        4.896714   1.000000
  182        4.947555   1.000000
  183        4.967364   1.000000
  184        5.081342   1.000000
  185        5.138985   1.000000
  186        5.205443   1.000000
  187        5.248089   1.000000
  188        5.355883   0.946482
  189        5.389176   0.472061
  190        5.540817  -0.036691
  191        5.547514   0.000000
  192        5.626132   0.000000
  193        6.857700   0.000000
  194        6.899645   0.000000
  195        7.054937   0.000000
  196        7.716007   0.000000
  197        7.746385   0.000000
  198        7.887871   0.000000
  199        8.467684   0.000000
  200        8.649322   0.000000
  201        8.879128   0.000000
  202        8.908291   0.000000
  203        9.059143   0.000000
  204        9.399253   0.000000
  205        9.484612   0.000000
  206        9.647797   0.000000
  207        9.752484   0.000000
  208        9.933452   0.000000
  209        9.951044   0.000000
  210        9.974447   0.000000
  211       10.086352   0.000000
  212       10.114619   0.000000
  213       10.160392   0.000000
  214       10.259678   0.000000
  215       10.430212   0.000000
  216       10.484026   0.000000
  217       10.505937   0.000000
  218       10.580968   0.000000
  219       10.673296   0.000000
  220       10.708208   0.000000
  221       10.820187   0.000000
  222       11.110198   0.000000
  223       11.168566   0.000000
  224       11.183867   0.000000
  225       11.295966   0.000000
  226       11.297878   0.000000
  227       11.327496   0.000000
  228       11.597113   0.000000
  229       11.662884   0.000000
  230       11.676910   0.000000
  231       11.742056   0.000000
  232       11.785747   0.000000
  233       11.853788   0.000000
  234       11.931402   0.000000
  235       11.978645   0.000000
  236       12.066467   0.000000
  237       12.149259   0.000000
  238       12.168933   0.000000
  239       12.217127   0.000000
  240       12.281382   0.000000
  241       12.386473   0.000000
  242       12.461746   0.000000
  243       12.480844   0.000000
  244       12.556135   0.000000
  245       12.607938   0.000000
  246       12.740501   0.000000
  247       13.035276   0.000000
  248       13.151359   0.000000
  249       13.208356   0.000000
  250       13.242267   0.000000
  251       13.326762   0.000000
  252       13.382504   0.000000
  253       13.461921   0.000000
  254       13.570955   0.000000
  255       13.735179   0.000000
  256       13.777376   0.000000
 
 -0.1666667E+00  0.3333333E+00  0.1387779E-16  0.9259259E-02
    1      -11.469808   1.000000
    2      -11.330838   1.000000
    3      -11.213188   1.000000
    4       -9.898907   1.000000
    5       -9.756658   1.000000
    6       -9.725964   1.000000
    7       -9.588831   1.000000
    8       -9.557915   1.000000
    9       -9.373991   1.000000
   10       -9.252074   1.000000
   11       -9.236286   1.000000
   12       -8.610539   1.000000
   13       -8.502478   1.000000
   14       -8.474733   1.000000
   15       -8.298002   1.000000
   16       -8.206090   1.000000
   17       -8.105045   1.000000
   18       -8.088124   1.000000
   19       -7.840967   1.000000
   20       -7.713191   1.000000
   21       -7.506458   1.000000
   22       -7.394620   1.000000
   23       -7.281916   1.000000
   24       -7.100244   1.000000
   25       -6.199770   1.000000
   26       -6.116246   1.000000
   27       -6.045668   1.000000
   28       -5.987040   1.000000
   29       -5.837615   1.000000
   30       -5.794730   1.000000
   31       -5.515709   1.000000
   32       -5.486284   1.000000
   33       -5.380860   1.000000
   34       -5.208519   1.000000
   35       -5.091062   1.000000
   36       -5.016653   1.000000
   37       -4.984627   1.000000
   38       -4.906163   1.000000
   39       -4.765692   1.000000
   40       -4.718210   1.000000
   41       -4.520982   1.000000
   42       -4.435122   1.000000
   43       -4.232208   1.000000
   44       -4.066361   1.000000
   45       -3.973250   1.000000
   46       -3.927747   1.000000
   47       -3.876546   1.000000
   48       -3.737278   1.000000
   49       -3.250317   1.000000
   50       -3.019104   1.000000
   51       -2.892520   1.000000
   52       -2.786189   1.000000
   53       -2.706977   1.000000
   54       -2.639651   1.000000
   55       -2.565934   1.000000
   56       -2.464034   1.000000
   57       -2.401364   1.000000
   58       -2.363363   1.000000
   59       -2.305437   1.000000
   60       -2.270673   1.000000
   61       -2.211177   1.000000
   62       -2.168196   1.000000
   63       -2.133609   1.000000
   64       -2.088597   1.000000
   65       -2.031911   1.000000
   66       -1.877616   1.000000
   67       -1.739029   1.000000
   68       -1.721814   1.000000
   69       -1.609311   1.000000
   70       -1.568828   1.000000
   71       -1.470519   1.000000
   72       -1.417070   1.000000
   73       -1.344617   1.000000
   74       -1.281726   1.000000
   75       -1.228049   1.000000
   76       -1.203906   1.000000
   77       -1.070385   1.000000
   78       -1.026064   1.000000
   79       -0.955194   1.000000
   80       -0.877952   1.000000
   81       -0.777882   1.000000
   82       -0.747458   1.000000
   83       -0.583979   1.000000
   84       -0.559030   1.000000
   85       -0.468844   1.000000
   86       -0.357485   1.000000
   87       -0.315579   1.000000
   88       -0.223919   1.000000
   89       -0.156340   1.000000
   90       -0.012356   1.000000
   91        0.034840   1.000000
   92        0.115268   1.000000
   93        0.199395   1.000000
   94        0.216821   1.000000
   95        0.260180   1.000000
   96        0.307940   1.000000
   97        0.355688   1.000000
   98        0.452959   1.000000
   99        0.561394   1.000000
  100        0.662202   1.000000
  101        0.674652   1.000000
  102        0.702854   1.000000
  103        0.798345   1.000000
  104        0.817382   1.000000
  105        0.886376   1.000000
  106        1.001079   1.000000
  107        1.021799   1.000000
  108        1.127589   1.000000
  109        1.194767   1.000000
  110        1.271837   1.000000
  111        1.310258   1.000000
  112        1.355800   1.000000
  113        1.418631   1.000000
  114        1.521237   1.000000
  115        1.543794   1.000000
  116        1.663306   1.000000
  117        1.680203   1.000000
  118        1.720240   1.000000
  119        1.786372   1.000000
  120        1.972898   1.000000
  121        2.010292   1.000000
  122        2.066914   1.000000
  123        2.191213   1.000000
  124        2.244322   1.000000
  125        2.316664   1.000000
  126        2.338424   1.000000
  127        2.364186   1.000000
  128        2.369714   1.000000
  129        2.400602   1.000000
  130        2.418307   1.000000
  131        2.462803   1.000000
  132        2.482261   1.000000
  133        2.529597   1.000000
  134        2.614719   1.000000
  135        2.618435   1.000000
  136        2.655220   1.000000
  137        2.679576   1.000000
  138        2.774533   1.000000
  139        2.863532   1.000000
  140        2.870412   1.000000
  141        2.908572   1.000000
  142        3.006447   1.000000
  143        3.039835   1.000000
  144        3.045095   1.000000
  145        3.069371   1.000000
  146        3.098123   1.000000
  147        3.127457   1.000000
  148        3.186075   1.000000
  149        3.195246   1.000000
  150        3.274088   1.000000
  151        3.301216   1.000000
  152        3.335749   1.000000
  153        3.349373   1.000000
  154        3.391118   1.000000
  155        3.440586   1.000000
  156        3.482859   1.000000
  157        3.566570   1.000000
  158        3.628240   1.000000
  159        3.678333   1.000000
  160        3.698991   1.000000
  161        3.762161   1.000000
  162        3.835947   1.000000
  163        3.883743   1.000000
  164        3.918115   1.000000
  165        3.966659   1.000000
  166        3.995588   1.000000
  167        4.076813   1.000000
  168        4.122234   1.000000
  169        4.152187   1.000000
  170        4.209337   1.000000
  171        4.253032   1.000000
  172        4.323279   1.000000
  173        4.417623   1.000000
  174        4.508577   1.000000
  175        4.618067   1.000000
  176        4.631480   1.000000
  177        4.778291   1.000000
  178        4.803351   1.000000
  179        4.870134   1.000000
  180        4.889868   1.000000
  181        4.966549   1.000000
  182        5.044784   1.000000
  183        5.117842   1.000000
  184        5.132557   1.000000
  185        5.223925   1.000000
  186        5.308102   1.000000
  187        5.364080   0.982113
  188        5.441945   0.012451
  189        5.498289   0.000000
  190        5.552376   0.000000
  191        5.614146   0.000000
  192        5.676814   0.000000
  193        6.805219   0.000000
  194        6.888727   0.000000
  195        7.053062   0.000000
  196        7.745152   0.000000
  197        7.785555   0.000000
  198        7.888516   0.000000
  199        8.381136   0.000000
  200        8.675309   0.000000
  201        8.772968   0.000000
  202        8.989265   0.000000
  203        9.128261   0.000000
  204        9.267138   0.000000
  205        9.359574   0.000000
  206        9.559791   0.000000
  207        9.687937   0.000000
  208        9.710349   0.000000
  209        9.772766   0.000000
  210        9.905287   0.000000
  211       10.027559   0.000000
  212       10.080238   0.000000
  213       10.257783   0.000000
  214       10.274163   0.000000
  215       10.331329   0.000000
  216       10.369706   0.000000
  217       10.459016   0.000000
  218       10.494860   0.000000
  219       10.549139   0.000000
  220       10.585881   0.000000
  221       10.706198   0.000000
  222       11.018559   0.000000
  223       11.149476   0.000000
  224       11.314341   0.000000
  225       11.421045   0.000000
  226       11.512508   0.000000
  227       11.569640   0.000000
  228       11.611209   0.000000
  229       11.663549   0.000000
  230       11.778341   0.000000
  231       11.856201   0.000000
  232       11.912423   0.000000
  233       11.920898   0.000000
  234       11.995646   0.000000
  235       12.054208   0.000000
  236       12.116368   0.000000
  237       12.193562   0.000000
  238       12.275370   0.000000
  239       12.336083   0.000000
  240       12.390979   0.000000
  241       12.450655   0.000000
  242       12.563507   0.000000
  243       12.591911   0.000000
  244       12.697986   0.000000
  245       12.747411   0.000000
  246       12.948633   0.000000
  247       13.047956   0.000000
  248       13.158510   0.000000
  249       13.255006   0.000000
  250       13.281450   0.000000
  251       13.309872   0.000000
  252       13.360043   0.000000
  253       13.375851   0.000000
  254       13.485001   0.000000
  255       13.582849   0.000000
  256       13.847876   0.000000
 
  0.0000000E+00  0.5000000E+00  0.0000000E+00  0.4629630E-02
    1      -11.477038   1.000000
    2      -11.335067   1.000000
    3      -11.196513   1.000000
    4       -9.907866   1.000000
    5       -9.742926   1.000000
    6       -9.739808   1.000000
    7       -9.615777   1.000000
    8       -9.506273   1.000000
    9       -9.378901   1.000000
   10       -9.340519   1.000000
   11       -9.193210   1.000000
   12       -8.610449   1.000000
   13       -8.454161   1.000000
   14       -8.412299   1.000000
   15       -8.309640   1.000000
   16       -8.191999   1.000000
   17       -8.140910   1.000000
   18       -8.046040   1.000000
   19       -7.945006   1.000000
   20       -7.630121   1.000000
   21       -7.527051   1.000000
   22       -7.520591   1.000000
   23       -7.255481   1.000000
   24       -7.077716   1.000000
   25       -6.075891   1.000000
   26       -6.061211   1.000000
   27       -6.023757   1.000000
   28       -5.985403   1.000000
   29       -5.963225   1.000000
   30       -5.904723   1.000000
   31       -5.499687   1.000000
   32       -5.424132   1.000000
   33       -5.387836   1.000000
   34       -5.337528   1.000000
   35       -5.171177   1.000000
   36       -5.030441   1.000000
   37       -4.921309   1.000000
   38       -4.813985   1.000000
   39       -4.793938   1.000000
   40       -4.782296   1.000000
   41       -4.398014   1.000000
   42       -4.262214   1.000000
   43       -4.114277   1.000000
   44       -4.059619   1.000000
   45       -4.011713   1.000000
   46       -4.006061   1.000000
   47       -3.851880   1.000000
   48       -3.833758   1.000000
   49       -3.110292   1.000000
   50       -3.022910   1.000000
   51       -2.912474   1.000000
   52       -2.675244   1.000000
   53       -2.657980   1.000000
   54       -2.653121   1.000000
   55       -2.610614   1.000000
   56       -2.594176   1.000000
   57       -2.541601   1.000000
   58       -2.376575   1.000000
   59       -2.364206   1.000000
   60       -2.285098   1.000000
   61       -2.208051   1.000000
   62       -2.183274   1.000000
   63       -2.037684   1.000000
   64       -1.988187   1.000000
   65       -1.968723   1.000000
   66       -1.913194   1.000000
   67       -1.880791   1.000000
   68       -1.877267   1.000000
   69       -1.726524   1.000000
   70       -1.642029   1.000000
   71       -1.481354   1.000000
   72       -1.435402   1.000000
   73       -1.361262   1.000000
   74       -1.358684   1.000000
   75       -1.238402   1.000000
   76       -1.235224   1.000000
   77       -1.100569   1.000000
   78       -1.008614   1.000000
   79       -0.879073   1.000000
   80       -0.874603   1.000000
   81       -0.727489   1.000000
   82       -0.649021   1.000000
   83       -0.490017   1.000000
   84       -0.468742   1.000000
   85       -0.437003   1.000000
   86       -0.273647   1.000000
   87       -0.187416   1.000000
   88       -0.155900   1.000000
   89       -0.081143   1.000000
   90       -0.048232   1.000000
   91        0.075191   1.000000
   92        0.096703   1.000000
   93        0.202439   1.000000
   94        0.213323   1.000000
   95        0.241103   1.000000
   96        0.304665   1.000000
   97        0.380448   1.000000
   98        0.443055   1.000000
   99        0.508425   1.000000
  100        0.577701   1.000000
  101        0.676794   1.000000
  102        0.692827   1.000000
  103        0.736605   1.000000
  104        0.800716   1.000000
  105        0.876981   1.000000
  106        0.916927   1.000000
  107        1.019355   1.000000
  108        1.077767   1.000000
  109        1.165576   1.000000
  110        1.169791   1.000000
  111        1.232703   1.000000
  112        1.279881   1.000000
  113        1.408566   1.000000
  114        1.538113   1.000000
  115        1.541650   1.000000
  116        1.613172   1.000000
  117        1.842146   1.000000
  118        1.842587   1.000000
  119        1.968720   1.000000
  120        1.998440   1.000000
  121        2.002756   1.000000
  122        2.195857   1.000000
  123        2.202408   1.000000
  124        2.235824   1.000000
  125        2.267185   1.000000
  126        2.268451   1.000000
  127        2.322884   1.000000
  128        2.362610   1.000000
  129        2.423927   1.000000
  130        2.428986   1.000000
  131        2.474637   1.000000
  132        2.488108   1.000000
  133        2.627575   1.000000
  134        2.648072   1.000000
  135        2.668105   1.000000
  136        2.689049   1.000000
  137        2.879521   1.000000
  138        2.879724   1.000000
  139        2.892114   1.000000
  140        2.924800   1.000000
  141        2.925784   1.000000
  142        2.985118   1.000000
  143        3.043558   1.000000
  144        3.046429   1.000000
  145        3.055473   1.000000
  146        3.069844   1.000000
  147        3.108949   1.000000
  148        3.144078   1.000000
  149        3.222731   1.000000
  150        3.253708   1.000000
  151        3.285313   1.000000
  152        3.304532   1.000000
  153        3.309237   1.000000
  154        3.341347   1.000000
  155        3.377378   1.000000
  156        3.424589   1.000000
  157        3.464504   1.000000
  158        3.574416   1.000000
  159        3.676315   1.000000
  160        3.677703   1.000000
  161        3.747179   1.000000
  162        3.752321   1.000000
  163        3.923796   1.000000
  164        3.943344   1.000000
  165        3.986479   1.000000
  166        3.988344   1.000000
  167        4.052237   1.000000
  168        4.081656   1.000000
  169        4.084783   1.000000
  170        4.114813   1.000000
  171        4.195474   1.000000
  172        4.217771   1.000000
  173        4.472673   1.000000
  174        4.530288   1.000000
  175        4.585683   1.000000
  176        4.618671   1.000000
  177        4.740681   1.000000
  178        4.855595   1.000000
  179        4.877774   1.000000
  180        4.940673   1.000000
  181        5.013560   1.000000
  182        5.022669   1.000000
  183        5.108620   1.000000
  184        5.134664   1.000000
  185        5.179641   1.000000
  186        5.201499   1.000000
  187        5.435068   0.319270
  188        5.477133  -0.047250
  189        5.536557   0.000000
  190        5.564243   0.000000
  191        5.704524   0.000000
  192        5.705443   0.000000
  193        6.827386   0.000000
  194        6.950464   0.000000
  195        7.043487   0.000000
  196        7.748186   0.000000
  197        7.829771   0.000000
  198        7.842238   0.000000
  199        8.523290   0.000000
  200        8.587008   0.000000
  201        8.683519   0.000000
  202        9.030514   0.000000
  203        9.085356   0.000000
  204        9.329900   0.000000
  205        9.368373   0.000000
  206        9.484355   0.000000
  207        9.487619   0.000000
  208        9.529258   0.000000
  209        9.974848   0.000000
  210       10.028611   0.000000
  211       10.106601   0.000000
  212       10.162920   0.000000
  213       10.188636   0.000000
  214       10.270856   0.000000
  215       10.277827   0.000000
  216       10.309013   0.000000
  217       10.325606   0.000000
  218       10.457807   0.000000
  219       10.510143   0.000000
  220       10.694958   0.000000
  221       10.811250   0.000000
  222       10.882110   0.000000
  223       10.895458   0.000000
  224       10.944874   0.000000
  225       11.362140   0.000000
  226       11.463543   0.000000
  227       11.682514   0.000000
  228       11.747990   0.000000
  229       11.789689   0.000000
  230       11.915633   0.000000
  231       11.941512   0.000000
  232       11.959038   0.000000
  233       11.959339   0.000000
  234       12.045314   0.000000
  235       12.204965   0.000000
  236       12.211347   0.000000
  237       12.283522   0.000000
  238       12.336091   0.000000
  239       12.352150   0.000000
  240       12.468166   0.000000
  241       12.485700   0.000000
  242       12.509172   0.000000
  243       12.815500   0.000000
  244       12.822379   0.000000
  245       12.837148   0.000000
  246       12.843205   0.000000
  247       12.995950   0.000000
  248       13.040183   0.000000
  249       13.190542   0.000000
  250       13.223663   0.000000
  251       13.361415   0.000000
  252       13.379407   0.000000
  253       13.670499   0.000000
  254       13.684383   0.000000
  255       13.841596   0.000000
  256       13.864356   0.000000
 
  0.1666667E+00  0.5000000E+00  0.0000000E+00  0.9259259E-02
    1      -11.465810   1.000000
    2      -11.334017   1.000000
    3      -11.214001   1.000000
    4       -9.912663   1.000000
    5       -9.761990   1.000000
    6       -9.706986   1.000000
    7       -9.587757   1.000000
    8       -9.565505   1.000000
    9       -9.354235   1.000000
   10       -9.318756   1.000000
   11       -9.172412   1.000000
   12       -8.679481   1.000000
   13       -8.481704   1.000000
   14       -8.425066   1.000000
   15       -8.333997   1.000000
   16       -8.193673   1.000000
   17       -8.108966   1.000000
   18       -7.998489   1.000000
   19       -7.866217   1.000000
   20       -7.654973   1.000000
   21       -7.621139   1.000000
   22       -7.401925   1.000000
   23       -7.276411   1.000000
   24       -7.084023   1.000000
   25       -6.173238   1.000000
   26       -6.100369   1.000000
   27       -6.001081   1.000000
   28       -5.987479   1.000000
   29       -5.920519   1.000000
   30       -5.870707   1.000000
   31       -5.518083   1.000000
   32       -5.428660   1.000000
   33       -5.393457   1.000000
   34       -5.257931   1.000000
   35       -5.188635   1.000000
   36       -5.004182   1.000000
   37       -4.965387   1.000000
   38       -4.851360   1.000000
   39       -4.836806   1.000000
   40       -4.711079   1.000000
   41       -4.435449   1.000000
   42       -4.322020   1.000000
   43       -4.179949   1.000000
   44       -4.113479   1.000000
   45       -4.037807   1.000000
   46       -3.908871   1.000000
   47       -3.864246   1.000000
   48       -3.769455   1.000000
   49       -3.183588   1.000000
   50       -2.981370   1.000000
   51       -2.925086   1.000000
   52       -2.699366   1.000000
   53       -2.642604   1.000000
   54       -2.624563   1.000000
   55       -2.576977   1.000000
   56       -2.513859   1.000000
   57       -2.428658   1.000000
   58       -2.406084   1.000000
   59       -2.350772   1.000000
   60       -2.286316   1.000000
   61       -2.191357   1.000000
   62       -2.155373   1.000000
   63       -2.130604   1.000000
   64       -2.046553   1.000000
   65       -1.932964   1.000000
   66       -1.852066   1.000000
   67       -1.800207   1.000000
   68       -1.760176   1.000000
   69       -1.690300   1.000000
   70       -1.521404   1.000000
   71       -1.475962   1.000000
   72       -1.433850   1.000000
   73       -1.415871   1.000000
   74       -1.370506   1.000000
   75       -1.230095   1.000000
   76       -1.130702   1.000000
   77       -1.094155   1.000000
   78       -1.000435   1.000000
   79       -0.872942   1.000000
   80       -0.834771   1.000000
   81       -0.767012   1.000000
   82       -0.759972   1.000000
   83       -0.690773   1.000000
   84       -0.605731   1.000000
   85       -0.423267   1.000000
   86       -0.381711   1.000000
   87       -0.305803   1.000000
   88       -0.272311   1.000000
   89       -0.221022   1.000000
   90       -0.018754   1.000000
   91        0.021434   1.000000
   92        0.125299   1.000000
   93        0.183324   1.000000
   94        0.204758   1.000000
   95        0.277332   1.000000
   96        0.348152   1.000000
   97        0.440260   1.000000
   98        0.449882   1.000000
   99        0.563100   1.000000
  100        0.604888   1.000000
  101        0.648392   1.000000
  102        0.722808   1.000000
  103        0.780117   1.000000
  104        0.876221   1.000000
  105        0.913937   1.000000
  106        0.936993   1.000000
  107        0.999848   1.000000
  108        1.025540   1.000000
  109        1.076017   1.000000
  110        1.168429   1.000000
  111        1.305805   1.000000
  112        1.373761   1.000000
  113        1.415176   1.000000
  114        1.458838   1.000000
  115        1.536124   1.000000
  116        1.605165   1.000000
  117        1.654553   1.000000
  118        1.831328   1.000000
  119        1.874134   1.000000
  120        1.997932   1.000000
  121        2.019743   1.000000
  122        2.165329   1.000000
  123        2.201458   1.000000
  124        2.229714   1.000000
  125        2.266374   1.000000
  126        2.309663   1.000000
  127        2.339261   1.000000
  128        2.402640   1.000000
  129        2.410100   1.000000
  130        2.430446   1.000000
  131        2.524794   1.000000
  132        2.567851   1.000000
  133        2.605886   1.000000
  134        2.643361   1.000000
  135        2.722997   1.000000
  136        2.777545   1.000000
  137        2.790663   1.000000
  138        2.802754   1.000000
  139        2.853316   1.000000
  140        2.879086   1.000000
  141        2.889737   1.000000
  142        2.991114   1.000000
  143        3.004833   1.000000
  144        3.025363   1.000000
  145        3.066819   1.000000
  146        3.187411   1.000000
  147        3.191984   1.000000
  148        3.213272   1.000000
  149        3.251368   1.000000
  150        3.283801   1.000000
  151        3.286819   1.000000
  152        3.315550   1.000000
  153        3.372390   1.000000
  154        3.398976   1.000000
  155        3.432467   1.000000
  156        3.513319   1.000000
  157        3.578780   1.000000
  158        3.618616   1.000000
  159        3.705285   1.000000
  160        3.724299   1.000000
  161        3.757687   1.000000
  162        3.840372   1.000000
  163        3.928226   1.000000
  164        3.941386   1.000000
  165        3.957611   1.000000
  166        3.969932   1.000000
  167        4.000487   1.000000
  168        4.034285   1.000000
  169        4.078725   1.000000
  170        4.149601   1.000000
  171        4.200460   1.000000
  172        4.315717   1.000000
  173        4.453926   1.000000
  174        4.518875   1.000000
  175        4.577411   1.000000
  176        4.628099   1.000000
  177        4.750103   1.000000
  178        4.810679   1.000000
  179        4.853767   1.000000
  180        4.892528   1.000000
  181        4.951243   1.000000
  182        4.974752   1.000000
  183        5.008928   1.000000
  184        5.118135   1.000000
  185        5.192017   1.000000
  186        5.221438   1.000000
  187        5.327829   1.019912
  188        5.423658   0.239374
  189        5.454019  -0.087240
  190        5.585737   0.000000
  191        5.644882   0.000000
  192        5.674726   0.000000
  193        6.844776   0.000000
  194        6.950891   0.000000
  195        7.047750   0.000000
  196        7.699370   0.000000
  197        7.771204   0.000000
  198        7.853455   0.000000
  199        8.546146   0.000000
  200        8.602666   0.000000
  201        8.755490   0.000000
  202        8.978506   0.000000
  203        9.110295   0.000000
  204        9.358727   0.000000
  205        9.470354   0.000000
  206        9.531855   0.000000
  207        9.538128   0.000000
  208        9.667110   0.000000
  209        9.908645   0.000000
  210        9.961386   0.000000
  211       10.094263   0.000000
  212       10.113842   0.000000
  213       10.164547   0.000000
  214       10.278474   0.000000
  215       10.304208   0.000000
  216       10.440119   0.000000
  217       10.506287   0.000000
  218       10.567161   0.000000
  219       10.638465   0.000000
  220       10.677268   0.000000
  221       10.782332   0.000000
  222       10.845160   0.000000
  223       10.883806   0.000000
  224       10.986405   0.000000
  225       11.380425   0.000000
  226       11.484813   0.000000
  227       11.580085   0.000000
  228       11.621233   0.000000
  229       11.677766   0.000000
  230       11.781710   0.000000
  231       11.860324   0.000000
  232       11.947037   0.000000
  233       11.965724   0.000000
  234       12.047281   0.000000
  235       12.126346   0.000000
  236       12.170811   0.000000
  237       12.200029   0.000000
  238       12.240965   0.000000
  239       12.319783   0.000000
  240       12.434740   0.000000
  241       12.484491   0.000000
  242       12.554459   0.000000
  243       12.590576   0.000000
  244       12.662129   0.000000
  245       12.809799   0.000000
  246       12.875296   0.000000
  247       12.908838   0.000000
  248       13.049144   0.000000
  249       13.174229   0.000000
  250       13.245627   0.000000
  251       13.364633   0.000000
  252       13.502539   0.000000
  253       13.568321   0.000000
  254       13.732045   0.000000
  255       13.745471   0.000000
  256       13.773091   0.000000
 
  0.3333333E+00  0.5000000E+00 -0.5551115E-16  0.9259259E-02
    1      -11.434024   1.000000
    2      -11.342465   1.000000
    3      -11.246981   1.000000
    4       -9.912550   1.000000
    5       -9.774964   1.000000
    6       -9.747847   1.000000
    7       -9.543032   1.000000
    8       -9.498826   1.000000
    9       -9.345280   1.000000
   10       -9.337731   1.000000
   11       -9.155368   1.000000
   12       -8.758226   1.000000
   13       -8.528025   1.000000
   14       -8.445483   1.000000
   15       -8.311607   1.000000
   16       -8.249560   1.000000
   17       -8.121519   1.000000
   18       -7.832562   1.000000
   19       -7.774872   1.000000
   20       -7.724755   1.000000
   21       -7.632830   1.000000
   22       -7.343401   1.000000
   23       -7.288479   1.000000
   24       -7.104154   1.000000
   25       -6.246190   1.000000
   26       -6.122700   1.000000
   27       -6.101732   1.000000
   28       -5.957336   1.000000
   29       -5.842677   1.000000
   30       -5.774135   1.000000
   31       -5.591644   1.000000
   32       -5.481295   1.000000
   33       -5.368501   1.000000
   34       -5.239013   1.000000
   35       -5.132805   1.000000
   36       -5.061565   1.000000
   37       -5.006892   1.000000
   38       -4.868966   1.000000
   39       -4.819914   1.000000
   40       -4.707501   1.000000
   41       -4.489699   1.000000
   42       -4.410059   1.000000
   43       -4.270483   1.000000
   44       -4.171321   1.000000
   45       -3.933525   1.000000
   46       -3.908566   1.000000
   47       -3.790127   1.000000
   48       -3.717394   1.000000
   49       -3.234293   1.000000
   50       -3.005264   1.000000
   51       -2.851941   1.000000
   52       -2.828928   1.000000
   53       -2.728134   1.000000
   54       -2.646365   1.000000
   55       -2.602032   1.000000
   56       -2.459382   1.000000
   57       -2.424963   1.000000
   58       -2.395989   1.000000
   59       -2.227372   1.000000
   60       -2.167407   1.000000
   61       -2.133742   1.000000
   62       -2.018348   1.000000
   63       -1.950108   1.000000
   64       -1.891962   1.000000
   65       -1.864111   1.000000
   66       -1.829349   1.000000
   67       -1.744520   1.000000
   68       -1.625221   1.000000
   69       -1.612647   1.000000
   70       -1.480973   1.000000
   71       -1.435501   1.000000
   72       -1.403678   1.000000
   73       -1.348055   1.000000
   74       -1.305776   1.000000
   75       -1.207490   1.000000
   76       -1.182786   1.000000
   77       -1.160710   1.000000
   78       -1.095085   1.000000
   79       -1.036825   1.000000
   80       -0.943551   1.000000
   81       -0.864981   1.000000
   82       -0.685102   1.000000
   83       -0.666465   1.000000
   84       -0.618659   1.000000
   85       -0.569373   1.000000
   86       -0.525258   1.000000
   87       -0.391401   1.000000
   88       -0.366292   1.000000
   89       -0.320167   1.000000
   90       -0.246350   1.000000
   91       -0.180609   1.000000
   92       -0.003503   1.000000
   93        0.065638   1.000000
   94        0.158996   1.000000
   95        0.300545   1.000000
   96        0.321000   1.000000
   97        0.403074   1.000000
   98        0.436256   1.000000
   99        0.495106   1.000000
  100        0.563640   1.000000
  101        0.752830   1.000000
  102        0.798516   1.000000
  103        0.815369   1.000000
  104        0.860542   1.000000
  105        0.904365   1.000000
  106        0.917821   1.000000
  107        0.972117   1.000000
  108        1.097638   1.000000
  109        1.239551   1.000000
  110        1.307372   1.000000
  111        1.344299   1.000000
  112        1.416427   1.000000
  113        1.441603   1.000000
  114        1.518319   1.000000
  115        1.625642   1.000000
  116        1.641483   1.000000
  117        1.701985   1.000000
  118        1.754595   1.000000
  119        1.831791   1.000000
  120        1.854481   1.000000
  121        1.947038   1.000000
  122        2.017977   1.000000
  123        2.105136   1.000000
  124        2.243576   1.000000
  125        2.335125   1.000000
  126        2.343637   1.000000
  127        2.352788   1.000000
  128        2.419404   1.000000
  129        2.434147   1.000000
  130        2.453709   1.000000
  131        2.487233   1.000000
  132        2.530827   1.000000
  133        2.568056   1.000000
  134        2.647060   1.000000
  135        2.675269   1.000000
  136        2.726726   1.000000
  137        2.743245   1.000000
  138        2.819536   1.000000
  139        2.882875   1.000000
  140        2.894294   1.000000
  141        2.930433   1.000000
  142        2.977213   1.000000
  143        2.981007   1.000000
  144        3.007232   1.000000
  145        3.188657   1.000000
  146        3.225136   1.000000
  147        3.249072   1.000000
  148        3.280070   1.000000
  149        3.342638   1.000000
  150        3.367659   1.000000
  151        3.381370   1.000000
  152        3.434111   1.000000
  153        3.466947   1.000000
  154        3.473559   1.000000
  155        3.500117   1.000000
  156        3.543100   1.000000
  157        3.600622   1.000000
  158        3.624069   1.000000
  159        3.700975   1.000000
  160        3.801158   1.000000
  161        3.865039   1.000000
  162        3.880903   1.000000
  163        3.942345   1.000000
  164        3.975319   1.000000
  165        4.005243   1.000000
  166        4.045216   1.000000
  167        4.065970   1.000000
  168        4.138465   1.000000
  169        4.141284   1.000000
  170        4.196102   1.000000
  171        4.294047   1.000000
  172        4.420715   1.000000
  173        4.466500   1.000000
  174        4.510646   1.000000
  175        4.582478   1.000000
  176        4.585135   1.000000
  177        4.644171   1.000000
  178        4.690513   1.000000
  179        4.705961   1.000000
  180        4.759583   1.000000
  181        4.877250   1.000000
  182        4.982048   1.000000
  183        4.994399   1.000000
  184        5.024881   1.000000
  185        5.078186   1.000000
  186        5.157961   1.000000
  187        5.184376   1.000000
  188        5.281355   1.037733
  189        5.362315   0.799625
  190        5.535832  -0.090561
  191        5.541318   0.000000
  192        5.606329   0.000000
  193        6.875326   0.000000
  194        6.937118   0.000000
  195        7.061147   0.000000
  196        7.633042   0.000000
  197        7.688070   0.000000
  198        7.841538   0.000000
  199        8.587386   0.000000
  200        8.632092   0.000000
  201        8.892074   0.000000
  202        8.916986   0.000000
  203        9.118012   0.000000
  204        9.422438   0.000000
  205        9.470842   0.000000
  206        9.537932   0.000000
  207        9.758507   0.000000
  208        9.864296   0.000000
  209        9.883122   0.000000
  210       10.089426   0.000000
  211       10.185122   0.000000
  212       10.270828   0.000000
  213       10.290230   0.000000
  214       10.333093   0.000000
  215       10.447250   0.000000
  216       10.508546   0.000000
  217       10.553151   0.000000
  218       10.645993   0.000000
  219       10.707646   0.000000
  220       10.775318   0.000000
  221       10.782944   0.000000
  222       10.906263   0.000000
  223       10.943067   0.000000
  224       11.034715   0.000000
  225       11.171850   0.000000
  226       11.234818   0.000000
  227       11.324217   0.000000
  228       11.330764   0.000000
  229       11.530559   0.000000
  230       11.645345   0.000000
  231       11.739786   0.000000
  232       11.804997   0.000000
  233       11.890866   0.000000
  234       11.916327   0.000000
  235       12.083194   0.000000
  236       12.113681   0.000000
  237       12.229834   0.000000
  238       12.254516   0.000000
  239       12.303188   0.000000
  240       12.398727   0.000000
  241       12.428851   0.000000
  242       12.461045   0.000000
  243       12.538773   0.000000
  244       12.575662   0.000000
  245       12.676748   0.000000
  246       12.697512   0.000000
  247       12.736117   0.000000
  248       12.830897   0.000000
  249       13.282075   0.000000
  250       13.393001   0.000000
  251       13.413726   0.000000
  252       13.459392   0.000000
  253       13.575768   0.000000
  254       13.652044   0.000000
  255       13.712178   0.000000
  256       13.820245   0.000000
 
  0.5000000E+00  0.5000000E+00  0.5551115E-16  0.4629630E-02
    1      -11.400427   1.000000
    2      -11.367778   1.000000
    3      -11.259706   1.000000
    4       -9.904390   1.000000
    5       -9.791244   1.000000
    6       -9.780765   1.000000
    7       -9.453267   1.000000
    8       -9.446378   1.000000
    9       -9.418195   1.000000
   10       -9.317436   1.000000
   11       -9.194570   1.000000
   12       -8.751361   1.000000
   13       -8.580956   1.000000
   14       -8.415688   1.000000
   15       -8.301866   1.000000
   16       -8.295795   1.000000
   17       -8.114315   1.000000
   18       -7.793063   1.000000
   19       -7.743710   1.000000
   20       -7.706945   1.000000
   21       -7.649552   1.000000
   22       -7.379527   1.000000
   23       -7.191327   1.000000
   24       -7.167678   1.000000
   25       -6.231269   1.000000
   26       -6.210811   1.000000
   27       -6.034370   1.000000
   28       -6.015053   1.000000
   29       -5.727065   1.000000
   30       -5.725471   1.000000
   31       -5.631010   1.000000
   32       -5.622032   1.000000
   33       -5.309862   1.000000
   34       -5.259618   1.000000
   35       -5.155483   1.000000
   36       -5.055126   1.000000
   37       -4.998784   1.000000
   38       -4.927168   1.000000
   39       -4.762871   1.000000
   40       -4.714022   1.000000
   41       -4.544911   1.000000
   42       -4.456560   1.000000
   43       -4.262046   1.000000
   44       -4.192534   1.000000
   45       -3.916200   1.000000
   46       -3.801881   1.000000
   47       -3.765810   1.000000
   48       -3.734163   1.000000
   49       -3.218598   1.000000
   50       -3.057911   1.000000
   51       -2.937831   1.000000
   52       -2.874694   1.000000
   53       -2.726565   1.000000
   54       -2.704355   1.000000
   55       -2.581547   1.000000
   56       -2.527126   1.000000
   57       -2.307546   1.000000
   58       -2.234404   1.000000
   59       -2.202195   1.000000
   60       -2.171618   1.000000
   61       -2.061048   1.000000
   62       -1.987658   1.000000
   63       -1.967197   1.000000
   64       -1.895886   1.000000
   65       -1.867748   1.000000
   66       -1.798215   1.000000
   67       -1.614542   1.000000
   68       -1.606808   1.000000
   69       -1.512988   1.000000
   70       -1.412716   1.000000
   71       -1.377429   1.000000
   72       -1.304903   1.000000
   73       -1.246335   1.000000
   74       -1.215257   1.000000
   75       -1.195445   1.000000
   76       -1.175137   1.000000
   77       -1.109682   1.000000
   78       -1.103860   1.000000
   79       -1.063960   1.000000
   80       -1.051809   1.000000
   81       -0.953210   1.000000
   82       -0.951495   1.000000
   83       -0.795853   1.000000
   84       -0.791608   1.000000
   85       -0.736080   1.000000
   86       -0.550905   1.000000
   87       -0.390688   1.000000
   88       -0.331448   1.000000
   89       -0.239490   1.000000
   90       -0.135700   1.000000
   91       -0.107220   1.000000
   92       -0.093467   1.000000
   93        0.030784   1.000000
   94        0.044960   1.000000
   95        0.071379   1.000000
   96        0.307519   1.000000
   97        0.340257   1.000000
   98        0.378063   1.000000
   99        0.518059   1.000000
  100        0.553683   1.000000
  101        0.674714   1.000000
  102        0.681558   1.000000
  103        0.786793   1.000000
  104        0.850256   1.000000
  105        0.944107   1.000000
  106        1.083286   1.000000
  107        1.153702   1.000000
  108        1.231664   1.000000
  109        1.242143   1.000000
  110        1.317552   1.000000
  111        1.350754   1.000000
  112        1.376315   1.000000
  113        1.407633   1.000000
  114        1.425169   1.000000
  115        1.651823   1.000000
  116        1.654718   1.000000
  117        1.770484   1.000000
  118        1.795744   1.000000
  119        1.848960   1.000000
  120        1.897717   1.000000
  121        2.037266   1.000000
  122        2.052177   1.000000
  123        2.182844   1.000000
  124        2.205363   1.000000
  125        2.321685   1.000000
  126        2.331263   1.000000
  127        2.345956   1.000000
  128        2.352699   1.000000
  129        2.420923   1.000000
  130        2.456017   1.000000
  131        2.478012   1.000000
  132        2.508558   1.000000
  133        2.555757   1.000000
  134        2.559917   1.000000
  135        2.583566   1.000000
  136        2.597328   1.000000
  137        2.789142   1.000000
  138        2.802390   1.000000
  139        2.923226   1.000000
  140        2.945208   1.000000
  141        2.992262   1.000000
  142        3.034005   1.000000
  143        3.076245   1.000000
  144        3.108250   1.000000
  145        3.115660   1.000000
  146        3.156679   1.000000
  147        3.183562   1.000000
  148        3.185808   1.000000
  149        3.264362   1.000000
  150        3.265756   1.000000
  151        3.360348   1.000000
  152        3.381642   1.000000
  153        3.469286   1.000000
  154        3.491400   1.000000
  155        3.618802   1.000000
  156        3.693547   1.000000
  157        3.782787   1.000000
  158        3.785619   1.000000
  159        3.858293   1.000000
  160        3.882266   1.000000
  161        3.930085   1.000000
  162        3.959123   1.000000
  163        3.993060   1.000000
  164        4.019797   1.000000
  165        4.020296   1.000000
  166        4.067639   1.000000
  167        4.080707   1.000000
  168        4.130840   1.000000
  169        4.221934   1.000000
  170        4.240866   1.000000
  171        4.312841   1.000000
  172        4.322950   1.000000
  173        4.378253   1.000000
  174        4.417064   1.000000
  175        4.535046   1.000000
  176        4.550203   1.000000
  177        4.620731   1.000000
  178        4.645430   1.000000
  179        4.783087   1.000000
  180        4.802166   1.000000
  181        4.875972   1.000000
  182        4.913671   1.000000
  183        4.979610   1.000000
  184        4.983118   1.000000
  185        5.013018   1.000000
  186        5.060224   1.000000
  187        5.124222   1.000000
  188        5.139117   1.000000
  189        5.423378   0.555270
  190        5.454790  -0.038512
  191        5.504305   0.000000
  192        5.541212   0.000000
  193        6.897571   0.000000
  194        6.917675   0.000000
  195        7.067182   0.000000
  196        7.620285   0.000000
  197        7.640036   0.000000
  198        7.834506   0.000000
  199        8.566714   0.000000
  200        8.696282   0.000000
  201        8.877834   0.000000
  202        9.014532   0.000000
  203        9.070377   0.000000
  204        9.398609   0.000000
  205        9.460033   0.000000
  206        9.488924   0.000000
  207        9.886645   0.000000
  208        9.922050   0.000000
  209        9.960341   0.000000
  210       10.251393   0.000000
  211       10.255971   0.000000
  212       10.317378   0.000000
  213       10.368380   0.000000
  214       10.523754   0.000000
  215       10.650694   0.000000
  216       10.663615   0.000000
  217       10.670505   0.000000
  218       10.717875   0.000000
  219       10.729294   0.000000
  220       10.736858   0.000000
  221       10.829079   0.000000
  222       10.882135   0.000000
  223       10.905286   0.000000
  224       10.944280   0.000000
  225       10.975905   0.000000
  226       10.984955   0.000000
  227       11.006402   0.000000
  228       11.192604   0.000000
  229       11.394166   0.000000
  230       11.446583   0.000000
  231       11.721194   0.000000
  232       11.768454   0.000000
  233       12.002450   0.000000
  234       12.072470   0.000000
  235       12.096412   0.000000
  236       12.146641   0.000000
  237       12.213621   0.000000
  238       12.219244   0.000000
  239       12.248360   0.000000
  240       12.349341   0.000000
  241       12.363792   0.000000
  242       12.424822   0.000000
  243       12.487159   0.000000
  244       12.498975   0.000000
  245       12.605141   0.000000
  246       12.644476   0.000000
  247       12.700468   0.000000
  248       12.710372   0.000000
  249       13.354898   0.000000
  250       13.380477   0.000000
  251       13.473182   0.000000
  252       13.490351   0.000000
  253       13.508879   0.000000
  254       13.549085   0.000000
  255       13.793754   0.000000
  256       13.810154   0.000000
 
  0.0000000E+00  0.0000000E+00  0.1666667E+00  0.9259259E-02
    1      -11.531588   1.000000
    2      -11.265055   1.000000
    3      -11.194119   1.000000
    4       -9.971691   1.000000
    5       -9.910780   1.000000
    6       -9.538311   1.000000
    7       -9.499968   1.000000
    8       -9.479298   1.000000
    9       -9.304573   1.000000
   10       -9.259519   1.000000
   11       -9.154582   1.000000
   12       -8.815489   1.000000
   13       -8.702775   1.000000
   14       -8.669108   1.000000
   15       -8.479207   1.000000
   16       -8.317071   1.000000
   17       -8.093233   1.000000
   18       -7.910750   1.000000
   19       -7.855435   1.000000
   20       -7.472963   1.000000
   21       -7.451043   1.000000
   22       -7.344951   1.000000
   23       -7.014581   1.000000
   24       -6.903367   1.000000
   25       -6.171943   1.000000
   26       -6.158013   1.000000
   27       -6.124535   1.000000
   28       -6.052420   1.000000
   29       -5.706275   1.000000
   30       -5.668212   1.000000
   31       -5.629092   1.000000
   32       -5.614491   1.000000
   33       -5.499725   1.000000
   34       -5.324011   1.000000
   35       -5.297418   1.000000
   36       -4.995561   1.000000
   37       -4.953418   1.000000
   38       -4.912478   1.000000
   39       -4.768940   1.000000
   40       -4.606178   1.000000
   41       -4.336184   1.000000
   42       -4.259028   1.000000
   43       -4.242803   1.000000
   44       -4.045945   1.000000
   45       -3.897195   1.000000
   46       -3.859834   1.000000
   47       -3.645192   1.000000
   48       -3.532956   1.000000
   49       -3.480162   1.000000
   50       -3.372623   1.000000
   51       -3.265524   1.000000
   52       -3.225102   1.000000
   53       -3.101856   1.000000
   54       -2.960157   1.000000
   55       -2.873934   1.000000
   56       -2.825831   1.000000
   57       -2.705374   1.000000
   58       -2.646623   1.000000
   59       -2.609715   1.000000
   60       -2.441440   1.000000
   61       -2.395185   1.000000
   62       -2.298258   1.000000
   63       -1.848350   1.000000
   64       -1.799883   1.000000
   65       -1.684568   1.000000
   66       -1.653221   1.000000
   67       -1.627191   1.000000
   68       -1.452313   1.000000
   69       -1.263624   1.000000
   70       -1.197512   1.000000
   71       -1.093896   1.000000
   72       -1.019002   1.000000
   73       -0.973351   1.000000
   74       -0.904783   1.000000
   75       -0.897228   1.000000
   76       -0.856484   1.000000
   77       -0.808629   1.000000
   78       -0.750826   1.000000
   79       -0.704788   1.000000
   80       -0.649045   1.000000
   81       -0.645050   1.000000
   82       -0.592713   1.000000
   83       -0.438399   1.000000
   84       -0.361083   1.000000
   85       -0.268160   1.000000
   86       -0.244490   1.000000
   87       -0.203991   1.000000
   88       -0.121360   1.000000
   89       -0.078554   1.000000
   90       -0.037859   1.000000
   91       -0.019012   1.000000
   92        0.044041   1.000000
   93        0.118817   1.000000
   94        0.246719   1.000000
   95        0.270327   1.000000
   96        0.290043   1.000000
   97        0.379184   1.000000
   98        0.398313   1.000000
   99        0.486705   1.000000
  100        0.511658   1.000000
  101        0.585910   1.000000
  102        0.639092   1.000000
  103        0.645966   1.000000
  104        0.701756   1.000000
  105        0.748206   1.000000
  106        0.797254   1.000000
  107        0.812111   1.000000
  108        0.847544   1.000000
  109        0.912381   1.000000
  110        1.005655   1.000000
  111        1.038002   1.000000
  112        1.097646   1.000000
  113        1.166732   1.000000
  114        1.266799   1.000000
  115        1.320206   1.000000
  116        1.386867   1.000000
  117        1.589636   1.000000
  118        1.615161   1.000000
  119        1.653110   1.000000
  120        1.779945   1.000000
  121        1.789170   1.000000
  122        1.839613   1.000000
  123        1.901574   1.000000
  124        1.962177   1.000000
  125        2.061995   1.000000
  126        2.102230   1.000000
  127        2.167168   1.000000
  128        2.274561   1.000000
  129        2.287251   1.000000
  130        2.333975   1.000000
  131        2.389586   1.000000
  132        2.449182   1.000000
  133        2.474593   1.000000
  134        2.600592   1.000000
  135        2.641001   1.000000
  136        2.701637   1.000000
  137        2.748783   1.000000
  138        2.759774   1.000000
  139        2.772210   1.000000
  140        2.777903   1.000000
  141        2.847214   1.000000
  142        2.878089   1.000000
  143        2.982914   1.000000
  144        3.048904   1.000000
  145        3.054026   1.000000
  146        3.065027   1.000000
  147        3.118552   1.000000
  148        3.201907   1.000000
  149        3.253480   1.000000
  150        3.300454   1.000000
  151        3.327676   1.000000
  152        3.402827   1.000000
  153        3.440347   1.000000
  154        3.494763   1.000000
  155        3.516105   1.000000
  156        3.635906   1.000000
  157        3.660397   1.000000
  158        3.744654   1.000000
  159        3.788447   1.000000
  160        3.829285   1.000000
  161        3.889536   1.000000
  162        3.947569   1.000000
  163        4.029002   1.000000
  164        4.178481   1.000000
  165        4.208308   1.000000
  166        4.245765   1.000000
  167        4.277990   1.000000
  168        4.296509   1.000000
  169        4.432631   1.000000
  170        4.474301   1.000000
  171        4.499983   1.000000
  172        4.521632   1.000000
  173        4.593718   1.000000
  174        4.729407   1.000000
  175        4.774199   1.000000
  176        4.832170   1.000000
  177        4.889304   1.000000
  178        4.965248   1.000000
  179        5.016231   1.000000
  180        5.018820   1.000000
  181        5.048730   1.000000
  182        5.106165   1.000000
  183        5.157586   1.000000
  184        5.209427   1.000000
  185        5.229741   1.000000
  186        5.244124   1.000000
  187        5.300341   1.000000
  188        5.314375   1.029290
  189        5.362936   0.848437
  190        5.498196  -0.050471
  191        5.609755   0.000000
  192        5.649538   0.000000
  193        6.633719   0.000000
  194        6.794769   0.000000
  195        6.959998   0.000000
  196        7.489805   0.000000
  197        7.732711   0.000000
  198        7.762480   0.000000
  199        8.234275   0.000000
  200        8.725596   0.000000
  201        8.789601   0.000000
  202        8.929878   0.000000
  203        9.101644   0.000000
  204        9.279921   0.000000
  205        9.315994   0.000000
  206        9.359363   0.000000
  207        9.459623   0.000000
  208        9.478086   0.000000
  209        9.689205   0.000000
  210        9.830655   0.000000
  211        9.894130   0.000000
  212        9.928165   0.000000
  213       10.054172   0.000000
  214       10.137169   0.000000
  215       10.386608   0.000000
  216       10.442260   0.000000
  217       10.553694   0.000000
  218       10.633997   0.000000
  219       10.749862   0.000000
  220       10.939290   0.000000
  221       11.189019   0.000000
  222       11.256087   0.000000
  223       11.354636   0.000000
  224       11.378974   0.000000
  225       11.479466   0.000000
  226       11.576599   0.000000
  227       11.606295   0.000000
  228       11.675390   0.000000
  229       11.687281   0.000000
  230       11.768490   0.000000
  231       11.805370   0.000000
  232       11.843697   0.000000
  233       11.896500   0.000000
  234       11.941194   0.000000
  235       11.949591   0.000000
  236       12.006183   0.000000
  237       12.069579   0.000000
  238       12.251604   0.000000
  239       12.258901   0.000000
  240       12.318848   0.000000
  241       12.424498   0.000000
  242       12.508880   0.000000
  243       12.615070   0.000000
  244       12.708303   0.000000
  245       12.846297   0.000000
  246       12.894045   0.000000
  247       13.004729   0.000000
  248       13.060242   0.000000
  249       13.102103   0.000000
  250       13.144144   0.000000
  251       13.161629   0.000000
  252       13.283204   0.000000
  253       13.597391   0.000000
  254       13.610280   0.000000
  255       13.657171   0.000000
  256       13.698925   0.000000
 
  0.1666667E+00  0.1387779E-16  0.1666667E+00  0.9259259E-02
    1      -11.516668   1.000000
    2      -11.268590   1.000000
    3      -11.215286   1.000000
    4       -9.969559   1.000000
    5       -9.883512   1.000000
    6       -9.562282   1.000000
    7       -9.498305   1.000000
    8       -9.430207   1.000000
    9       -9.334438   1.000000
   10       -9.251103   1.000000
   11       -9.216788   1.000000
   12       -8.794177   1.000000
   13       -8.699786   1.000000
   14       -8.625005   1.000000
   15       -8.543183   1.000000
   16       -8.233114   1.000000
   17       -8.076588   1.000000
   18       -7.956291   1.000000
   19       -7.863476   1.000000
   20       -7.467003   1.000000
   21       -7.451796   1.000000
   22       -7.347626   1.000000
   23       -7.048367   1.000000
   24       -6.931363   1.000000
   25       -6.250972   1.000000
   26       -6.195243   1.000000
   27       -6.052063   1.000000
   28       -5.973666   1.000000
   29       -5.693137   1.000000
   30       -5.647664   1.000000
   31       -5.624976   1.000000
   32       -5.535263   1.000000
   33       -5.451847   1.000000
   34       -5.270711   1.000000
   35       -5.241326   1.000000
   36       -4.998602   1.000000
   37       -4.974696   1.000000
   38       -4.925928   1.000000
   39       -4.776393   1.000000
   40       -4.688504   1.000000
   41       -4.502428   1.000000
   42       -4.465675   1.000000
   43       -4.370734   1.000000
   44       -4.034683   1.000000
   45       -3.956308   1.000000
   46       -3.870272   1.000000
   47       -3.641530   1.000000
   48       -3.565854   1.000000
   49       -3.489761   1.000000
   50       -3.370738   1.000000
   51       -3.225738   1.000000
   52       -3.126736   1.000000
   53       -2.957655   1.000000
   54       -2.923394   1.000000
   55       -2.888548   1.000000
   56       -2.749737   1.000000
   57       -2.650706   1.000000
   58       -2.485382   1.000000
   59       -2.415714   1.000000
   60       -2.382080   1.000000
   61       -2.342973   1.000000
   62       -2.213240   1.000000
   63       -1.918506   1.000000
   64       -1.867903   1.000000
   65       -1.669603   1.000000
   66       -1.610916   1.000000
   67       -1.566772   1.000000
   68       -1.351589   1.000000
   69       -1.318489   1.000000
   70       -1.176231   1.000000
   71       -1.135496   1.000000
   72       -1.097127   1.000000
   73       -1.015130   1.000000
   74       -0.995345   1.000000
   75       -0.965186   1.000000
   76       -0.904825   1.000000
   77       -0.787495   1.000000
   78       -0.728715   1.000000
   79       -0.640750   1.000000
   80       -0.618021   1.000000
   81       -0.559910   1.000000
   82       -0.529930   1.000000
   83       -0.462489   1.000000
   84       -0.432607   1.000000
   85       -0.393287   1.000000
   86       -0.271209   1.000000
   87       -0.256786   1.000000
   88       -0.238131   1.000000
   89       -0.173387   1.000000
   90       -0.135107   1.000000
   91       -0.120976   1.000000
   92       -0.044796   1.000000
   93       -0.007579   1.000000
   94        0.048701   1.000000
   95        0.164009   1.000000
   96        0.227732   1.000000
   97        0.302058   1.000000
   98        0.336267   1.000000
   99        0.441022   1.000000
  100        0.480695   1.000000
  101        0.545264   1.000000
  102        0.699523   1.000000
  103        0.713701   1.000000
  104        0.779482   1.000000
  105        0.828786   1.000000
  106        0.874470   1.000000
  107        0.919226   1.000000
  108        0.952041   1.000000
  109        0.979206   1.000000
  110        1.024515   1.000000
  111        1.077641   1.000000
  112        1.095731   1.000000
  113        1.202111   1.000000
  114        1.270687   1.000000
  115        1.290909   1.000000
  116        1.379843   1.000000
  117        1.541855   1.000000
  118        1.576633   1.000000
  119        1.732151   1.000000
  120        1.760083   1.000000
  121        1.780630   1.000000
  122        1.881064   1.000000
  123        1.986259   1.000000
  124        2.037610   1.000000
  125        2.078675   1.000000
  126        2.128623   1.000000
  127        2.185258   1.000000
  128        2.233578   1.000000
  129        2.299811   1.000000
  130        2.354730   1.000000
  131        2.440652   1.000000
  132        2.517130   1.000000
  133        2.620475   1.000000
  134        2.668154   1.000000
  135        2.730259   1.000000
  136        2.750326   1.000000
  137        2.814591   1.000000
  138        2.857851   1.000000
  139        2.860303   1.000000
  140        2.898377   1.000000
  141        2.920462   1.000000
  142        2.938436   1.000000
  143        2.978968   1.000000
  144        3.001799   1.000000
  145        3.014305   1.000000
  146        3.075317   1.000000
  147        3.131387   1.000000
  148        3.148523   1.000000
  149        3.165211   1.000000
  150        3.221966   1.000000
  151        3.313685   1.000000
  152        3.389497   1.000000
  153        3.398906   1.000000
  154        3.483003   1.000000
  155        3.547787   1.000000
  156        3.597921   1.000000
  157        3.688295   1.000000
  158        3.698559   1.000000
  159        3.775776   1.000000
  160        3.787351   1.000000
  161        3.854602   1.000000
  162        3.944444   1.000000
  163        3.996798   1.000000
  164        4.128452   1.000000
  165        4.160502   1.000000
  166        4.173169   1.000000
  167        4.273295   1.000000
  168        4.311296   1.000000
  169        4.365435   1.000000
  170        4.392718   1.000000
  171        4.475611   1.000000
  172        4.497932   1.000000
  173        4.658148   1.000000
  174        4.688275   1.000000
  175        4.760504   1.000000
  176        4.802550   1.000000
  177        4.877842   1.000000
  178        4.918951   1.000000
  179        4.980647   1.000000
  180        5.060860   1.000000
  181        5.092876   1.000000
  182        5.119048   1.000000
  183        5.141825   1.000000
  184        5.185891   1.000000
  185        5.198588   1.000000
  186        5.254924   1.000000
  187        5.288746   1.000000
  188        5.331790   1.038991
  189        5.393345   0.485334
  190        5.485988  -0.012627
  191        5.548810  -0.026575
  192        5.598717   0.000000
  193        6.650358   0.000000
  194        6.765033   0.000000
  195        6.954866   0.000000
  196        7.590191   0.000000
  197        7.800570   0.000000
  198        7.808640   0.000000
  199        8.217551   0.000000
  200        8.843177   0.000000
  201        8.896013   0.000000
  202        9.022691   0.000000
  203        9.086765   0.000000
  204        9.197437   0.000000
  205        9.295519   0.000000
  206        9.422037   0.000000
  207        9.467852   0.000000
  208        9.655137   0.000000
  209        9.794402   0.000000
  210        9.841240   0.000000
  211        9.853080   0.000000
  212        9.862153   0.000000
  213       10.048696   0.000000
  214       10.085326   0.000000
  215       10.387836   0.000000
  216       10.436118   0.000000
  217       10.465828   0.000000
  218       10.572011   0.000000
  219       10.716993   0.000000
  220       11.032206   0.000000
  221       11.117037   0.000000
  222       11.235222   0.000000
  223       11.298486   0.000000
  224       11.459812   0.000000
  225       11.465435   0.000000
  226       11.516897   0.000000
  227       11.545783   0.000000
  228       11.610731   0.000000
  229       11.714501   0.000000
  230       11.809356   0.000000
  231       11.819637   0.000000
  232       11.893316   0.000000
  233       11.903171   0.000000
  234       11.922990   0.000000
  235       11.976686   0.000000
  236       12.025271   0.000000
  237       12.053667   0.000000
  238       12.167737   0.000000
  239       12.228231   0.000000
  240       12.286760   0.000000
  241       12.336284   0.000000
  242       12.439578   0.000000
  243       12.588601   0.000000
  244       12.699943   0.000000
  245       12.763341   0.000000
  246       12.777055   0.000000
  247       12.784207   0.000000
  248       12.845103   0.000000
  249       12.873259   0.000000
  250       12.917926   0.000000
  251       13.145019   0.000000
  252       13.416983   0.000000
  253       13.510215   0.000000
  254       13.571363   0.000000
  255       13.674272   0.000000
  256       13.772432   0.000000
 
  0.3333333E+00  0.2775558E-16  0.1666667E+00  0.9259259E-02
    1      -11.471903   1.000000
    2      -11.296214   1.000000
    3      -11.249740   1.000000
    4       -9.960073   1.000000
    5       -9.806537   1.000000
    6       -9.617427   1.000000
    7       -9.526325   1.000000
    8       -9.494107   1.000000
    9       -9.322738   1.000000
   10       -9.307806   1.000000
   11       -9.212794   1.000000
   12       -8.677275   1.000000
   13       -8.657820   1.000000
   14       -8.620026   1.000000
   15       -8.454295   1.000000
   16       -8.119180   1.000000
   17       -8.096543   1.000000
   18       -8.002538   1.000000
   19       -7.829660   1.000000
   20       -7.569279   1.000000
   21       -7.451383   1.000000
   22       -7.372289   1.000000
   23       -7.197210   1.000000
   24       -7.033779   1.000000
   25       -6.355649   1.000000
   26       -6.172485   1.000000
   27       -5.999008   1.000000
   28       -5.892636   1.000000
   29       -5.682510   1.000000
   30       -5.580534   1.000000
   31       -5.575477   1.000000
   32       -5.552253   1.000000
   33       -5.344090   1.000000
   34       -5.266168   1.000000
   35       -5.140850   1.000000
   36       -5.111029   1.000000
   37       -5.027045   1.000000
   38       -4.912808   1.000000
   39       -4.785516   1.000000
   40       -4.740251   1.000000
   41       -4.589236   1.000000
   42       -4.572682   1.000000
   43       -4.427744   1.000000
   44       -4.169967   1.000000
   45       -3.988357   1.000000
   46       -3.919506   1.000000
   47       -3.774050   1.000000
   48       -3.523153   1.000000
   49       -3.451939   1.000000
   50       -3.186493   1.000000
   51       -3.042351   1.000000
   52       -2.923998   1.000000
   53       -2.882884   1.000000
   54       -2.779560   1.000000
   55       -2.590780   1.000000
   56       -2.552120   1.000000
   57       -2.495502   1.000000
   58       -2.376889   1.000000
   59       -2.266774   1.000000
   60       -2.171375   1.000000
   61       -2.141453   1.000000
   62       -2.100757   1.000000
   63       -2.042359   1.000000
   64       -1.891212   1.000000
   65       -1.831779   1.000000
   66       -1.733020   1.000000
   67       -1.652094   1.000000
   68       -1.554991   1.000000
   69       -1.486174   1.000000
   70       -1.459994   1.000000
   71       -1.397563   1.000000
   72       -1.206155   1.000000
   73       -1.175699   1.000000
   74       -1.082277   1.000000
   75       -1.030529   1.000000
   76       -1.018009   1.000000
   77       -0.936384   1.000000
   78       -0.846718   1.000000
   79       -0.819749   1.000000
   80       -0.702358   1.000000
   81       -0.636542   1.000000
   82       -0.598387   1.000000
   83       -0.556894   1.000000
   84       -0.534875   1.000000
   85       -0.449428   1.000000
   86       -0.372770   1.000000
   87       -0.364441   1.000000
   88       -0.274150   1.000000
   89       -0.158169   1.000000
   90       -0.119264   1.000000
   91       -0.089418   1.000000
   92       -0.070263   1.000000
   93        0.012593   1.000000
   94        0.113693   1.000000
   95        0.183074   1.000000
   96        0.242276   1.000000
   97        0.305625   1.000000
   98        0.324455   1.000000
   99        0.420053   1.000000
  100        0.499429   1.000000
  101        0.558221   1.000000
  102        0.587501   1.000000
  103        0.718568   1.000000
  104        0.812472   1.000000
  105        0.889984   1.000000
  106        0.955002   1.000000
  107        1.001577   1.000000
  108        1.010884   1.000000
  109        1.090762   1.000000
  110        1.191223   1.000000
  111        1.220937   1.000000
  112        1.261466   1.000000
  113        1.290606   1.000000
  114        1.387519   1.000000
  115        1.449536   1.000000
  116        1.543595   1.000000
  117        1.611319   1.000000
  118        1.678142   1.000000
  119        1.694359   1.000000
  120        1.804122   1.000000
  121        1.837430   1.000000
  122        1.889584   1.000000
  123        2.008897   1.000000
  124        2.124806   1.000000
  125        2.157888   1.000000
  126        2.193143   1.000000
  127        2.252327   1.000000
  128        2.272645   1.000000
  129        2.339785   1.000000
  130        2.394356   1.000000
  131        2.472517   1.000000
  132        2.539395   1.000000
  133        2.567266   1.000000
  134        2.601586   1.000000
  135        2.616683   1.000000
  136        2.642536   1.000000
  137        2.697014   1.000000
  138        2.778228   1.000000
  139        2.804312   1.000000
  140        2.912530   1.000000
  141        2.946141   1.000000
  142        3.015018   1.000000
  143        3.055823   1.000000
  144        3.115390   1.000000
  145        3.148452   1.000000
  146        3.172425   1.000000
  147        3.205042   1.000000
  148        3.230654   1.000000
  149        3.262714   1.000000
  150        3.327827   1.000000
  151        3.395244   1.000000
  152        3.445098   1.000000
  153        3.493016   1.000000
  154        3.524589   1.000000
  155        3.570084   1.000000
  156        3.587973   1.000000
  157        3.691276   1.000000
  158        3.750435   1.000000
  159        3.777902   1.000000
  160        3.837730   1.000000
  161        3.853352   1.000000
  162        3.900262   1.000000
  163        3.913151   1.000000
  164        4.026966   1.000000
  165        4.057319   1.000000
  166        4.107730   1.000000
  167        4.158019   1.000000
  168        4.259951   1.000000
  169        4.276174   1.000000
  170        4.324073   1.000000
  171        4.451991   1.000000
  172        4.463552   1.000000
  173        4.514910   1.000000
  174        4.536076   1.000000
  175        4.707712   1.000000
  176        4.757474   1.000000
  177        4.828815   1.000000
  178        4.861596   1.000000
  179        4.870393   1.000000
  180        4.904844   1.000000
  181        4.976098   1.000000
  182        5.046105   1.000000
  183        5.056199   1.000000
  184        5.083395   1.000000
  185        5.188781   1.000000
  186        5.224097   1.000000
  187        5.272739   1.000000
  188        5.381735   0.868128
  189        5.391050   0.476216
  190        5.458671   0.023429
  191        5.488898  -0.037873
  192        5.523765   0.000000
  193        6.747841   0.000000
  194        6.775393   0.000000
  195        6.963854   0.000000
  196        7.728298   0.000000
  197        7.838287   0.000000
  198        7.866747   0.000000
  199        8.248438   0.000000
  200        8.710719   0.000000
  201        8.851339   0.000000
  202        8.970807   0.000000
  203        9.209627   0.000000
  204        9.280596   0.000000
  205        9.371960   0.000000
  206        9.536048   0.000000
  207        9.611670   0.000000
  208        9.728672   0.000000
  209        9.757597   0.000000
  210        9.900679   0.000000
  211        9.937399   0.000000
  212       10.012781   0.000000
  213       10.064109   0.000000
  214       10.257172   0.000000
  215       10.422236   0.000000
  216       10.483742   0.000000
  217       10.494036   0.000000
  218       10.724688   0.000000
  219       10.817414   0.000000
  220       10.943934   0.000000
  221       11.061937   0.000000
  222       11.158779   0.000000
  223       11.266715   0.000000
  224       11.336049   0.000000
  225       11.463392   0.000000
  226       11.562741   0.000000
  227       11.601896   0.000000
  228       11.617892   0.000000
  229       11.689388   0.000000
  230       11.829024   0.000000
  231       11.835427   0.000000
  232       11.876501   0.000000
  233       11.928064   0.000000
  234       11.934251   0.000000
  235       11.964871   0.000000
  236       12.028931   0.000000
  237       12.056131   0.000000
  238       12.081508   0.000000
  239       12.108430   0.000000
  240       12.181697   0.000000
  241       12.201689   0.000000
  242       12.234704   0.000000
  243       12.342785   0.000000
  244       12.427268   0.000000
  245       12.480493   0.000000
  246       12.576117   0.000000
  247       12.642483   0.000000
  248       12.788453   0.000000
  249       12.846827   0.000000
  250       12.984397   0.000000
  251       13.274379   0.000000
  252       13.403907   0.000000
  253       13.455746   0.000000
  254       13.549817   0.000000
  255       13.681128   0.000000
  256       13.749020   0.000000
 
  0.5000000E+00  0.5551115E-16  0.1666667E+00  0.9259259E-02
    1      -11.427270   1.000000
    2      -11.342373   1.000000
    3      -11.255827   1.000000
    4       -9.943916   1.000000
    5       -9.726184   1.000000
    6       -9.706579   1.000000
    7       -9.600975   1.000000
    8       -9.508085   1.000000
    9       -9.324716   1.000000
   10       -9.254131   1.000000
   11       -9.245746   1.000000
   12       -8.689055   1.000000
   13       -8.628734   1.000000
   14       -8.509575   1.000000
   15       -8.348762   1.000000
   16       -8.176449   1.000000
   17       -8.028361   1.000000
   18       -7.946744   1.000000
   19       -7.830469   1.000000
   20       -7.623895   1.000000
   21       -7.490332   1.000000
   22       -7.442228   1.000000
   23       -7.273728   1.000000
   24       -7.136122   1.000000
   25       -6.404414   1.000000
   26       -6.133269   1.000000
   27       -6.002351   1.000000
   28       -5.813185   1.000000
   29       -5.761006   1.000000
   30       -5.693433   1.000000
   31       -5.510202   1.000000
   32       -5.477010   1.000000
   33       -5.371853   1.000000
   34       -5.291987   1.000000
   35       -5.153532   1.000000
   36       -5.105631   1.000000
   37       -5.009611   1.000000
   38       -4.950124   1.000000
   39       -4.815184   1.000000
   40       -4.678267   1.000000
   41       -4.501206   1.000000
   42       -4.440061   1.000000
   43       -4.369799   1.000000
   44       -4.163501   1.000000
   45       -4.117827   1.000000
   46       -3.992230   1.000000
   47       -3.912246   1.000000
   48       -3.676470   1.000000
   49       -3.225344   1.000000
   50       -2.864311   1.000000
   51       -2.832903   1.000000
   52       -2.799957   1.000000
   53       -2.686070   1.000000
   54       -2.641536   1.000000
   55       -2.540175   1.000000
   56       -2.469125   1.000000
   57       -2.461717   1.000000
   58       -2.385692   1.000000
   59       -2.290566   1.000000
   60       -2.124763   1.000000
   61       -2.116299   1.000000
   62       -2.023963   1.000000
   63       -1.987267   1.000000
   64       -1.956708   1.000000
   65       -1.884692   1.000000
   66       -1.848340   1.000000
   67       -1.771397   1.000000
   68       -1.755461   1.000000
   69       -1.654615   1.000000
   70       -1.581612   1.000000
   71       -1.470558   1.000000
   72       -1.412058   1.000000
   73       -1.377735   1.000000
   74       -1.222098   1.000000
   75       -1.177114   1.000000
   76       -1.145700   1.000000
   77       -1.109193   1.000000
   78       -1.002101   1.000000
   79       -0.954723   1.000000
   80       -0.845349   1.000000
   81       -0.726665   1.000000
   82       -0.649782   1.000000
   83       -0.536722   1.000000
   84       -0.488140   1.000000
   85       -0.474318   1.000000
   86       -0.395300   1.000000
   87       -0.323515   1.000000
   88       -0.240791   1.000000
   89       -0.194379   1.000000
   90       -0.110445   1.000000
   91       -0.084033   1.000000
   92       -0.018189   1.000000
   93        0.123180   1.000000
   94        0.180619   1.000000
   95        0.201264   1.000000
   96        0.283231   1.000000
   97        0.361619   1.000000
   98        0.485595   1.000000
   99        0.546063   1.000000
  100        0.594197   1.000000
  101        0.674175   1.000000
  102        0.732534   1.000000
  103        0.808704   1.000000
  104        0.841829   1.000000
  105        0.871381   1.000000
  106        0.926143   1.000000
  107        1.002201   1.000000
  108        1.018966   1.000000
  109        1.085646   1.000000
  110        1.229068   1.000000
  111        1.260632   1.000000
  112        1.322982   1.000000
  113        1.358668   1.000000
  114        1.460550   1.000000
  115        1.534959   1.000000
  116        1.568008   1.000000
  117        1.701714   1.000000
  118        1.726465   1.000000
  119        1.812739   1.000000
  120        1.855384   1.000000
  121        1.903722   1.000000
  122        1.978642   1.000000
  123        2.004464   1.000000
  124        2.070634   1.000000
  125        2.086579   1.000000
  126        2.127247   1.000000
  127        2.175620   1.000000
  128        2.235382   1.000000
  129        2.248723   1.000000
  130        2.392900   1.000000
  131        2.417491   1.000000
  132        2.435977   1.000000
  133        2.521905   1.000000
  134        2.556492   1.000000
  135        2.665226   1.000000
  136        2.731195   1.000000
  137        2.815522   1.000000
  138        2.828321   1.000000
  139        2.877150   1.000000
  140        2.896466   1.000000
  141        2.980147   1.000000
  142        3.014673   1.000000
  143        3.044721   1.000000
  144        3.093072   1.000000
  145        3.123590   1.000000
  146        3.149227   1.000000
  147        3.233266   1.000000
  148        3.269623   1.000000
  149        3.349916   1.000000
  150        3.398254   1.000000
  151        3.415275   1.000000
  152        3.444480   1.000000
  153        3.477554   1.000000
  154        3.560178   1.000000
  155        3.603649   1.000000
  156        3.677010   1.000000
  157        3.724358   1.000000
  158        3.777547   1.000000
  159        3.816098   1.000000
  160        3.831537   1.000000
  161        3.866306   1.000000
  162        3.880884   1.000000
  163        3.992497   1.000000
  164        4.032460   1.000000
  165        4.041111   1.000000
  166        4.099845   1.000000
  167        4.145510   1.000000
  168        4.155895   1.000000
  169        4.208710   1.000000
  170        4.337151   1.000000
  171        4.437159   1.000000
  172        4.476195   1.000000
  173        4.483678   1.000000
  174        4.506397   1.000000
  175        4.567930   1.000000
  176        4.669336   1.000000
  177        4.685225   1.000000
  178        4.753067   1.000000
  179        4.816110   1.000000
  180        4.864380   1.000000
  181        4.915787   1.000000
  182        4.939418   1.000000
  183        5.018008   1.000000
  184        5.053205   1.000000
  185        5.091851   1.000000
  186        5.117211   1.000000
  187        5.243088   1.000000
  188        5.371299   0.963625
  189        5.406507   0.505066
  190        5.426552   0.062927
  191        5.462088  -0.025342
  192        5.530871   0.000000
  193        6.792093   0.000000
  194        6.850885   0.000000
  195        6.970841   0.000000
  196        7.730161   0.000000
  197        7.810162   0.000000
  198        7.886773   0.000000
  199        8.377110   0.000000
  200        8.554821   0.000000
  201        8.685765   0.000000
  202        8.936415   0.000000
  203        9.144415   0.000000
  204        9.278563   0.000000
  205        9.459711   0.000000
  206        9.601894   0.000000
  207        9.660083   0.000000
  208        9.795072   0.000000
  209        9.861253   0.000000
  210        9.991067   0.000000
  211       10.074924   0.000000
  212       10.092430   0.000000
  213       10.210031   0.000000
  214       10.348866   0.000000
  215       10.409005   0.000000
  216       10.499481   0.000000
  217       10.693087   0.000000
  218       10.818315   0.000000
  219       10.867557   0.000000
  220       11.012710   0.000000
  221       11.156514   0.000000
  222       11.197498   0.000000
  223       11.302478   0.000000
  224       11.306658   0.000000
  225       11.390856   0.000000
  226       11.439121   0.000000
  227       11.488998   0.000000
  228       11.536088   0.000000
  229       11.646062   0.000000
  230       11.659624   0.000000
  231       11.744071   0.000000
  232       11.773553   0.000000
  233       11.822175   0.000000
  234       11.848549   0.000000
  235       11.882893   0.000000
  236       11.968359   0.000000
  237       12.014586   0.000000
  238       12.142062   0.000000
  239       12.229135   0.000000
  240       12.271726   0.000000
  241       12.294033   0.000000
  242       12.315034   0.000000
  243       12.353053   0.000000
  244       12.409041   0.000000
  245       12.540999   0.000000
  246       12.563953   0.000000
  247       12.712708   0.000000
  248       12.731215   0.000000
  249       12.860023   0.000000
  250       12.962992   0.000000
  251       13.193713   0.000000
  252       13.244304   0.000000
  253       13.337212   0.000000
  254       13.400931   0.000000
  255       13.710037   0.000000
  256       13.759771   0.000000
 
 -0.3333333E+00 -0.2775558E-16  0.1666667E+00  0.9259259E-02
    1      -11.465874   1.000000
    2      -11.300475   1.000000
    3      -11.249959   1.000000
    4       -9.941779   1.000000
    5       -9.786108   1.000000
    6       -9.722534   1.000000
    7       -9.569985   1.000000
    8       -9.465945   1.000000
    9       -9.326519   1.000000
   10       -9.311200   1.000000
   11       -9.159131   1.000000
   12       -8.764455   1.000000
   13       -8.621593   1.000000
   14       -8.434962   1.000000
   15       -8.394186   1.000000
   16       -8.163507   1.000000
   17       -8.046214   1.000000
   18       -8.028818   1.000000
   19       -7.755217   1.000000
   20       -7.618865   1.000000
   21       -7.536400   1.000000
   22       -7.411444   1.000000
   23       -7.248454   1.000000
   24       -7.099384   1.000000
   25       -6.353491   1.000000
   26       -6.156088   1.000000
   27       -5.991767   1.000000
   28       -5.952423   1.000000
   29       -5.839049   1.000000
   30       -5.589999   1.000000
   31       -5.531362   1.000000
   32       -5.450369   1.000000
   33       -5.435671   1.000000
   34       -5.352597   1.000000
   35       -5.246538   1.000000
   36       -5.172438   1.000000
   37       -4.932416   1.000000
   38       -4.835722   1.000000
   39       -4.817907   1.000000
   40       -4.652940   1.000000
   41       -4.374325   1.000000
   42       -4.281470   1.000000
   43       -4.225458   1.000000
   44       -4.187441   1.000000
   45       -4.073002   1.000000
   46       -3.961959   1.000000
   47       -3.908421   1.000000
   48       -3.759773   1.000000
   49       -3.099753   1.000000
   50       -3.061593   1.000000
   51       -2.949312   1.000000
   52       -2.796509   1.000000
   53       -2.697472   1.000000
   54       -2.633728   1.000000
   55       -2.600938   1.000000
   56       -2.522284   1.000000
   57       -2.445114   1.000000
   58       -2.393035   1.000000
   59       -2.362623   1.000000
   60       -2.281672   1.000000
   61       -2.194724   1.000000
   62       -2.165033   1.000000
   63       -2.112149   1.000000
   64       -2.086293   1.000000
   65       -2.022669   1.000000
   66       -1.805425   1.000000
   67       -1.743628   1.000000
   68       -1.681087   1.000000
   69       -1.657402   1.000000
   70       -1.589306   1.000000
   71       -1.476334   1.000000
   72       -1.431927   1.000000
   73       -1.383460   1.000000
   74       -1.323897   1.000000
   75       -1.093181   1.000000
   76       -1.032007   1.000000
   77       -0.979422   1.000000
   78       -0.887924   1.000000
   79       -0.783436   1.000000
   80       -0.736689   1.000000
   81       -0.710339   1.000000
   82       -0.626992   1.000000
   83       -0.572508   1.000000
   84       -0.538218   1.000000
   85       -0.439918   1.000000
   86       -0.301320   1.000000
   87       -0.291234   1.000000
   88       -0.124733   1.000000
   89       -0.099339   1.000000
   90       -0.028925   1.000000
   91        0.047401   1.000000
   92        0.114348   1.000000
   93        0.197519   1.000000
   94        0.206618   1.000000
   95        0.269449   1.000000
   96        0.326643   1.000000
   97        0.443719   1.000000
   98        0.529919   1.000000
   99        0.542635   1.000000
  100        0.597009   1.000000
  101        0.627355   1.000000
  102        0.683676   1.000000
  103        0.729722   1.000000
  104        0.771678   1.000000
  105        0.830679   1.000000
  106        0.877408   1.000000
  107        0.935583   1.000000
  108        1.031888   1.000000
  109        1.039057   1.000000
  110        1.082523   1.000000
  111        1.238208   1.000000
  112        1.269546   1.000000
  113        1.286687   1.000000
  114        1.429039   1.000000
  115        1.501196   1.000000
  116        1.633731   1.000000
  117        1.692458   1.000000
  118        1.736021   1.000000
  119        1.745959   1.000000
  120        1.855767   1.000000
  121        1.902183   1.000000
  122        1.916222   1.000000
  123        1.957008   1.000000
  124        2.066834   1.000000
  125        2.147501   1.000000
  126        2.184162   1.000000
  127        2.203161   1.000000
  128        2.256164   1.000000
  129        2.281062   1.000000
  130        2.308733   1.000000
  131        2.359402   1.000000
  132        2.435156   1.000000
  133        2.484911   1.000000
  134        2.574035   1.000000
  135        2.624873   1.000000
  136        2.638822   1.000000
  137        2.759320   1.000000
  138        2.849193   1.000000
  139        2.878437   1.000000
  140        2.923661   1.000000
  141        2.948615   1.000000
  142        2.993717   1.000000
  143        3.025199   1.000000
  144        3.075057   1.000000
  145        3.086718   1.000000
  146        3.116876   1.000000
  147        3.134149   1.000000
  148        3.201763   1.000000
  149        3.339671   1.000000
  150        3.366965   1.000000
  151        3.385270   1.000000
  152        3.438195   1.000000
  153        3.490261   1.000000
  154        3.567709   1.000000
  155        3.647457   1.000000
  156        3.706757   1.000000
  157        3.717613   1.000000
  158        3.731927   1.000000
  159        3.769256   1.000000
  160        3.775454   1.000000
  161        3.803341   1.000000
  162        3.910034   1.000000
  163        3.992158   1.000000
  164        4.033561   1.000000
  165        4.100502   1.000000
  166        4.136797   1.000000
  167        4.193481   1.000000
  168        4.251346   1.000000
  169        4.271561   1.000000
  170        4.314472   1.000000
  171        4.382136   1.000000
  172        4.445092   1.000000
  173        4.513429   1.000000
  174        4.582150   1.000000
  175        4.607718   1.000000
  176        4.728864   1.000000
  177        4.812416   1.000000
  178        4.819273   1.000000
  179        4.856666   1.000000
  180        4.940245   1.000000
  181        4.973065   1.000000
  182        4.994700   1.000000
  183        5.015913   1.000000
  184        5.037224   1.000000
  185        5.125063   1.000000
  186        5.170302   1.000000
  187        5.242645   1.000000
  188        5.329341   1.000000
  189        5.381584   0.699736
  190        5.428786  -0.021305
  191        5.445565  -0.009008
  192        5.524302   0.000000
  193        6.786713   0.000000
  194        6.884335   0.000000
  195        6.971021   0.000000
  196        7.608956   0.000000
  197        7.767120   0.000000
  198        7.837224   0.000000
  199        8.424785   0.000000
  200        8.565156   0.000000
  201        8.592809   0.000000
  202        8.825236   0.000000
  203        9.051987   0.000000
  204        9.246382   0.000000
  205        9.414415   0.000000
  206        9.482916   0.000000
  207        9.692422   0.000000
  208        9.728164   0.000000
  209        9.897892   0.000000
  210        9.912017   0.000000
  211       10.038097   0.000000
  212       10.131669   0.000000
  213       10.279313   0.000000
  214       10.389903   0.000000
  215       10.529974   0.000000
  216       10.616815   0.000000
  217       10.644442   0.000000
  218       10.720805   0.000000
  219       10.937127   0.000000
  220       10.963291   0.000000
  221       11.023542   0.000000
  222       11.210788   0.000000
  223       11.235320   0.000000
  224       11.306043   0.000000
  225       11.455995   0.000000
  226       11.500501   0.000000
  227       11.540372   0.000000
  228       11.588307   0.000000
  229       11.637560   0.000000
  230       11.690073   0.000000
  231       11.727527   0.000000
  232       11.809751   0.000000
  233       11.825307   0.000000
  234       11.922225   0.000000
  235       12.022904   0.000000
  236       12.027904   0.000000
  237       12.086903   0.000000
  238       12.162451   0.000000
  239       12.244540   0.000000
  240       12.311977   0.000000
  241       12.331962   0.000000
  242       12.370370   0.000000
  243       12.442061   0.000000
  244       12.589659   0.000000
  245       12.603417   0.000000
  246       12.712003   0.000000
  247       12.786790   0.000000
  248       12.825791   0.000000
  249       12.873151   0.000000
  250       12.946524   0.000000
  251       13.059847   0.000000
  252       13.315537   0.000000
  253       13.408133   0.000000
  254       13.424302   0.000000
  255       13.491854   0.000000
  256       13.555205   0.000000
 
 -0.1666667E+00 -0.1387779E-16  0.1666667E+00  0.9259259E-02
    1      -11.512758   1.000000
    2      -11.268994   1.000000
    3      -11.217194   1.000000
    4       -9.963546   1.000000
    5       -9.867287   1.000000
    6       -9.662108   1.000000
    7       -9.479796   1.000000
    8       -9.441623   1.000000
    9       -9.372737   1.000000
   10       -9.303370   1.000000
   11       -9.098315   1.000000
   12       -8.815187   1.000000
   13       -8.661776   1.000000
   14       -8.545045   1.000000
   15       -8.405119   1.000000
   16       -8.310614   1.000000
   17       -8.087837   1.000000
   18       -7.949042   1.000000
   19       -7.804608   1.000000
   20       -7.540867   1.000000
   21       -7.490647   1.000000
   22       -7.369408   1.000000
   23       -7.122432   1.000000
   24       -6.975267   1.000000
   25       -6.212334   1.000000
   26       -6.154795   1.000000
   27       -6.110226   1.000000
   28       -6.078302   1.000000
   29       -5.670481   1.000000
   30       -5.632569   1.000000
   31       -5.588611   1.000000
   32       -5.554910   1.000000
   33       -5.533320   1.000000
   34       -5.377628   1.000000
   35       -5.322287   1.000000
   36       -5.055237   1.000000
   37       -4.917086   1.000000
   38       -4.842334   1.000000
   39       -4.813808   1.000000
   40       -4.604471   1.000000
   41       -4.286060   1.000000
   42       -4.243651   1.000000
   43       -4.154295   1.000000
   44       -4.119910   1.000000
   45       -4.004181   1.000000
   46       -3.817888   1.000000
   47       -3.794669   1.000000
   48       -3.617480   1.000000
   49       -3.362182   1.000000
   50       -3.216267   1.000000
   51       -3.114777   1.000000
   52       -3.072319   1.000000
   53       -2.958600   1.000000
   54       -2.817964   1.000000
   55       -2.776025   1.000000
   56       -2.728749   1.000000
   57       -2.656395   1.000000
   58       -2.649566   1.000000
   59       -2.480138   1.000000
   60       -2.469129   1.000000
   61       -2.196741   1.000000
   62       -2.130423   1.000000
   63       -2.069699   1.000000
   64       -1.929998   1.000000
   65       -1.880205   1.000000
   66       -1.757480   1.000000
   67       -1.713373   1.000000
   68       -1.620327   1.000000
   69       -1.532337   1.000000
   70       -1.405883   1.000000
   71       -1.365813   1.000000
   72       -1.156960   1.000000
   73       -1.113869   1.000000
   74       -1.051692   1.000000
   75       -0.970361   1.000000
   76       -0.896257   1.000000
   77       -0.868132   1.000000
   78       -0.772149   1.000000
   79       -0.717470   1.000000
   80       -0.674516   1.000000
   81       -0.556565   1.000000
   82       -0.541245   1.000000
   83       -0.516709   1.000000
   84       -0.448221   1.000000
   85       -0.374759   1.000000
   86       -0.268323   1.000000
   87       -0.133977   1.000000
   88       -0.058716   1.000000
   89       -0.025131   1.000000
   90        0.039721   1.000000
   91        0.100563   1.000000
   92        0.158365   1.000000
   93        0.219778   1.000000
   94        0.241430   1.000000
   95        0.277752   1.000000
   96        0.283182   1.000000
   97        0.399542   1.000000
   98        0.449444   1.000000
   99        0.482901   1.000000
  100        0.522939   1.000000
  101        0.569130   1.000000
  102        0.599924   1.000000
  103        0.639546   1.000000
  104        0.670552   1.000000
  105        0.743599   1.000000
  106        0.817860   1.000000
  107        0.846509   1.000000
  108        0.934704   1.000000
  109        0.979720   1.000000
  110        1.058991   1.000000
  111        1.099639   1.000000
  112        1.160461   1.000000
  113        1.330900   1.000000
  114        1.353262   1.000000
  115        1.426721   1.000000
  116        1.532759   1.000000
  117        1.590354   1.000000
  118        1.621092   1.000000
  119        1.639920   1.000000
  120        1.774954   1.000000
  121        1.802829   1.000000
  122        1.919288   1.000000
  123        1.951651   1.000000
  124        2.000252   1.000000
  125        2.143324   1.000000
  126        2.190127   1.000000
  127        2.267014   1.000000
  128        2.279573   1.000000
  129        2.290205   1.000000
  130        2.369561   1.000000
  131        2.448789   1.000000
  132        2.457497   1.000000
  133        2.491359   1.000000
  134        2.536438   1.000000
  135        2.555934   1.000000
  136        2.585166   1.000000
  137        2.623577   1.000000
  138        2.660594   1.000000
  139        2.728678   1.000000
  140        2.859857   1.000000
  141        2.893733   1.000000
  142        2.946965   1.000000
  143        2.975782   1.000000
  144        3.021717   1.000000
  145        3.031031   1.000000
  146        3.083154   1.000000
  147        3.104321   1.000000
  148        3.180267   1.000000
  149        3.300281   1.000000
  150        3.307782   1.000000
  151        3.386210   1.000000
  152        3.432515   1.000000
  153        3.524902   1.000000
  154        3.572573   1.000000
  155        3.597440   1.000000
  156        3.646813   1.000000
  157        3.667810   1.000000
  158        3.777429   1.000000
  159        3.805349   1.000000
  160        3.864418   1.000000
  161        3.867502   1.000000
  162        3.907371   1.000000
  163        4.002988   1.000000
  164        4.103598   1.000000
  165        4.162733   1.000000
  166        4.189216   1.000000
  167        4.226253   1.000000
  168        4.280377   1.000000
  169        4.388590   1.000000
  170        4.411174   1.000000
  171        4.474329   1.000000
  172        4.514068   1.000000
  173        4.546633   1.000000
  174        4.653680   1.000000
  175        4.727777   1.000000
  176        4.734405   1.000000
  177        4.783037   1.000000
  178        4.930187   1.000000
  179        4.950795   1.000000
  180        5.024628   1.000000
  181        5.040913   1.000000
  182        5.080044   1.000000
  183        5.123358   1.000000
  184        5.143219   1.000000
  185        5.206242   1.000000
  186        5.247373   1.000000
  187        5.262970   1.000000
  188        5.328696   1.000801
  189        5.367711   0.773942
  190        5.421557  -0.059883
  191        5.537310   0.000000
  192        5.589510   0.000000
  193        6.710820   0.000000
  194        6.856987   0.000000
  195        6.967019   0.000000
  196        7.507162   0.000000
  197        7.718690   0.000000
  198        7.775154   0.000000
  199        8.309855   0.000000
  200        8.623847   0.000000
  201        8.698220   0.000000
  202        8.773378   0.000000
  203        9.056393   0.000000
  204        9.306062   0.000000
  205        9.329920   0.000000
  206        9.413190   0.000000
  207        9.469180   0.000000
  208        9.625430   0.000000
  209        9.751922   0.000000
  210        9.891207   0.000000
  211        9.962177   0.000000
  212       10.064833   0.000000
  213       10.140721   0.000000
  214       10.284586   0.000000
  215       10.535924   0.000000
  216       10.554946   0.000000
  217       10.597333   0.000000
  218       10.640178   0.000000
  219       10.680193   0.000000
  220       10.865791   0.000000
  221       11.245765   0.000000
  222       11.267181   0.000000
  223       11.417733   0.000000
  224       11.443991   0.000000
  225       11.502130   0.000000
  226       11.563978   0.000000
  227       11.594030   0.000000
  228       11.643518   0.000000
  229       11.668025   0.000000
  230       11.744412   0.000000
  231       11.765420   0.000000
  232       11.844381   0.000000
  233       11.865355   0.000000
  234       11.876279   0.000000
  235       11.968124   0.000000
  236       12.017983   0.000000
  237       12.087823   0.000000
  238       12.160747   0.000000
  239       12.258488   0.000000
  240       12.342707   0.000000
  241       12.369453   0.000000
  242       12.538993   0.000000
  243       12.605291   0.000000
  244       12.737729   0.000000
  245       12.768150   0.000000
  246       12.812856   0.000000
  247       12.861278   0.000000
  248       12.887234   0.000000
  249       13.057558   0.000000
  250       13.149381   0.000000
  251       13.208352   0.000000
  252       13.257519   0.000000
  253       13.315379   0.000000
  254       13.347671   0.000000
  255       13.692114   0.000000
  256       13.709249   0.000000
 
  0.0000000E+00  0.1666667E+00  0.1666667E+00  0.9259259E-02
    1      -11.523661   1.000000
    2      -11.277867   1.000000
    3      -11.195039   1.000000
    4       -9.952217   1.000000
    5       -9.889577   1.000000
    6       -9.582533   1.000000
    7       -9.501463   1.000000
    8       -9.450789   1.000000
    9       -9.375523   1.000000
   10       -9.232285   1.000000
   11       -9.135712   1.000000
   12       -8.802709   1.000000
   13       -8.685863   1.000000
   14       -8.663746   1.000000
   15       -8.538548   1.000000
   16       -8.287950   1.000000
   17       -8.045512   1.000000
   18       -7.949206   1.000000
   19       -7.874560   1.000000
   20       -7.449425   1.000000
   21       -7.434399   1.000000
   22       -7.337625   1.000000
   23       -7.045155   1.000000
   24       -6.925931   1.000000
   25       -6.182818   1.000000
   26       -6.150715   1.000000
   27       -6.117340   1.000000
   28       -6.025015   1.000000
   29       -5.745920   1.000000
   30       -5.712472   1.000000
   31       -5.644279   1.000000
   32       -5.586044   1.000000
   33       -5.418189   1.000000
   34       -5.409930   1.000000
   35       -5.319570   1.000000
   36       -4.977919   1.000000
   37       -4.954844   1.000000
   38       -4.890813   1.000000
   39       -4.749218   1.000000
   40       -4.562796   1.000000
   41       -4.276932   1.000000
   42       -4.231653   1.000000
   43       -4.143905   1.000000
   44       -4.129178   1.000000
   45       -3.948314   1.000000
   46       -3.808248   1.000000
   47       -3.705736   1.000000
   48       -3.505025   1.000000
   49       -3.451514   1.000000
   50       -3.388364   1.000000
   51       -3.244195   1.000000
   52       -3.206296   1.000000
   53       -3.181089   1.000000
   54       -2.913858   1.000000
   55       -2.908324   1.000000
   56       -2.806778   1.000000
   57       -2.736712   1.000000
   58       -2.657210   1.000000
   59       -2.648213   1.000000
   60       -2.537693   1.000000
   61       -2.414679   1.000000
   62       -2.288402   1.000000
   63       -1.882176   1.000000
   64       -1.802647   1.000000
   65       -1.742291   1.000000
   66       -1.678041   1.000000
   67       -1.552931   1.000000
   68       -1.371186   1.000000
   69       -1.300758   1.000000
   70       -1.221003   1.000000
   71       -1.117654   1.000000
   72       -1.020825   1.000000
   73       -0.954323   1.000000
   74       -0.933828   1.000000
   75       -0.888182   1.000000
   76       -0.851615   1.000000
   77       -0.809011   1.000000
   78       -0.764715   1.000000
   79       -0.751219   1.000000
   80       -0.701636   1.000000
   81       -0.591505   1.000000
   82       -0.504418   1.000000
   83       -0.444759   1.000000
   84       -0.389128   1.000000
   85       -0.262027   1.000000
   86       -0.107198   1.000000
   87       -0.082333   1.000000
   88       -0.006572   1.000000
   89        0.001287   1.000000
   90        0.015505   1.000000
   91        0.035546   1.000000
   92        0.113995   1.000000
   93        0.147102   1.000000
   94        0.213577   1.000000
   95        0.256601   1.000000
   96        0.267616   1.000000
   97        0.282806   1.000000
   98        0.353638   1.000000
   99        0.405803   1.000000
  100        0.471590   1.000000
  101        0.507404   1.000000
  102        0.563103   1.000000
  103        0.632054   1.000000
  104        0.642015   1.000000
  105        0.726905   1.000000
  106        0.765715   1.000000
  107        0.795731   1.000000
  108        0.873901   1.000000
  109        0.961735   1.000000
  110        1.046240   1.000000
  111        1.058616   1.000000
  112        1.126916   1.000000
  113        1.153852   1.000000
  114        1.213793   1.000000
  115        1.306470   1.000000
  116        1.372733   1.000000
  117        1.483955   1.000000
  118        1.522223   1.000000
  119        1.693079   1.000000
  120        1.728747   1.000000
  121        1.815607   1.000000
  122        1.845292   1.000000
  123        2.031528   1.000000
  124        2.075115   1.000000
  125        2.115940   1.000000
  126        2.150966   1.000000
  127        2.187592   1.000000
  128        2.232269   1.000000
  129        2.251944   1.000000
  130        2.303459   1.000000
  131        2.421653   1.000000
  132        2.453973   1.000000
  133        2.464710   1.000000
  134        2.551734   1.000000
  135        2.599225   1.000000
  136        2.612722   1.000000
  137        2.676810   1.000000
  138        2.737215   1.000000
  139        2.742818   1.000000
  140        2.839940   1.000000
  141        2.873662   1.000000
  142        2.968233   1.000000
  143        3.011725   1.000000
  144        3.054848   1.000000
  145        3.092185   1.000000
  146        3.114555   1.000000
  147        3.132833   1.000000
  148        3.142972   1.000000
  149        3.173410   1.000000
  150        3.251183   1.000000
  151        3.329319   1.000000
  152        3.374689   1.000000
  153        3.474725   1.000000
  154        3.504031   1.000000
  155        3.640369   1.000000
  156        3.713290   1.000000
  157        3.730644   1.000000
  158        3.754151   1.000000
  159        3.794664   1.000000
  160        3.918207   1.000000
  161        3.942119   1.000000
  162        4.042080   1.000000
  163        4.099945   1.000000
  164        4.121399   1.000000
  165        4.170048   1.000000
  166        4.184293   1.000000
  167        4.231795   1.000000
  168        4.281397   1.000000
  169        4.371419   1.000000
  170        4.420465   1.000000
  171        4.438773   1.000000
  172        4.538618   1.000000
  173        4.647006   1.000000
  174        4.662978   1.000000
  175        4.692085   1.000000
  176        4.737131   1.000000
  177        4.819795   1.000000
  178        4.896133   1.000000
  179        4.981023   1.000000
  180        5.068084   1.000000
  181        5.110486   1.000000
  182        5.127670   1.000000
  183        5.166716   1.000000
  184        5.180712   1.000000
  185        5.224106   1.000000
  186        5.280106   1.000000
  187        5.295521   1.000000
  188        5.309409   1.022805
  189        5.355375   0.773479
  190        5.500013  -0.043480
  191        5.617363   0.000000
  192        5.651457   0.000000
  193        6.689480   0.000000
  194        6.812974   0.000000
  195        6.974239   0.000000
  196        7.460319   0.000000
  197        7.694396   0.000000
  198        7.736659   0.000000
  199        8.268323   0.000000
  200        8.702904   0.000000
  201        8.753425   0.000000
  202        8.925928   0.000000
  203        9.124247   0.000000
  204        9.284691   0.000000
  205        9.364084   0.000000
  206        9.432003   0.000000
  207        9.487219   0.000000
  208        9.550160   0.000000
  209        9.682467   0.000000
  210        9.846331   0.000000
  211        9.883484   0.000000
  212        9.975344   0.000000
  213       10.031172   0.000000
  214       10.082519   0.000000
  215       10.375127   0.000000
  216       10.427908   0.000000
  217       10.588725   0.000000
  218       10.678544   0.000000
  219       10.821627   0.000000
  220       10.899058   0.000000
  221       11.188258   0.000000
  222       11.211194   0.000000
  223       11.331622   0.000000
  224       11.374886   0.000000
  225       11.434373   0.000000
  226       11.483427   0.000000
  227       11.613256   0.000000
  228       11.633727   0.000000
  229       11.685880   0.000000
  230       11.770695   0.000000
  231       11.818136   0.000000
  232       11.850291   0.000000
  233       11.906616   0.000000
  234       11.940705   0.000000
  235       11.989472   0.000000
  236       12.028323   0.000000
  237       12.053711   0.000000
  238       12.136414   0.000000
  239       12.140746   0.000000
  240       12.396017   0.000000
  241       12.429744   0.000000
  242       12.648853   0.000000
  243       12.672921   0.000000
  244       12.781494   0.000000
  245       12.894491   0.000000
  246       12.928098   0.000000
  247       12.955475   0.000000
  248       12.986424   0.000000
  249       13.080400   0.000000
  250       13.105976   0.000000
  251       13.185180   0.000000
  252       13.218013   0.000000
  253       13.253103   0.000000
  254       13.670082   0.000000
  255       13.716716   0.000000
  256       13.735851   0.000000
 
  0.1666667E+00  0.1666667E+00  0.1666667E+00  0.9259259E-02
    1      -11.518225   1.000000
    2      -11.267841   1.000000
    3      -11.216933   1.000000
    4       -9.977272   1.000000
    5       -9.878920   1.000000
    6       -9.517804   1.000000
    7       -9.459463   1.000000
    8       -9.433918   1.000000
    9       -9.352414   1.000000
   10       -9.250478   1.000000
   11       -9.125431   1.000000
   12       -8.917423   1.000000
   13       -8.790578   1.000000
   14       -8.683397   1.000000
   15       -8.574485   1.000000
   16       -8.237854   1.000000
   17       -8.033440   1.000000
   18       -7.937323   1.000000
   19       -7.839856   1.000000
   20       -7.470031   1.000000
   21       -7.370017   1.000000
   22       -7.328115   1.000000
   23       -6.989487   1.000000
   24       -6.884805   1.000000
   25       -6.195532   1.000000
   26       -6.135149   1.000000
   27       -6.115828   1.000000
   28       -5.953106   1.000000
   29       -5.786163   1.000000
   30       -5.722884   1.000000
   31       -5.661295   1.000000
   32       -5.625897   1.000000
   33       -5.421321   1.000000
   34       -5.352644   1.000000
   35       -5.314245   1.000000
   36       -5.039514   1.000000
   37       -5.002751   1.000000
   38       -4.873254   1.000000
   39       -4.786973   1.000000
   40       -4.599230   1.000000
   41       -4.327916   1.000000
   42       -4.302023   1.000000
   43       -4.237840   1.000000
   44       -4.086411   1.000000
   45       -3.894227   1.000000
   46       -3.856738   1.000000
   47       -3.691572   1.000000
   48       -3.558405   1.000000
   49       -3.480567   1.000000
   50       -3.427101   1.000000
   51       -3.273086   1.000000
   52       -3.233364   1.000000
   53       -3.135967   1.000000
   54       -2.906229   1.000000
   55       -2.877120   1.000000
   56       -2.732703   1.000000
   57       -2.703679   1.000000
   58       -2.658234   1.000000
   59       -2.592737   1.000000
   60       -2.558854   1.000000
   61       -2.469358   1.000000
   62       -2.408488   1.000000
   63       -1.890406   1.000000
   64       -1.667402   1.000000
   65       -1.638133   1.000000
   66       -1.536266   1.000000
   67       -1.454426   1.000000
   68       -1.167413   1.000000
   69       -1.152095   1.000000
   70       -1.094387   1.000000
   71       -1.061942   1.000000
   72       -1.033981   1.000000
   73       -0.997158   1.000000
   74       -0.967997   1.000000
   75       -0.876734   1.000000
   76       -0.793972   1.000000
   77       -0.748696   1.000000
   78       -0.653780   1.000000
   79       -0.619890   1.000000
   80       -0.581344   1.000000
   81       -0.558191   1.000000
   82       -0.527191   1.000000
   83       -0.480298   1.000000
   84       -0.385154   1.000000
   85       -0.298550   1.000000
   86       -0.290407   1.000000
   87       -0.160200   1.000000
   88       -0.107025   1.000000
   89       -0.085269   1.000000
   90        0.017264   1.000000
   91        0.031300   1.000000
   92        0.093125   1.000000
   93        0.108922   1.000000
   94        0.142679   1.000000
   95        0.253885   1.000000
   96        0.284590   1.000000
   97        0.346536   1.000000
   98        0.375756   1.000000
   99        0.389452   1.000000
  100        0.405037   1.000000
  101        0.458449   1.000000
  102        0.499632   1.000000
  103        0.543636   1.000000
  104        0.588672   1.000000
  105        0.637422   1.000000
  106        0.711589   1.000000
  107        0.745785   1.000000
  108        0.795628   1.000000
  109        0.899700   1.000000
  110        0.913137   1.000000
  111        0.982600   1.000000
  112        1.024017   1.000000
  113        1.060200   1.000000
  114        1.133841   1.000000
  115        1.350092   1.000000
  116        1.378501   1.000000
  117        1.431772   1.000000
  118        1.507098   1.000000
  119        1.572030   1.000000
  120        1.647182   1.000000
  121        1.688083   1.000000
  122        1.841852   1.000000
  123        1.905621   1.000000
  124        2.039247   1.000000
  125        2.081220   1.000000
  126        2.143378   1.000000
  127        2.155429   1.000000
  128        2.262944   1.000000
  129        2.309985   1.000000
  130        2.353491   1.000000
  131        2.405151   1.000000
  132        2.521542   1.000000
  133        2.564984   1.000000
  134        2.631719   1.000000
  135        2.660652   1.000000
  136        2.750686   1.000000
  137        2.778272   1.000000
  138        2.818989   1.000000
  139        2.838841   1.000000
  140        2.925321   1.000000
  141        3.015894   1.000000
  142        3.026602   1.000000
  143        3.066391   1.000000
  144        3.084889   1.000000
  145        3.140169   1.000000
  146        3.160819   1.000000
  147        3.203359   1.000000
  148        3.227915   1.000000
  149        3.245543   1.000000
  150        3.279211   1.000000
  151        3.296544   1.000000
  152        3.382754   1.000000
  153        3.429366   1.000000
  154        3.442006   1.000000
  155        3.478761   1.000000
  156        3.597885   1.000000
  157        3.670344   1.000000
  158        3.752829   1.000000
  159        3.769197   1.000000
  160        3.863421   1.000000
  161        3.952874   1.000000
  162        3.987129   1.000000
  163        4.096335   1.000000
  164        4.183522   1.000000
  165        4.244793   1.000000
  166        4.267014   1.000000
  167        4.298000   1.000000
  168        4.397587   1.000000
  169        4.426472   1.000000
  170        4.504809   1.000000
  171        4.552432   1.000000
  172        4.562872   1.000000
  173        4.671503   1.000000
  174        4.715768   1.000000
  175        4.724047   1.000000
  176        4.792156   1.000000
  177        4.795641   1.000000
  178        4.899334   1.000000
  179        4.968820   1.000000
  180        5.001609   1.000000
  181        5.088629   1.000000
  182        5.105424   1.000000
  183        5.124416   1.000000
  184        5.142877   1.000000
  185        5.166794   1.000000
  186        5.201589   1.000000
  187        5.263580   1.000000
  188        5.274958   1.022065
  189        5.344854   0.949940
  190        5.509460   0.007159
  191        5.520505  -0.056433
  192        5.604468  -0.021219
  193        6.701512   0.000000
  194        6.782384   0.000000
  195        6.946556   0.000000
  196        7.472777   0.000000
  197        7.737522   0.000000
  198        7.750485   0.000000
  199        8.268662   0.000000
  200        8.789731   0.000000
  201        8.831606   0.000000
  202        8.959053   0.000000
  203        9.221742   0.000000
  204        9.293534   0.000000
  205        9.327947   0.000000
  206        9.387921   0.000000
  207        9.469710   0.000000
  208        9.595447   0.000000
  209        9.727245   0.000000
  210        9.734486   0.000000
  211        9.839435   0.000000
  212        9.923388   0.000000
  213       10.053653   0.000000
  214       10.083319   0.000000
  215       10.405389   0.000000
  216       10.437072   0.000000
  217       10.499779   0.000000
  218       10.659196   0.000000
  219       10.904328   0.000000
  220       11.025470   0.000000
  221       11.140653   0.000000
  222       11.198239   0.000000
  223       11.335860   0.000000
  224       11.353051   0.000000
  225       11.367841   0.000000
  226       11.453535   0.000000
  227       11.533129   0.000000
  228       11.666361   0.000000
  229       11.688003   0.000000
  230       11.775490   0.000000
  231       11.845208   0.000000
  232       11.873975   0.000000
  233       11.897781   0.000000
  234       11.915161   0.000000
  235       11.988170   0.000000
  236       12.040512   0.000000
  237       12.074574   0.000000
  238       12.079143   0.000000
  239       12.140535   0.000000
  240       12.263904   0.000000
  241       12.325325   0.000000
  242       12.608620   0.000000
  243       12.659544   0.000000
  244       12.701562   0.000000
  245       12.785967   0.000000
  246       12.817386   0.000000
  247       12.822594   0.000000
  248       12.857701   0.000000
  249       12.961501   0.000000
  250       13.026408   0.000000
  251       13.115481   0.000000
  252       13.216780   0.000000
  253       13.304979   0.000000
  254       13.496206   0.000000
  255       13.565230   0.000000
  256       13.764864   0.000000
 
  0.3333333E+00  0.1666667E+00  0.1666667E+00  0.9259259E-02
    1      -11.481239   1.000000
    2      -11.275734   1.000000
    3      -11.261713   1.000000
    4       -9.980111   1.000000
    5       -9.838867   1.000000
    6       -9.552819   1.000000
    7       -9.438630   1.000000
    8       -9.406881   1.000000
    9       -9.372344   1.000000
   10       -9.280380   1.000000
   11       -9.200102   1.000000
   12       -8.886293   1.000000
   13       -8.788962   1.000000
   14       -8.593875   1.000000
   15       -8.551238   1.000000
   16       -8.152097   1.000000
   17       -8.068493   1.000000
   18       -7.932785   1.000000
   19       -7.801472   1.000000
   20       -7.513542   1.000000
   21       -7.421756   1.000000
   22       -7.345215   1.000000
   23       -7.071747   1.000000
   24       -6.947942   1.000000
   25       -6.267795   1.000000
   26       -6.103074   1.000000
   27       -6.004949   1.000000
   28       -5.978801   1.000000
   29       -5.754322   1.000000
   30       -5.672586   1.000000
   31       -5.585663   1.000000
   32       -5.520754   1.000000
   33       -5.464054   1.000000
   34       -5.364151   1.000000
   35       -5.320567   1.000000
   36       -5.164843   1.000000
   37       -5.045846   1.000000
   38       -4.833609   1.000000
   39       -4.792737   1.000000
   40       -4.694159   1.000000
   41       -4.454690   1.000000
   42       -4.421303   1.000000
   43       -4.305846   1.000000
   44       -4.054001   1.000000
   45       -4.003508   1.000000
   46       -3.960623   1.000000
   47       -3.787216   1.000000
   48       -3.495729   1.000000
   49       -3.399491   1.000000
   50       -3.355762   1.000000
   51       -3.183140   1.000000
   52       -2.984389   1.000000
   53       -2.927390   1.000000
   54       -2.852997   1.000000
   55       -2.753190   1.000000
   56       -2.596372   1.000000
   57       -2.566655   1.000000
   58       -2.476650   1.000000
   59       -2.418768   1.000000
   60       -2.388716   1.000000
   61       -2.324107   1.000000
   62       -2.108559   1.000000
   63       -2.038530   1.000000
   64       -1.824715   1.000000
   65       -1.762172   1.000000
   66       -1.573480   1.000000
   67       -1.489916   1.000000
   68       -1.446782   1.000000
   69       -1.415731   1.000000
   70       -1.255386   1.000000
   71       -1.123567   1.000000
   72       -1.106690   1.000000
   73       -1.080777   1.000000
   74       -1.056635   1.000000
   75       -0.931965   1.000000
   76       -0.891783   1.000000
   77       -0.834172   1.000000
   78       -0.803544   1.000000
   79       -0.775161   1.000000
   80       -0.744414   1.000000
   81       -0.677261   1.000000
   82       -0.606081   1.000000
   83       -0.488981   1.000000
   84       -0.400936   1.000000
   85       -0.297209   1.000000
   86       -0.252385   1.000000
   87       -0.214964   1.000000
   88       -0.193149   1.000000
   89       -0.108522   1.000000
   90       -0.007090   1.000000
   91        0.000002   1.000000
   92        0.040284   1.000000
   93        0.066293   1.000000
   94        0.107315   1.000000
   95        0.178812   1.000000
   96        0.193408   1.000000
   97        0.310129   1.000000
   98        0.338016   1.000000
   99        0.401948   1.000000
  100        0.431095   1.000000
  101        0.507941   1.000000
  102        0.653630   1.000000
  103        0.660451   1.000000
  104        0.715180   1.000000
  105        0.733333   1.000000
  106        0.787783   1.000000
  107        0.834344   1.000000
  108        0.845478   1.000000
  109        0.899907   1.000000
  110        0.919739   1.000000
  111        0.971846   1.000000
  112        1.054399   1.000000
  113        1.128570   1.000000
  114        1.265857   1.000000
  115        1.352704   1.000000
  116        1.455288   1.000000
  117        1.509360   1.000000
  118        1.639912   1.000000
  119        1.675971   1.000000
  120        1.726076   1.000000
  121        1.774281   1.000000
  122        1.946451   1.000000
  123        1.986079   1.000000
  124        2.055937   1.000000
  125        2.086543   1.000000
  126        2.178434   1.000000
  127        2.184494   1.000000
  128        2.248594   1.000000
  129        2.351044   1.000000
  130        2.436341   1.000000
  131        2.458057   1.000000
  132        2.492411   1.000000
  133        2.544834   1.000000
  134        2.598444   1.000000
  135        2.649970   1.000000
  136        2.734104   1.000000
  137        2.776646   1.000000
  138        2.845513   1.000000
  139        2.868421   1.000000
  140        2.898393   1.000000
  141        2.991695   1.000000
  142        3.005492   1.000000
  143        3.045930   1.000000
  144        3.068748   1.000000
  145        3.114400   1.000000
  146        3.140817   1.000000
  147        3.242549   1.000000
  148        3.280308   1.000000
  149        3.284276   1.000000
  150        3.410819   1.000000
  151        3.439010   1.000000
  152        3.473244   1.000000
  153        3.528644   1.000000
  154        3.603353   1.000000
  155        3.640128   1.000000
  156        3.653498   1.000000
  157        3.709036   1.000000
  158        3.744425   1.000000
  159        3.758682   1.000000
  160        3.786544   1.000000
  161        3.892734   1.000000
  162        3.913496   1.000000
  163        3.962719   1.000000
  164        4.142096   1.000000
  165        4.195313   1.000000
  166        4.270323   1.000000
  167        4.292405   1.000000
  168        4.305131   1.000000
  169        4.378360   1.000000
  170        4.421295   1.000000
  171        4.479174   1.000000
  172        4.495668   1.000000
  173        4.626102   1.000000
  174        4.697428   1.000000
  175        4.735446   1.000000
  176        4.751348   1.000000
  177        4.790372   1.000000
  178        4.833491   1.000000
  179        4.895816   1.000000
  180        4.918105   1.000000
  181        4.944345   1.000000
  182        4.963304   1.000000
  183        5.069724   1.000000
  184        5.100858   1.000000
  185        5.171167   1.000000
  186        5.194115   1.000000
  187        5.220565   1.000000
  188        5.245372   1.001924
  189        5.332218   0.978906
  190        5.408738   0.334609
  191        5.457883   0.021654
  192        5.493136  -0.032040
  193        6.780960   0.000000
  194        6.810709   0.000000
  195        6.932778   0.000000
  196        7.605293   0.000000
  197        7.794986   0.000000
  198        7.824486   0.000000
  199        8.322353   0.000000
  200        8.705355   0.000000
  201        8.888273   0.000000
  202        8.915924   0.000000
  203        9.259559   0.000000
  204        9.306859   0.000000
  205        9.386655   0.000000
  206        9.566299   0.000000
  207        9.582272   0.000000
  208        9.658905   0.000000
  209        9.723438   0.000000
  210        9.825120   0.000000
  211        9.854129   0.000000
  212        9.999433   0.000000
  213       10.039693   0.000000
  214       10.300218   0.000000
  215       10.401885   0.000000
  216       10.527023   0.000000
  217       10.590896   0.000000
  218       10.668224   0.000000
  219       10.926331   0.000000
  220       10.979620   0.000000
  221       11.057201   0.000000
  222       11.146098   0.000000
  223       11.190695   0.000000
  224       11.356949   0.000000
  225       11.411869   0.000000
  226       11.435758   0.000000
  227       11.536173   0.000000
  228       11.559460   0.000000
  229       11.760043   0.000000
  230       11.766580   0.000000
  231       11.813014   0.000000
  232       11.860572   0.000000
  233       11.892077   0.000000
  234       11.929278   0.000000
  235       11.956066   0.000000
  236       11.968663   0.000000
  237       12.033880   0.000000
  238       12.105867   0.000000
  239       12.135636   0.000000
  240       12.151440   0.000000
  241       12.181402   0.000000
  242       12.278682   0.000000
  243       12.380474   0.000000
  244       12.589197   0.000000
  245       12.616709   0.000000
  246       12.689133   0.000000
  247       12.807178   0.000000
  248       12.821700   0.000000
  249       12.892863   0.000000
  250       13.012696   0.000000
  251       13.094767   0.000000
  252       13.341596   0.000000
  253       13.410639   0.000000
  254       13.483332   0.000000
  255       13.713234   0.000000
  256       13.761429   0.000000
 
  0.5000000E+00  0.1666667E+00  0.1666667E+00  0.9259259E-02
    1      -11.428047   1.000000
    2      -11.343284   1.000000
    3      -11.256744   1.000000
    4       -9.963550   1.000000
    5       -9.782576   1.000000
    6       -9.629573   1.000000
    7       -9.550757   1.000000
    8       -9.387151   1.000000
    9       -9.362557   1.000000
   10       -9.304002   1.000000
   11       -9.241075   1.000000
   12       -8.758663   1.000000
   13       -8.692725   1.000000
   14       -8.589611   1.000000
   15       -8.401405   1.000000
   16       -8.184179   1.000000
   17       -8.013056   1.000000
   18       -7.934743   1.000000
   19       -7.776256   1.000000
   20       -7.578817   1.000000
   21       -7.558455   1.000000
   22       -7.338503   1.000000
   23       -7.225928   1.000000
   24       -7.057079   1.000000
   25       -6.306210   1.000000
   26       -6.093392   1.000000
   27       -5.972092   1.000000
   28       -5.847557   1.000000
   29       -5.823099   1.000000
   30       -5.718921   1.000000
   31       -5.582997   1.000000
   32       -5.453499   1.000000
   33       -5.426586   1.000000
   34       -5.310741   1.000000
   35       -5.239689   1.000000
   36       -5.194911   1.000000
   37       -5.043011   1.000000
   38       -4.959022   1.000000
   39       -4.789477   1.000000
   40       -4.703762   1.000000
   41       -4.482842   1.000000
   42       -4.318748   1.000000
   43       -4.285072   1.000000
   44       -4.187754   1.000000
   45       -4.060328   1.000000
   46       -4.029448   1.000000
   47       -3.951728   1.000000
   48       -3.612334   1.000000
   49       -3.200087   1.000000
   50       -3.052140   1.000000
   51       -2.885680   1.000000
   52       -2.801792   1.000000
   53       -2.774347   1.000000
   54       -2.676298   1.000000
   55       -2.594634   1.000000
   56       -2.490117   1.000000
   57       -2.452041   1.000000
   58       -2.349712   1.000000
   59       -2.266383   1.000000
   60       -2.202258   1.000000
   61       -2.146147   1.000000
   62       -2.056922   1.000000
   63       -1.974693   1.000000
   64       -1.964543   1.000000
   65       -1.904834   1.000000
   66       -1.871398   1.000000
   67       -1.736291   1.000000
   68       -1.614447   1.000000
   69       -1.534916   1.000000
   70       -1.436746   1.000000
   71       -1.425095   1.000000
   72       -1.377684   1.000000
   73       -1.320500   1.000000
   74       -1.259418   1.000000
   75       -1.198870   1.000000
   76       -1.132175   1.000000
   77       -1.067898   1.000000
   78       -1.019376   1.000000
   79       -0.844265   1.000000
   80       -0.773524   1.000000
   81       -0.684643   1.000000
   82       -0.602146   1.000000
   83       -0.587602   1.000000
   84       -0.516735   1.000000
   85       -0.370196   1.000000
   86       -0.359487   1.000000
   87       -0.303341   1.000000
   88       -0.210795   1.000000
   89       -0.115859   1.000000
   90       -0.065715   1.000000
   91       -0.008931   1.000000
   92        0.109975   1.000000
   93        0.145073   1.000000
   94        0.169646   1.000000
   95        0.233076   1.000000
   96        0.286410   1.000000
   97        0.331630   1.000000
   98        0.371822   1.000000
   99        0.427969   1.000000
  100        0.498661   1.000000
  101        0.657689   1.000000
  102        0.684031   1.000000
  103        0.719430   1.000000
  104        0.795957   1.000000
  105        0.847657   1.000000
  106        0.883493   1.000000
  107        0.913672   1.000000
  108        1.040516   1.000000
  109        1.144979   1.000000
  110        1.164273   1.000000
  111        1.209305   1.000000
  112        1.225151   1.000000
  113        1.267685   1.000000
  114        1.350179   1.000000
  115        1.431828   1.000000
  116        1.565214   1.000000
  117        1.628926   1.000000
  118        1.703134   1.000000
  119        1.741217   1.000000
  120        1.782389   1.000000
  121        1.898678   1.000000
  122        2.041592   1.000000
  123        2.103187   1.000000
  124        2.125377   1.000000
  125        2.135983   1.000000
  126        2.161385   1.000000
  127        2.186540   1.000000
  128        2.231872   1.000000
  129        2.307665   1.000000
  130        2.358856   1.000000
  131        2.373737   1.000000
  132        2.440228   1.000000
  133        2.473809   1.000000
  134        2.542619   1.000000
  135        2.601479   1.000000
  136        2.616334   1.000000
  137        2.651058   1.000000
  138        2.852907   1.000000
  139        2.922165   1.000000
  140        2.948091   1.000000
  141        2.990202   1.000000
  142        3.031581   1.000000
  143        3.080557   1.000000
  144        3.101211   1.000000
  145        3.130181   1.000000
  146        3.164492   1.000000
  147        3.244238   1.000000
  148        3.262979   1.000000
  149        3.307859   1.000000
  150        3.368199   1.000000
  151        3.466339   1.000000
  152        3.497299   1.000000
  153        3.533300   1.000000
  154        3.586465   1.000000
  155        3.596486   1.000000
  156        3.653353   1.000000
  157        3.793516   1.000000
  158        3.831603   1.000000
  159        3.861575   1.000000
  160        3.887670   1.000000
  161        3.914356   1.000000
  162        3.939007   1.000000
  163        3.952128   1.000000
  164        3.998470   1.000000
  165        4.036980   1.000000
  166        4.083824   1.000000
  167        4.124135   1.000000
  168        4.303533   1.000000
  169        4.317551   1.000000
  170        4.383910   1.000000
  171        4.460406   1.000000
  172        4.481328   1.000000
  173        4.520998   1.000000
  174        4.528528   1.000000
  175        4.584741   1.000000
  176        4.634763   1.000000
  177        4.666298   1.000000
  178        4.768092   1.000000
  179        4.796780   1.000000
  180        4.858964   1.000000
  181        4.921499   1.000000
  182        4.931736   1.000000
  183        5.046114   1.000000
  184        5.113049   1.000000
  185        5.161556   1.000000
  186        5.180720   1.000000
  187        5.209572   1.000000
  188        5.235246   1.000000
  189        5.305336   1.065478
  190        5.354884   0.769898
  191        5.448436   0.028873
  192        5.511448  -0.035458
  193        6.827664   0.000000
  194        6.892986   0.000000
  195        6.938112   0.000000
  196        7.734718   0.000000
  197        7.771856   0.000000
  198        7.894001   0.000000
  199        8.417938   0.000000
  200        8.569704   0.000000
  201        8.766054   0.000000
  202        8.964229   0.000000
  203        9.186246   0.000000
  204        9.332326   0.000000
  205        9.406197   0.000000
  206        9.599703   0.000000
  207        9.637113   0.000000
  208        9.810908   0.000000
  209        9.869188   0.000000
  210        9.969040   0.000000
  211        9.995352   0.000000
  212       10.166986   0.000000
  213       10.205175   0.000000
  214       10.247791   0.000000
  215       10.413952   0.000000
  216       10.530628   0.000000
  217       10.720212   0.000000
  218       10.801326   0.000000
  219       10.835496   0.000000
  220       10.956019   0.000000
  221       11.052596   0.000000
  222       11.136372   0.000000
  223       11.233741   0.000000
  224       11.267707   0.000000
  225       11.317072   0.000000
  226       11.430262   0.000000
  227       11.460916   0.000000
  228       11.496898   0.000000
  229       11.562349   0.000000
  230       11.638849   0.000000
  231       11.708559   0.000000
  232       11.788104   0.000000
  233       11.807150   0.000000
  234       11.859984   0.000000
  235       11.867288   0.000000
  236       12.016489   0.000000
  237       12.084805   0.000000
  238       12.116684   0.000000
  239       12.181328   0.000000
  240       12.213371   0.000000
  241       12.258630   0.000000
  242       12.307631   0.000000
  243       12.407615   0.000000
  244       12.569406   0.000000
  245       12.617597   0.000000
  246       12.674576   0.000000
  247       12.715925   0.000000
  248       12.787810   0.000000
  249       12.916104   0.000000
  250       13.013338   0.000000
  251       13.247399   0.000000
  252       13.324045   0.000000
  253       13.423872   0.000000
  254       13.491371   0.000000
  255       13.578300   0.000000
  256       13.693611   0.000000
 
 -0.3333333E+00  0.1666667E+00  0.1666667E+00  0.9259259E-02
    1      -11.444835   1.000000
    2      -11.333608   1.000000
    3      -11.243847   1.000000
    4       -9.934506   1.000000
    5       -9.739990   1.000000
    6       -9.696302   1.000000
    7       -9.670676   1.000000
    8       -9.397557   1.000000
    9       -9.302863   1.000000
   10       -9.290050   1.000000
   11       -9.269329   1.000000
   12       -8.664757   1.000000
   13       -8.597507   1.000000
   14       -8.564181   1.000000
   15       -8.402814   1.000000
   16       -8.186208   1.000000
   17       -8.031279   1.000000
   18       -7.949513   1.000000
   19       -7.818441   1.000000
   20       -7.621285   1.000000
   21       -7.513308   1.000000
   22       -7.406886   1.000000
   23       -7.256493   1.000000
   24       -7.114438   1.000000
   25       -6.271896   1.000000
   26       -6.134803   1.000000
   27       -6.007391   1.000000
   28       -5.926801   1.000000
   29       -5.806377   1.000000
   30       -5.688943   1.000000
   31       -5.554394   1.000000
   32       -5.499756   1.000000
   33       -5.423629   1.000000
   34       -5.265631   1.000000
   35       -5.194859   1.000000
   36       -5.118726   1.000000
   37       -5.032063   1.000000
   38       -4.957953   1.000000
   39       -4.767079   1.000000
   40       -4.664928   1.000000
   41       -4.382349   1.000000
   42       -4.334293   1.000000
   43       -4.244088   1.000000
   44       -4.182283   1.000000
   45       -4.069824   1.000000
   46       -4.010419   1.000000
   47       -3.933862   1.000000
   48       -3.746213   1.000000
   49       -3.030190   1.000000
   50       -2.957038   1.000000
   51       -2.907773   1.000000
   52       -2.763897   1.000000
   53       -2.688194   1.000000
   54       -2.619863   1.000000
   55       -2.605150   1.000000
   56       -2.524593   1.000000
   57       -2.391326   1.000000
   58       -2.358978   1.000000
   59       -2.323012   1.000000
   60       -2.231558   1.000000
   61       -2.126460   1.000000
   62       -2.114802   1.000000
   63       -2.046842   1.000000
   64       -1.984526   1.000000
   65       -1.950792   1.000000
   66       -1.879719   1.000000
   67       -1.806005   1.000000
   68       -1.701895   1.000000
   69       -1.681195   1.000000
   70       -1.625089   1.000000
   71       -1.577453   1.000000
   72       -1.521199   1.000000
   73       -1.435658   1.000000
   74       -1.357940   1.000000
   75       -1.319612   1.000000
   76       -1.209350   1.000000
   77       -0.965995   1.000000
   78       -0.954478   1.000000
   79       -0.797805   1.000000
   80       -0.768685   1.000000
   81       -0.658520   1.000000
   82       -0.637949   1.000000
   83       -0.608401   1.000000
   84       -0.421595   1.000000
   85       -0.391202   1.000000
   86       -0.331415   1.000000
   87       -0.227448   1.000000
   88       -0.115191   1.000000
   89       -0.106231   1.000000
   90       -0.073993   1.000000
   91       -0.027274   1.000000
   92        0.026359   1.000000
   93        0.097544   1.000000
   94        0.228010   1.000000
   95        0.261360   1.000000
   96        0.348844   1.000000
   97        0.414912   1.000000
   98        0.477371   1.000000
   99        0.515649   1.000000
  100        0.611894   1.000000
  101        0.647169   1.000000
  102        0.688784   1.000000
  103        0.740112   1.000000
  104        0.760895   1.000000
  105        0.902377   1.000000
  106        0.925053   1.000000
  107        1.029456   1.000000
  108        1.114991   1.000000
  109        1.148708   1.000000
  110        1.243327   1.000000
  111        1.273285   1.000000
  112        1.337366   1.000000
  113        1.365043   1.000000
  114        1.403354   1.000000
  115        1.487604   1.000000
  116        1.608372   1.000000
  117        1.680308   1.000000
  118        1.686053   1.000000
  119        1.801946   1.000000
  120        1.907641   1.000000
  121        1.973731   1.000000
  122        2.018381   1.000000
  123        2.063122   1.000000
  124        2.084781   1.000000
  125        2.124766   1.000000
  126        2.138593   1.000000
  127        2.175293   1.000000
  128        2.214853   1.000000
  129        2.277509   1.000000
  130        2.328839   1.000000
  131        2.373216   1.000000
  132        2.456499   1.000000
  133        2.481216   1.000000
  134        2.592558   1.000000
  135        2.619574   1.000000
  136        2.656027   1.000000
  137        2.711364   1.000000
  138        2.811832   1.000000
  139        2.820225   1.000000
  140        2.852752   1.000000
  141        2.876440   1.000000
  142        2.975829   1.000000
  143        3.025687   1.000000
  144        3.041441   1.000000
  145        3.106453   1.000000
  146        3.135647   1.000000
  147        3.160577   1.000000
  148        3.206797   1.000000
  149        3.350416   1.000000
  150        3.379022   1.000000
  151        3.401571   1.000000
  152        3.432969   1.000000
  153        3.518564   1.000000
  154        3.519777   1.000000
  155        3.629079   1.000000
  156        3.655523   1.000000
  157        3.687136   1.000000
  158        3.721971   1.000000
  159        3.786183   1.000000
  160        3.873405   1.000000
  161        3.889734   1.000000
  162        3.904806   1.000000
  163        3.950568   1.000000
  164        3.991958   1.000000
  165        4.046966   1.000000
  166        4.089179   1.000000
  167        4.170913   1.000000
  168        4.212657   1.000000
  169        4.219008   1.000000
  170        4.278187   1.000000
  171        4.289937   1.000000
  172        4.382793   1.000000
  173        4.445676   1.000000
  174        4.534957   1.000000
  175        4.620654   1.000000
  176        4.690863   1.000000
  177        4.767501   1.000000
  178        4.795716   1.000000
  179        4.827995   1.000000
  180        4.928651   1.000000
  181        5.002847   1.000000
  182        5.091027   1.000000
  183        5.116423   1.000000
  184        5.156723   1.000000
  185        5.173566   1.000000
  186        5.187205   1.000000
  187        5.221732   1.000000
  188        5.277041   1.018882
  189        5.325486   1.037468
  190        5.393257   0.326414
  191        5.444117  -0.032462
  192        5.509962  -0.009836
  193        6.819598   0.000000
  194        6.913715   0.000000
  195        6.974250   0.000000
  196        7.673640   0.000000
  197        7.755873   0.000000
  198        7.898782   0.000000
  199        8.408481   0.000000
  200        8.578613   0.000000
  201        8.708721   0.000000
  202        8.898624   0.000000
  203        9.052536   0.000000
  204        9.375070   0.000000
  205        9.435937   0.000000
  206        9.501909   0.000000
  207        9.678890   0.000000
  208        9.785676   0.000000
  209        9.925501   0.000000
  210        9.974868   0.000000
  211       10.067290   0.000000
  212       10.095431   0.000000
  213       10.233572   0.000000
  214       10.369465   0.000000
  215       10.476537   0.000000
  216       10.551564   0.000000
  217       10.609056   0.000000
  218       10.660563   0.000000
  219       10.885465   0.000000
  220       10.897229   0.000000
  221       10.999513   0.000000
  222       11.016114   0.000000
  223       11.087547   0.000000
  224       11.301433   0.000000
  225       11.412726   0.000000
  226       11.515325   0.000000
  227       11.519779   0.000000
  228       11.598090   0.000000
  229       11.650546   0.000000
  230       11.701373   0.000000
  231       11.751286   0.000000
  232       11.775245   0.000000
  233       11.904401   0.000000
  234       11.920076   0.000000
  235       11.964767   0.000000
  236       11.969617   0.000000
  237       12.063202   0.000000
  238       12.125886   0.000000
  239       12.219823   0.000000
  240       12.241219   0.000000
  241       12.260496   0.000000
  242       12.342437   0.000000
  243       12.471740   0.000000
  244       12.605612   0.000000
  245       12.736561   0.000000
  246       12.748215   0.000000
  247       12.792291   0.000000
  248       12.966132   0.000000
  249       13.077326   0.000000
  250       13.119226   0.000000
  251       13.170205   0.000000
  252       13.230218   0.000000
  253       13.245340   0.000000
  254       13.562241   0.000000
  255       13.586148   0.000000
  256       13.607212   0.000000
 
 -0.1666667E+00  0.1666667E+00  0.1666667E+00  0.9259259E-02
    1      -11.496450   1.000000
    2      -11.295771   1.000000
    3      -11.214273   1.000000
    4       -9.925102   1.000000
    5       -9.840310   1.000000
    6       -9.673182   1.000000
    7       -9.606144   1.000000
    8       -9.418912   1.000000
    9       -9.340134   1.000000
   10       -9.249104   1.000000
   11       -9.211402   1.000000
   12       -8.698595   1.000000
   13       -8.595317   1.000000
   14       -8.519923   1.000000
   15       -8.512690   1.000000
   16       -8.225505   1.000000
   17       -8.081515   1.000000
   18       -8.023720   1.000000
   19       -7.800848   1.000000
   20       -7.586092   1.000000
   21       -7.432845   1.000000
   22       -7.379740   1.000000
   23       -7.191038   1.000000
   24       -7.038116   1.000000
   25       -6.176932   1.000000
   26       -6.140606   1.000000
   27       -6.135646   1.000000
   28       -6.054710   1.000000
   29       -5.672967   1.000000
   30       -5.638996   1.000000
   31       -5.608795   1.000000
   32       -5.553729   1.000000
   33       -5.439691   1.000000
   34       -5.361809   1.000000
   35       -5.309281   1.000000
   36       -5.018493   1.000000
   37       -4.938723   1.000000
   38       -4.868882   1.000000
   39       -4.766188   1.000000
   40       -4.605764   1.000000
   41       -4.354579   1.000000
   42       -4.295107   1.000000
   43       -4.180720   1.000000
   44       -4.117339   1.000000
   45       -4.063411   1.000000
   46       -3.856238   1.000000
   47       -3.824095   1.000000
   48       -3.646124   1.000000
   49       -3.299373   1.000000
   50       -3.152061   1.000000
   51       -3.101527   1.000000
   52       -3.023492   1.000000
   53       -2.835264   1.000000
   54       -2.757716   1.000000
   55       -2.716860   1.000000
   56       -2.672304   1.000000
   57       -2.597551   1.000000
   58       -2.533977   1.000000
   59       -2.461635   1.000000
   60       -2.379207   1.000000
   61       -2.179639   1.000000
   62       -2.123132   1.000000
   63       -2.079798   1.000000
   64       -2.013783   1.000000
   65       -1.911478   1.000000
   66       -1.826954   1.000000
   67       -1.705051   1.000000
   68       -1.694956   1.000000
   69       -1.557149   1.000000
   70       -1.489185   1.000000
   71       -1.400937   1.000000
   72       -1.314291   1.000000
   73       -1.261695   1.000000
   74       -1.104626   1.000000
   75       -1.090293   1.000000
   76       -0.945231   1.000000
   77       -0.852834   1.000000
   78       -0.806732   1.000000
   79       -0.773433   1.000000
   80       -0.735253   1.000000
   81       -0.630010   1.000000
   82       -0.599181   1.000000
   83       -0.533700   1.000000
   84       -0.440572   1.000000
   85       -0.247126   1.000000
   86       -0.197859   1.000000
   87       -0.136128   1.000000
   88       -0.086648   1.000000
   89       -0.032319   1.000000
   90       -0.009198   1.000000
   91        0.047223   1.000000
   92        0.054524   1.000000
   93        0.140110   1.000000
   94        0.221674   1.000000
   95        0.244595   1.000000
   96        0.344961   1.000000
   97        0.396402   1.000000
   98        0.469693   1.000000
   99        0.503185   1.000000
  100        0.538038   1.000000
  101        0.541354   1.000000
  102        0.646359   1.000000
  103        0.688747   1.000000
  104        0.773166   1.000000
  105        0.776352   1.000000
  106        0.838938   1.000000
  107        0.959253   1.000000
  108        1.029569   1.000000
  109        1.102190   1.000000
  110        1.135407   1.000000
  111        1.171119   1.000000
  112        1.255759   1.000000
  113        1.309927   1.000000
  114        1.330664   1.000000
  115        1.447424   1.000000
  116        1.568518   1.000000
  117        1.653791   1.000000
  118        1.685636   1.000000
  119        1.727272   1.000000
  120        1.818501   1.000000
  121        1.902996   1.000000
  122        1.924418   1.000000
  123        2.057907   1.000000
  124        2.084585   1.000000
  125        2.123735   1.000000
  126        2.218024   1.000000
  127        2.255801   1.000000
  128        2.274407   1.000000
  129        2.298518   1.000000
  130        2.349640   1.000000
  131        2.377320   1.000000
  132        2.404380   1.000000
  133        2.472243   1.000000
  134        2.578425   1.000000
  135        2.598587   1.000000
  136        2.625021   1.000000
  137        2.650452   1.000000
  138        2.652188   1.000000
  139        2.755674   1.000000
  140        2.880491   1.000000
  141        2.909830   1.000000
  142        2.919840   1.000000
  143        2.951271   1.000000
  144        2.964286   1.000000
  145        3.012866   1.000000
  146        3.031060   1.000000
  147        3.061015   1.000000
  148        3.076684   1.000000
  149        3.209579   1.000000
  150        3.334746   1.000000
  151        3.438055   1.000000
  152        3.454220   1.000000
  153        3.489868   1.000000
  154        3.511377   1.000000
  155        3.611190   1.000000
  156        3.666457   1.000000
  157        3.733710   1.000000
  158        3.781667   1.000000
  159        3.801361   1.000000
  160        3.839085   1.000000
  161        3.923683   1.000000
  162        3.994806   1.000000
  163        4.020240   1.000000
  164        4.048861   1.000000
  165        4.056983   1.000000
  166        4.131307   1.000000
  167        4.157126   1.000000
  168        4.233158   1.000000
  169        4.258379   1.000000
  170        4.309990   1.000000
  171        4.378381   1.000000
  172        4.393070   1.000000
  173        4.428074   1.000000
  174        4.599096   1.000000
  175        4.663757   1.000000
  176        4.683331   1.000000
  177        4.837061   1.000000
  178        4.895164   1.000000
  179        4.982238   1.000000
  180        5.050249   1.000000
  181        5.081106   1.000000
  182        5.099747   1.000000
  183        5.142896   1.000000
  184        5.196410   1.000000
  185        5.218246   1.000000
  186        5.246318   1.000000
  187        5.291603   1.000000
  188        5.315165   1.020569
  189        5.411105   0.273452
  190        5.419920  -0.014346
  191        5.545528  -0.007507
  192        5.563764   0.000000
  193        6.753071   0.000000
  194        6.876910   0.000000
  195        6.990625   0.000000
  196        7.556595   0.000000
  197        7.710779   0.000000
  198        7.814848   0.000000
  199        8.326949   0.000000
  200        8.618582   0.000000
  201        8.736454   0.000000
  202        8.829784   0.000000
  203        9.074506   0.000000
  204        9.316883   0.000000
  205        9.383375   0.000000
  206        9.511359   0.000000
  207        9.549774   0.000000
  208        9.682117   0.000000
  209        9.808731   0.000000
  210        9.908968   0.000000
  211        9.992799   0.000000
  212       10.033797   0.000000
  213       10.085233   0.000000
  214       10.322117   0.000000
  215       10.473434   0.000000
  216       10.516855   0.000000
  217       10.541742   0.000000
  218       10.598020   0.000000
  219       10.674613   0.000000
  220       10.803401   0.000000
  221       11.058891   0.000000
  222       11.226531   0.000000
  223       11.316265   0.000000
  224       11.441073   0.000000
  225       11.468285   0.000000
  226       11.565174   0.000000
  227       11.620415   0.000000
  228       11.672770   0.000000
  229       11.699042   0.000000
  230       11.717287   0.000000
  231       11.732495   0.000000
  232       11.764670   0.000000
  233       11.854255   0.000000
  234       11.897017   0.000000
  235       11.929900   0.000000
  236       12.133656   0.000000
  237       12.189325   0.000000
  238       12.210941   0.000000
  239       12.231867   0.000000
  240       12.303695   0.000000
  241       12.355739   0.000000
  242       12.451552   0.000000
  243       12.553595   0.000000
  244       12.724183   0.000000
  245       12.753297   0.000000
  246       12.870672   0.000000
  247       12.928870   0.000000
  248       12.996844   0.000000
  249       13.063264   0.000000
  250       13.127055   0.000000
  251       13.220791   0.000000
  252       13.284240   0.000000
  253       13.335902   0.000000
  254       13.429468   0.000000
  255       13.598682   0.000000
  256       13.732172   0.000000
 
  0.0000000E+00  0.3333333E+00  0.1666667E+00  0.9259259E-02
    1      -11.497495   1.000000
    2      -11.310357   1.000000
    3      -11.196674   1.000000
    4       -9.925139   1.000000
    5       -9.826169   1.000000
    6       -9.692025   1.000000
    7       -9.597187   1.000000
    8       -9.389872   1.000000
    9       -9.344108   1.000000
   10       -9.302540   1.000000
   11       -9.211033   1.000000
   12       -8.644993   1.000000
   13       -8.602075   1.000000
   14       -8.545121   1.000000
   15       -8.503848   1.000000
   16       -8.229185   1.000000
   17       -8.056569   1.000000
   18       -8.043927   1.000000
   19       -7.834616   1.000000
   20       -7.585593   1.000000
   21       -7.431211   1.000000
   22       -7.370113   1.000000
   23       -7.200273   1.000000
   24       -7.019527   1.000000
   25       -6.206320   1.000000
   26       -6.089825   1.000000
   27       -6.056284   1.000000
   28       -5.962576   1.000000
   29       -5.890665   1.000000
   30       -5.831251   1.000000
   31       -5.554684   1.000000
   32       -5.479499   1.000000
   33       -5.449021   1.000000
   34       -5.288419   1.000000
   35       -5.253967   1.000000
   36       -5.030656   1.000000
   37       -4.941615   1.000000
   38       -4.915776   1.000000
   39       -4.679034   1.000000
   40       -4.606602   1.000000
   41       -4.384432   1.000000
   42       -4.258591   1.000000
   43       -4.180704   1.000000
   44       -4.131352   1.000000
   45       -3.990632   1.000000
   46       -3.875183   1.000000
   47       -3.820124   1.000000
   48       -3.657587   1.000000
   49       -3.307052   1.000000
   50       -3.204980   1.000000
   51       -3.135564   1.000000
   52       -3.087763   1.000000
   53       -2.846222   1.000000
   54       -2.809314   1.000000
   55       -2.741848   1.000000
   56       -2.632469   1.000000
   57       -2.569896   1.000000
   58       -2.515227   1.000000
   59       -2.496194   1.000000
   60       -2.403848   1.000000
   61       -2.274207   1.000000
   62       -2.178004   1.000000
   63       -2.168166   1.000000
   64       -2.028432   1.000000
   65       -1.816677   1.000000
   66       -1.790064   1.000000
   67       -1.745662   1.000000
   68       -1.493326   1.000000
   69       -1.416518   1.000000
   70       -1.306488   1.000000
   71       -1.286243   1.000000
   72       -1.227499   1.000000
   73       -1.174048   1.000000
   74       -1.117591   1.000000
   75       -1.084668   1.000000
   76       -1.049732   1.000000
   77       -0.984688   1.000000
   78       -0.920763   1.000000
   79       -0.770958   1.000000
   80       -0.730626   1.000000
   81       -0.672421   1.000000
   82       -0.523147   1.000000
   83       -0.471262   1.000000
   84       -0.421044   1.000000
   85       -0.323989   1.000000
   86       -0.299211   1.000000
   87       -0.195924   1.000000
   88       -0.146402   1.000000
   89       -0.050829   1.000000
   90       -0.038400   1.000000
   91        0.061626   1.000000
   92        0.115754   1.000000
   93        0.146198   1.000000
   94        0.208647   1.000000
   95        0.256632   1.000000
   96        0.291514   1.000000
   97        0.331167   1.000000
   98        0.369367   1.000000
   99        0.427625   1.000000
  100        0.505932   1.000000
  101        0.603483   1.000000
  102        0.628396   1.000000
  103        0.664626   1.000000
  104        0.782340   1.000000
  105        0.845676   1.000000
  106        0.891235   1.000000
  107        0.929991   1.000000
  108        1.003039   1.000000
  109        1.028020   1.000000
  110        1.163787   1.000000
  111        1.194549   1.000000
  112        1.275341   1.000000
  113        1.312510   1.000000
  114        1.315918   1.000000
  115        1.442509   1.000000
  116        1.502687   1.000000
  117        1.579815   1.000000
  118        1.659013   1.000000
  119        1.759148   1.000000
  120        1.826999   1.000000
  121        1.864259   1.000000
  122        1.960234   1.000000
  123        2.067891   1.000000
  124        2.091675   1.000000
  125        2.206447   1.000000
  126        2.234403   1.000000
  127        2.263191   1.000000
  128        2.317360   1.000000
  129        2.338862   1.000000
  130        2.378116   1.000000
  131        2.458038   1.000000
  132        2.487226   1.000000
  133        2.507235   1.000000
  134        2.573590   1.000000
  135        2.618504   1.000000
  136        2.636765   1.000000
  137        2.679957   1.000000
  138        2.744344   1.000000
  139        2.825222   1.000000
  140        2.872950   1.000000
  141        2.878176   1.000000
  142        2.903402   1.000000
  143        2.917941   1.000000
  144        3.067744   1.000000
  145        3.085207   1.000000
  146        3.094642   1.000000
  147        3.136744   1.000000
  148        3.172837   1.000000
  149        3.276938   1.000000
  150        3.301824   1.000000
  151        3.329236   1.000000
  152        3.479858   1.000000
  153        3.496117   1.000000
  154        3.538687   1.000000
  155        3.609731   1.000000
  156        3.673778   1.000000
  157        3.713297   1.000000
  158        3.723062   1.000000
  159        3.797927   1.000000
  160        3.856676   1.000000
  161        3.891729   1.000000
  162        3.926840   1.000000
  163        3.958627   1.000000
  164        3.982766   1.000000
  165        4.028235   1.000000
  166        4.041954   1.000000
  167        4.108499   1.000000
  168        4.139162   1.000000
  169        4.227359   1.000000
  170        4.261423   1.000000
  171        4.321304   1.000000
  172        4.453865   1.000000
  173        4.504016   1.000000
  174        4.532435   1.000000
  175        4.652755   1.000000
  176        4.690851   1.000000
  177        4.716060   1.000000
  178        4.882208   1.000000
  179        4.907817   1.000000
  180        4.984915   1.000000
  181        5.011767   1.000000
  182        5.022938   1.000000
  183        5.130197   1.000000
  184        5.179941   1.000000
  185        5.229352   1.000000
  186        5.239996   1.000000
  187        5.324646   1.000000
  188        5.340353   0.931068
  189        5.451357   0.003694
  190        5.537543  -0.030466
  191        5.614147   0.000000
  192        5.647170   0.000000
  193        6.791247   0.000000
  194        6.892108   0.000000
  195        7.026450   0.000000
  196        7.561883   0.000000
  197        7.711594   0.000000
  198        7.785832   0.000000
  199        8.394624   0.000000
  200        8.675112   0.000000
  201        8.723148   0.000000
  202        9.002714   0.000000
  203        9.055331   0.000000
  204        9.328772   0.000000
  205        9.478590   0.000000
  206        9.551687   0.000000
  207        9.570920   0.000000
  208        9.614330   0.000000
  209        9.808381   0.000000
  210        9.826600   0.000000
  211        9.907618   0.000000
  212       10.027547   0.000000
  213       10.082524   0.000000
  214       10.296658   0.000000
  215       10.358757   0.000000
  216       10.395719   0.000000
  217       10.414439   0.000000
  218       10.582534   0.000000
  219       10.710226   0.000000
  220       10.829779   0.000000
  221       10.883589   0.000000
  222       11.026114   0.000000
  223       11.318461   0.000000
  224       11.411282   0.000000
  225       11.443382   0.000000
  226       11.491892   0.000000
  227       11.549680   0.000000
  228       11.615882   0.000000
  229       11.657158   0.000000
  230       11.719538   0.000000
  231       11.795487   0.000000
  232       11.837205   0.000000
  233       11.925860   0.000000
  234       11.939291   0.000000
  235       12.022889   0.000000
  236       12.043287   0.000000
  237       12.225846   0.000000
  238       12.286599   0.000000
  239       12.307675   0.000000
  240       12.380657   0.000000
  241       12.494900   0.000000
  242       12.539282   0.000000
  243       12.687446   0.000000
  244       12.720459   0.000000
  245       12.792427   0.000000
  246       12.840454   0.000000
  247       12.909726   0.000000
  248       13.046011   0.000000
  249       13.169755   0.000000
  250       13.196325   0.000000
  251       13.214493   0.000000
  252       13.265041   0.000000
  253       13.435421   0.000000
  254       13.488733   0.000000
  255       13.754023   0.000000
  256       13.763060   0.000000
 
  0.1666667E+00  0.3333333E+00  0.1666667E+00  0.9259259E-02
    1      -11.497905   1.000000
    2      -11.296670   1.000000
    3      -11.214696   1.000000
    4       -9.959085   1.000000
    5       -9.845174   1.000000
    6       -9.575440   1.000000
    7       -9.520634   1.000000
    8       -9.437716   1.000000
    9       -9.365112   1.000000
   10       -9.231689   1.000000
   11       -9.221198   1.000000
   12       -8.804765   1.000000
   13       -8.714625   1.000000
   14       -8.607731   1.000000
   15       -8.527668   1.000000
   16       -8.219471   1.000000
   17       -8.045968   1.000000
   18       -7.927378   1.000000
   19       -7.845902   1.000000
   20       -7.496726   1.000000
   21       -7.446338   1.000000
   22       -7.358572   1.000000
   23       -7.082093   1.000000
   24       -6.949121   1.000000
   25       -6.173965   1.000000
   26       -6.109803   1.000000
   27       -6.045443   1.000000
   28       -5.941733   1.000000
   29       -5.887232   1.000000
   30       -5.878507   1.000000
   31       -5.613135   1.000000
   32       -5.557143   1.000000
   33       -5.437293   1.000000
   34       -5.318679   1.000000
   35       -5.271974   1.000000
   36       -5.055987   1.000000
   37       -4.998960   1.000000
   38       -4.934243   1.000000
   39       -4.716292   1.000000
   40       -4.590758   1.000000
   41       -4.296636   1.000000
   42       -4.261309   1.000000
   43       -4.159976   1.000000
   44       -4.146137   1.000000
   45       -3.942037   1.000000
   46       -3.862178   1.000000
   47       -3.785150   1.000000
   48       -3.601740   1.000000
   49       -3.338656   1.000000
   50       -3.300009   1.000000
   51       -3.203071   1.000000
   52       -3.144714   1.000000
   53       -3.088588   1.000000
   54       -2.826758   1.000000
   55       -2.756530   1.000000
   56       -2.695797   1.000000
   57       -2.649956   1.000000
   58       -2.594940   1.000000
   59       -2.568642   1.000000
   60       -2.515420   1.000000
   61       -2.430280   1.000000
   62       -2.219350   1.000000
   63       -2.121176   1.000000
   64       -1.759172   1.000000
   65       -1.738558   1.000000
   66       -1.612489   1.000000
   67       -1.535833   1.000000
   68       -1.451289   1.000000
   69       -1.274453   1.000000
   70       -1.258462   1.000000
   71       -1.227866   1.000000
   72       -1.117933   1.000000
   73       -1.071830   1.000000
   74       -0.997844   1.000000
   75       -0.969737   1.000000
   76       -0.875144   1.000000
   77       -0.816410   1.000000
   78       -0.731507   1.000000
   79       -0.698854   1.000000
   80       -0.621014   1.000000
   81       -0.524665   1.000000
   82       -0.493586   1.000000
   83       -0.463715   1.000000
   84       -0.376356   1.000000
   85       -0.273668   1.000000
   86       -0.249698   1.000000
   87       -0.157581   1.000000
   88       -0.059935   1.000000
   89       -0.007763   1.000000
   90        0.014241   1.000000
   91        0.065847   1.000000
   92        0.077914   1.000000
   93        0.104210   1.000000
   94        0.156959   1.000000
   95        0.173208   1.000000
   96        0.208458   1.000000
   97        0.250168   1.000000
   98        0.259868   1.000000
   99        0.435786   1.000000
  100        0.473737   1.000000
  101        0.499096   1.000000
  102        0.541685   1.000000
  103        0.624218   1.000000
  104        0.639382   1.000000
  105        0.652758   1.000000
  106        0.750514   1.000000
  107        0.775884   1.000000
  108        0.896204   1.000000
  109        0.911460   1.000000
  110        0.957426   1.000000
  111        1.023730   1.000000
  112        1.031249   1.000000
  113        1.194802   1.000000
  114        1.205775   1.000000
  115        1.270214   1.000000
  116        1.313351   1.000000
  117        1.445493   1.000000
  118        1.595006   1.000000
  119        1.667922   1.000000
  120        1.706597   1.000000
  121        1.849719   1.000000
  122        1.978709   1.000000
  123        2.017180   1.000000
  124        2.042990   1.000000
  125        2.093449   1.000000
  126        2.149632   1.000000
  127        2.223574   1.000000
  128        2.251352   1.000000
  129        2.282552   1.000000
  130        2.479566   1.000000
  131        2.500698   1.000000
  132        2.549540   1.000000
  133        2.590569   1.000000
  134        2.604361   1.000000
  135        2.657014   1.000000
  136        2.772252   1.000000
  137        2.803960   1.000000
  138        2.835844   1.000000
  139        2.858712   1.000000
  140        2.948321   1.000000
  141        3.029282   1.000000
  142        3.056192   1.000000
  143        3.094603   1.000000
  144        3.129006   1.000000
  145        3.149378   1.000000
  146        3.191573   1.000000
  147        3.211777   1.000000
  148        3.245300   1.000000
  149        3.269230   1.000000
  150        3.327259   1.000000
  151        3.404967   1.000000
  152        3.427994   1.000000
  153        3.489483   1.000000
  154        3.525177   1.000000
  155        3.561511   1.000000
  156        3.591751   1.000000
  157        3.654155   1.000000
  158        3.805800   1.000000
  159        3.838961   1.000000
  160        3.899884   1.000000
  161        3.921427   1.000000
  162        3.970823   1.000000
  163        4.029948   1.000000
  164        4.072008   1.000000
  165        4.098719   1.000000
  166        4.140731   1.000000
  167        4.235738   1.000000
  168        4.253094   1.000000
  169        4.310865   1.000000
  170        4.339465   1.000000
  171        4.438302   1.000000
  172        4.507428   1.000000
  173        4.532883   1.000000
  174        4.649654   1.000000
  175        4.678867   1.000000
  176        4.729400   1.000000
  177        4.752631   1.000000
  178        4.848791   1.000000
  179        4.859038   1.000000
  180        4.943471   1.000000
  181        4.983044   1.000000
  182        4.997735   1.000000
  183        5.048630   1.000000
  184        5.091802   1.000000
  185        5.135137   1.000000
  186        5.168842   1.000000
  187        5.217951   1.000000
  188        5.326136   1.026151
  189        5.444633   0.187445
  190        5.532915  -0.047210
  191        5.542299  -0.048662
  192        5.604000  -0.014288
  193        6.785112   0.000000
  194        6.889062   0.000000
  195        6.980484   0.000000
  196        7.489524   0.000000
  197        7.718074   0.000000
  198        7.739448   0.000000
  199        8.430085   0.000000
  200        8.698858   0.000000
  201        8.811962   0.000000
  202        8.912546   0.000000
  203        9.069396   0.000000
  204        9.380600   0.000000
  205        9.452870   0.000000
  206        9.516447   0.000000
  207        9.604478   0.000000
  208        9.630537   0.000000
  209        9.684288   0.000000
  210        9.769600   0.000000
  211        9.947775   0.000000
  212       10.013821   0.000000
  213       10.076366   0.000000
  214       10.141323   0.000000
  215       10.343410   0.000000
  216       10.396878   0.000000
  217       10.447869   0.000000
  218       10.700292   0.000000
  219       10.836712   0.000000
  220       11.000965   0.000000
  221       11.028754   0.000000
  222       11.068212   0.000000
  223       11.259207   0.000000
  224       11.389788   0.000000
  225       11.441877   0.000000
  226       11.500561   0.000000
  227       11.551464   0.000000
  228       11.613346   0.000000
  229       11.653904   0.000000
  230       11.711173   0.000000
  231       11.768675   0.000000
  232       11.790891   0.000000
  233       11.933289   0.000000
  234       11.977301   0.000000
  235       12.060257   0.000000
  236       12.080453   0.000000
  237       12.116152   0.000000
  238       12.208049   0.000000
  239       12.256863   0.000000
  240       12.270200   0.000000
  241       12.290302   0.000000
  242       12.530186   0.000000
  243       12.604829   0.000000
  244       12.655179   0.000000
  245       12.748956   0.000000
  246       12.782808   0.000000
  247       12.818301   0.000000
  248       12.860558   0.000000
  249       12.923211   0.000000
  250       13.114489   0.000000
  251       13.166428   0.000000
  252       13.262120   0.000000
  253       13.515802   0.000000
  254       13.550838   0.000000
  255       13.567467   0.000000
  256       13.771170   0.000000
 
  0.3333333E+00  0.3333333E+00  0.1666667E+00  0.9259259E-02
    1      -11.469036   1.000000
    2      -11.300504   1.000000
    3      -11.251908   1.000000
    4       -9.972400   1.000000
    5       -9.849090   1.000000
    6       -9.498029   1.000000
    7       -9.467057   1.000000
    8       -9.460569   1.000000
    9       -9.395346   1.000000
   10       -9.230861   1.000000
   11       -9.167107   1.000000
   12       -8.952357   1.000000
   13       -8.808254   1.000000
   14       -8.551343   1.000000
   15       -8.497541   1.000000
   16       -8.187081   1.000000
   17       -8.063783   1.000000
   18       -7.922284   1.000000
   19       -7.738658   1.000000
   20       -7.555656   1.000000
   21       -7.424590   1.000000
   22       -7.361387   1.000000
   23       -7.072096   1.000000
   24       -6.962990   1.000000
   25       -6.181617   1.000000
   26       -6.112419   1.000000
   27       -6.000200   1.000000
   28       -5.949352   1.000000
   29       -5.906087   1.000000
   30       -5.821597   1.000000
   31       -5.540555   1.000000
   32       -5.530736   1.000000
   33       -5.454335   1.000000
   34       -5.413336   1.000000
   35       -5.324607   1.000000
   36       -5.101402   1.000000
   37       -5.052628   1.000000
   38       -4.901776   1.000000
   39       -4.762929   1.000000
   40       -4.720271   1.000000
   41       -4.339994   1.000000
   42       -4.260587   1.000000
   43       -4.218509   1.000000
   44       -4.102732   1.000000
   45       -3.998199   1.000000
   46       -3.955729   1.000000
   47       -3.804469   1.000000
   48       -3.575008   1.000000
   49       -3.353417   1.000000
   50       -3.260395   1.000000
   51       -3.175182   1.000000
   52       -3.011070   1.000000
   53       -2.955985   1.000000
   54       -2.764300   1.000000
   55       -2.706021   1.000000
   56       -2.666691   1.000000
   57       -2.614302   1.000000
   58       -2.597212   1.000000
   59       -2.419169   1.000000
   60       -2.365583   1.000000
   61       -2.245990   1.000000
   62       -2.227227   1.000000
   63       -2.072335   1.000000
   64       -1.728970   1.000000
   65       -1.655511   1.000000
   66       -1.510713   1.000000
   67       -1.413285   1.000000
   68       -1.383364   1.000000
   69       -1.330304   1.000000
   70       -1.270608   1.000000
   71       -1.213373   1.000000
   72       -1.183749   1.000000
   73       -1.170658   1.000000
   74       -1.129186   1.000000
   75       -1.050765   1.000000
   76       -1.010955   1.000000
   77       -0.949904   1.000000
   78       -0.845393   1.000000
   79       -0.789377   1.000000
   80       -0.718544   1.000000
   81       -0.620682   1.000000
   82       -0.530113   1.000000
   83       -0.417484   1.000000
   84       -0.375190   1.000000
   85       -0.364808   1.000000
   86       -0.283369   1.000000
   87       -0.239002   1.000000
   88       -0.191249   1.000000
   89       -0.109627   1.000000
   90        0.020568   1.000000
   91        0.033530   1.000000
   92        0.090527   1.000000
   93        0.120400   1.000000
   94        0.172482   1.000000
   95        0.191653   1.000000
   96        0.258585   1.000000
   97        0.267801   1.000000
   98        0.346592   1.000000
   99        0.383010   1.000000
  100        0.406622   1.000000
  101        0.530595   1.000000
  102        0.546920   1.000000
  103        0.598615   1.000000
  104        0.628820   1.000000
  105        0.671510   1.000000
  106        0.755179   1.000000
  107        0.786948   1.000000
  108        0.809863   1.000000
  109        0.850458   1.000000
  110        0.910003   1.000000
  111        0.966705   1.000000
  112        1.056809   1.000000
  113        1.125202   1.000000
  114        1.243310   1.000000
  115        1.278730   1.000000
  116        1.397275   1.000000
  117        1.533254   1.000000
  118        1.596138   1.000000
  119        1.701728   1.000000
  120        1.778104   1.000000
  121        1.854347   1.000000
  122        1.861018   1.000000
  123        1.939979   1.000000
  124        2.029004   1.000000
  125        2.145623   1.000000
  126        2.196227   1.000000
  127        2.256868   1.000000
  128        2.329306   1.000000
  129        2.436103   1.000000
  130        2.460606   1.000000
  131        2.481029   1.000000
  132        2.539111   1.000000
  133        2.574149   1.000000
  134        2.629896   1.000000
  135        2.752153   1.000000
  136        2.800084   1.000000
  137        2.872365   1.000000
  138        2.919598   1.000000
  139        2.939494   1.000000
  140        2.959538   1.000000
  141        2.995502   1.000000
  142        3.024304   1.000000
  143        3.079232   1.000000
  144        3.093756   1.000000
  145        3.143712   1.000000
  146        3.251626   1.000000
  147        3.299904   1.000000
  148        3.346749   1.000000
  149        3.358982   1.000000
  150        3.375384   1.000000
  151        3.399564   1.000000
  152        3.502991   1.000000
  153        3.524644   1.000000
  154        3.546046   1.000000
  155        3.618492   1.000000
  156        3.705614   1.000000
  157        3.713631   1.000000
  158        3.732876   1.000000
  159        3.769813   1.000000
  160        3.803100   1.000000
  161        3.897679   1.000000
  162        3.951499   1.000000
  163        4.026450   1.000000
  164        4.124057   1.000000
  165        4.158051   1.000000
  166        4.162876   1.000000
  167        4.351558   1.000000
  168        4.386980   1.000000
  169        4.408622   1.000000
  170        4.429554   1.000000
  171        4.481781   1.000000
  172        4.488794   1.000000
  173        4.565830   1.000000
  174        4.624881   1.000000
  175        4.647417   1.000000
  176        4.664036   1.000000
  177        4.727274   1.000000
  178        4.736089   1.000000
  179        4.775615   1.000000
  180        4.844498   1.000000
  181        4.903792   1.000000
  182        4.942475   1.000000
  183        4.971156   1.000000
  184        4.975107   1.000000
  185        5.075372   1.000000
  186        5.123644   1.000000
  187        5.151988   1.000000
  188        5.316765   1.010849
  189        5.375411   0.693223
  190        5.378728   0.476225
  191        5.458290   0.060846
  192        5.471849   0.008825
  193        6.823897   0.000000
  194        6.927544   0.000000
  195        6.933784   0.000000
  196        7.530667   0.000000
  197        7.726525   0.000000
  198        7.802503   0.000000
  199        8.485366   0.000000
  200        8.743980   0.000000
  201        8.804210   0.000000
  202        8.907417   0.000000
  203        9.175040   0.000000
  204        9.325011   0.000000
  205        9.481949   0.000000
  206        9.595577   0.000000
  207        9.681547   0.000000
  208        9.731584   0.000000
  209        9.762975   0.000000
  210        9.882095   0.000000
  211        9.971881   0.000000
  212        9.984913   0.000000
  213       10.146295   0.000000
  214       10.279876   0.000000
  215       10.313961   0.000000
  216       10.532368   0.000000
  217       10.585861   0.000000
  218       10.743047   0.000000
  219       10.788385   0.000000
  220       10.893915   0.000000
  221       11.034251   0.000000
  222       11.090556   0.000000
  223       11.132221   0.000000
  224       11.192090   0.000000
  225       11.389295   0.000000
  226       11.459913   0.000000
  227       11.586579   0.000000
  228       11.623892   0.000000
  229       11.643962   0.000000
  230       11.756784   0.000000
  231       11.780925   0.000000
  232       11.799175   0.000000
  233       11.845925   0.000000
  234       11.889834   0.000000
  235       11.958159   0.000000
  236       11.996653   0.000000
  237       12.057326   0.000000
  238       12.112035   0.000000
  239       12.181943   0.000000
  240       12.220062   0.000000
  241       12.248011   0.000000
  242       12.318212   0.000000
  243       12.442711   0.000000
  244       12.548004   0.000000
  245       12.560403   0.000000
  246       12.649512   0.000000
  247       12.698025   0.000000
  248       12.788151   0.000000
  249       12.952074   0.000000
  250       13.047903   0.000000
  251       13.343828   0.000000
  252       13.403732   0.000000
  253       13.438210   0.000000
  254       13.658147   0.000000
  255       13.665313   0.000000
  256       13.727879   0.000000
 
  0.5000000E+00  0.3333333E+00  0.1666667E+00  0.9259259E-02
    1      -11.418458   1.000000
    2      -11.352172   1.000000
    3      -11.258458   1.000000
    4       -9.960325   1.000000
    5       -9.847756   1.000000
    6       -9.554222   1.000000
    7       -9.496862   1.000000
    8       -9.455286   1.000000
    9       -9.344849   1.000000
   10       -9.294660   1.000000
   11       -9.163495   1.000000
   12       -8.914723   1.000000
   13       -8.765661   1.000000
   14       -8.476750   1.000000
   15       -8.418464   1.000000
   16       -8.167530   1.000000
   17       -8.086293   1.000000
   18       -7.897238   1.000000
   19       -7.732940   1.000000
   20       -7.620774   1.000000
   21       -7.503577   1.000000
   22       -7.360696   1.000000
   23       -7.159717   1.000000
   24       -7.043757   1.000000
   25       -6.233438   1.000000
   26       -6.020000   1.000000
   27       -6.011313   1.000000
   28       -5.923530   1.000000
   29       -5.912360   1.000000
   30       -5.708850   1.000000
   31       -5.634133   1.000000
   32       -5.563080   1.000000
   33       -5.363268   1.000000
   34       -5.352367   1.000000
   35       -5.280055   1.000000
   36       -5.220858   1.000000
   37       -5.002142   1.000000
   38       -4.859398   1.000000
   39       -4.826838   1.000000
   40       -4.737771   1.000000
   41       -4.418239   1.000000
   42       -4.310475   1.000000
   43       -4.259958   1.000000
   44       -4.151309   1.000000
   45       -4.128372   1.000000
   46       -4.009914   1.000000
   47       -3.872796   1.000000
   48       -3.636972   1.000000
   49       -3.205488   1.000000
   50       -3.042073   1.000000
   51       -3.003998   1.000000
   52       -2.842687   1.000000
   53       -2.709847   1.000000
   54       -2.642597   1.000000
   55       -2.610162   1.000000
   56       -2.549430   1.000000
   57       -2.501883   1.000000
   58       -2.454846   1.000000
   59       -2.245732   1.000000
   60       -2.178320   1.000000
   61       -2.143613   1.000000
   62       -2.066030   1.000000
   63       -1.973941   1.000000
   64       -1.802702   1.000000
   65       -1.784166   1.000000
   66       -1.669421   1.000000
   67       -1.631835   1.000000
   68       -1.571288   1.000000
   69       -1.530928   1.000000
   70       -1.449118   1.000000
   71       -1.367459   1.000000
   72       -1.315037   1.000000
   73       -1.293287   1.000000
   74       -1.242782   1.000000
   75       -1.234381   1.000000
   76       -1.108351   1.000000
   77       -1.000081   1.000000
   78       -0.987110   1.000000
   79       -0.870903   1.000000
   80       -0.824945   1.000000
   81       -0.747962   1.000000
   82       -0.611918   1.000000
   83       -0.606378   1.000000
   84       -0.555471   1.000000
   85       -0.522924   1.000000
   86       -0.415872   1.000000
   87       -0.332074   1.000000
   88       -0.272982   1.000000
   89       -0.209508   1.000000
   90       -0.191176   1.000000
   91       -0.145293   1.000000
   92       -0.009027   1.000000
   93        0.027937   1.000000
   94        0.125478   1.000000
   95        0.226896   1.000000
   96        0.245013   1.000000
   97        0.369266   1.000000
   98        0.409012   1.000000
   99        0.487652   1.000000
  100        0.656178   1.000000
  101        0.661277   1.000000
  102        0.698961   1.000000
  103        0.733274   1.000000
  104        0.771092   1.000000
  105        0.786992   1.000000
  106        0.917448   1.000000
  107        0.936972   1.000000
  108        0.987946   1.000000
  109        1.067110   1.000000
  110        1.118334   1.000000
  111        1.148699   1.000000
  112        1.205672   1.000000
  113        1.280381   1.000000
  114        1.341667   1.000000
  115        1.479101   1.000000
  116        1.529342   1.000000
  117        1.573967   1.000000
  118        1.642381   1.000000
  119        1.680636   1.000000
  120        1.833292   1.000000
  121        1.850110   1.000000
  122        2.001889   1.000000
  123        2.075234   1.000000
  124        2.204499   1.000000
  125        2.231614   1.000000
  126        2.239536   1.000000
  127        2.258768   1.000000
  128        2.347498   1.000000
  129        2.357564   1.000000
  130        2.428550   1.000000
  131        2.456243   1.000000
  132        2.524309   1.000000
  133        2.552532   1.000000
  134        2.619659   1.000000
  135        2.631131   1.000000
  136        2.646036   1.000000
  137        2.705605   1.000000
  138        2.810578   1.000000
  139        2.936032   1.000000
  140        2.979858   1.000000
  141        3.029016   1.000000
  142        3.066467   1.000000
  143        3.088329   1.000000
  144        3.161282   1.000000
  145        3.172455   1.000000
  146        3.217889   1.000000
  147        3.282988   1.000000
  148        3.300259   1.000000
  149        3.314174   1.000000
  150        3.373180   1.000000
  151        3.405582   1.000000
  152        3.410797   1.000000
  153        3.473505   1.000000
  154        3.524067   1.000000
  155        3.601053   1.000000
  156        3.694600   1.000000
  157        3.764807   1.000000
  158        3.787320   1.000000
  159        3.874745   1.000000
  160        3.882293   1.000000
  161        3.926558   1.000000
  162        3.992573   1.000000
  163        4.008255   1.000000
  164        4.047941   1.000000
  165        4.080359   1.000000
  166        4.160052   1.000000
  167        4.219217   1.000000
  168        4.252218   1.000000
  169        4.282185   1.000000
  170        4.403363   1.000000
  171        4.426649   1.000000
  172        4.445391   1.000000
  173        4.520321   1.000000
  174        4.530933   1.000000
  175        4.550856   1.000000
  176        4.628079   1.000000
  177        4.695214   1.000000
  178        4.709279   1.000000
  179        4.757114   1.000000
  180        4.824503   1.000000
  181        4.870058   1.000000
  182        4.885200   1.000000
  183        4.952592   1.000000
  184        5.040303   1.000000
  185        5.063321   1.000000
  186        5.087848   1.000000
  187        5.106813   1.000000
  188        5.258718   1.000000
  189        5.274538   1.071121
  190        5.342535   0.820007
  191        5.396073   0.299702
  192        5.503530  -0.003623
  193        6.880109   0.000000
  194        6.916817   0.000000
  195        6.983614   0.000000
  196        7.653445   0.000000
  197        7.735024   0.000000
  198        7.875720   0.000000
  199        8.534953   0.000000
  200        8.642420   0.000000
  201        8.834223   0.000000
  202        9.003774   0.000000
  203        9.156057   0.000000
  204        9.324274   0.000000
  205        9.586904   0.000000
  206        9.660904   0.000000
  207        9.693463   0.000000
  208        9.850030   0.000000
  209        9.885562   0.000000
  210        9.969052   0.000000
  211       10.054310   0.000000
  212       10.174457   0.000000
  213       10.207454   0.000000
  214       10.314033   0.000000
  215       10.450071   0.000000
  216       10.595912   0.000000
  217       10.637544   0.000000
  218       10.766875   0.000000
  219       10.847522   0.000000
  220       10.859725   0.000000
  221       10.888133   0.000000
  222       10.949138   0.000000
  223       11.121727   0.000000
  224       11.163333   0.000000
  225       11.231678   0.000000
  226       11.279106   0.000000
  227       11.390976   0.000000
  228       11.501223   0.000000
  229       11.550292   0.000000
  230       11.570710   0.000000
  231       11.683093   0.000000
  232       11.741829   0.000000
  233       11.834210   0.000000
  234       11.949214   0.000000
  235       11.998045   0.000000
  236       12.016966   0.000000
  237       12.091267   0.000000
  238       12.117310   0.000000
  239       12.210596   0.000000
  240       12.240458   0.000000
  241       12.247358   0.000000
  242       12.277310   0.000000
  243       12.318225   0.000000
  244       12.420794   0.000000
  245       12.536278   0.000000
  246       12.566558   0.000000
  247       12.728925   0.000000
  248       12.862395   0.000000
  249       13.061170   0.000000
  250       13.178129   0.000000
  251       13.263508   0.000000
  252       13.504515   0.000000
  253       13.546826   0.000000
  254       13.625847   0.000000
  255       13.738823   0.000000
  256       13.762877   0.000000
 
 -0.3333333E+00  0.3333333E+00  0.1666667E+00  0.9259259E-02
    1      -11.417622   1.000000
    2      -11.362889   1.000000
    3      -11.244622   1.000000
    4       -9.924317   1.000000
    5       -9.835629   1.000000
    6       -9.642461   1.000000
    7       -9.594970   1.000000
    8       -9.462834   1.000000
    9       -9.330495   1.000000
   10       -9.246096   1.000000
   11       -9.227547   1.000000
   12       -8.762554   1.000000
   13       -8.638813   1.000000
   14       -8.480601   1.000000
   15       -8.341752   1.000000
   16       -8.219153   1.000000
   17       -8.001673   1.000000
   18       -7.947692   1.000000
   19       -7.803033   1.000000
   20       -7.648449   1.000000
   21       -7.595012   1.000000
   22       -7.332040   1.000000
   23       -7.252833   1.000000
   24       -7.138447   1.000000
   25       -6.213545   1.000000
   26       -6.098951   1.000000
   27       -6.033566   1.000000
   28       -5.875173   1.000000
   29       -5.833864   1.000000
   30       -5.757984   1.000000
   31       -5.703573   1.000000
   32       -5.570847   1.000000
   33       -5.351855   1.000000
   34       -5.231278   1.000000
   35       -5.119555   1.000000
   36       -5.070294   1.000000
   37       -4.982906   1.000000
   38       -4.928197   1.000000
   39       -4.801538   1.000000
   40       -4.710413   1.000000
   41       -4.469900   1.000000
   42       -4.427659   1.000000
   43       -4.327485   1.000000
   44       -4.162671   1.000000
   45       -4.069382   1.000000
   46       -4.000213   1.000000
   47       -3.930906   1.000000
   48       -3.758160   1.000000
   49       -3.026540   1.000000
   50       -2.942654   1.000000
   51       -2.789817   1.000000
   52       -2.644677   1.000000
   53       -2.635965   1.000000
   54       -2.563398   1.000000
   55       -2.524921   1.000000
   56       -2.500472   1.000000
   57       -2.419806   1.000000
   58       -2.355747   1.000000
   59       -2.208380   1.000000
   60       -2.119880   1.000000
   61       -2.092302   1.000000
   62       -2.040748   1.000000
   63       -1.985054   1.000000
   64       -1.937153   1.000000
   65       -1.903781   1.000000
   66       -1.800455   1.000000
   67       -1.736816   1.000000
   68       -1.707680   1.000000
   69       -1.697727   1.000000
   70       -1.621758   1.000000
   71       -1.586291   1.000000
   72       -1.505543   1.000000
   73       -1.455371   1.000000
   74       -1.374052   1.000000
   75       -1.330173   1.000000
   76       -1.225814   1.000000
   77       -1.089535   1.000000
   78       -1.032932   1.000000
   79       -0.962830   1.000000
   80       -0.914654   1.000000
   81       -0.843605   1.000000
   82       -0.681492   1.000000
   83       -0.638005   1.000000
   84       -0.562641   1.000000
   85       -0.548616   1.000000
   86       -0.498458   1.000000
   87       -0.416880   1.000000
   88       -0.322131   1.000000
   89       -0.247759   1.000000
   90       -0.185846   1.000000
   91       -0.058899   1.000000
   92       -0.040855   1.000000
   93        0.101035   1.000000
   94        0.178901   1.000000
   95        0.306699   1.000000
   96        0.328856   1.000000
   97        0.411740   1.000000
   98        0.470271   1.000000
   99        0.512505   1.000000
  100        0.629932   1.000000
  101        0.730018   1.000000
  102        0.751622   1.000000
  103        0.874373   1.000000
  104        0.948073   1.000000
  105        0.960745   1.000000
  106        1.019144   1.000000
  107        1.145635   1.000000
  108        1.200905   1.000000
  109        1.257670   1.000000
  110        1.300278   1.000000
  111        1.326249   1.000000
  112        1.366909   1.000000
  113        1.407675   1.000000
  114        1.447372   1.000000
  115        1.502096   1.000000
  116        1.541102   1.000000
  117        1.683935   1.000000
  118        1.736180   1.000000
  119        1.765324   1.000000
  120        1.917755   1.000000
  121        1.966558   1.000000
  122        2.053393   1.000000
  123        2.065647   1.000000
  124        2.123745   1.000000
  125        2.146908   1.000000
  126        2.228487   1.000000
  127        2.239979   1.000000
  128        2.283494   1.000000
  129        2.302479   1.000000
  130        2.370455   1.000000
  131        2.504056   1.000000
  132        2.538616   1.000000
  133        2.566538   1.000000
  134        2.591682   1.000000
  135        2.649624   1.000000
  136        2.687195   1.000000
  137        2.723277   1.000000
  138        2.761702   1.000000
  139        2.862402   1.000000
  140        2.905827   1.000000
  141        2.987241   1.000000
  142        3.002385   1.000000
  143        3.072815   1.000000
  144        3.111708   1.000000
  145        3.168807   1.000000
  146        3.201705   1.000000
  147        3.215367   1.000000
  148        3.258231   1.000000
  149        3.271190   1.000000
  150        3.338641   1.000000
  151        3.380905   1.000000
  152        3.423130   1.000000
  153        3.466334   1.000000
  154        3.479781   1.000000
  155        3.500452   1.000000
  156        3.569793   1.000000
  157        3.655607   1.000000
  158        3.695300   1.000000
  159        3.727157   1.000000
  160        3.765533   1.000000
  161        3.861191   1.000000
  162        3.896777   1.000000
  163        3.914888   1.000000
  164        3.943954   1.000000
  165        3.984647   1.000000
  166        4.039845   1.000000
  167        4.138842   1.000000
  168        4.233250   1.000000
  169        4.263381   1.000000
  170        4.324028   1.000000
  171        4.328729   1.000000
  172        4.352812   1.000000
  173        4.417242   1.000000
  174        4.511728   1.000000
  175        4.565539   1.000000
  176        4.620457   1.000000
  177        4.683931   1.000000
  178        4.736835   1.000000
  179        4.784549   1.000000
  180        4.883181   1.000000
  181        4.941381   1.000000
  182        4.992780   1.000000
  183        5.056671   1.000000
  184        5.127467   1.000000
  185        5.134264   1.000000
  186        5.163783   1.000000
  187        5.217081   1.000000
  188        5.256208   1.015072
  189        5.289751   1.094154
  190        5.372375   0.589112
  191        5.417140   0.153254
  192        5.543722  -0.036299
  193        6.869103   0.000000
  194        6.941369   0.000000
  195        7.032203   0.000000
  196        7.710644   0.000000
  197        7.745813   0.000000
  198        7.914398   0.000000
  199        8.493417   0.000000
  200        8.634033   0.000000
  201        8.871242   0.000000
  202        8.946884   0.000000
  203        9.090889   0.000000
  204        9.482047   0.000000
  205        9.558670   0.000000
  206        9.660542   0.000000
  207        9.698953   0.000000
  208        9.869637   0.000000
  209        9.929874   0.000000
  210        9.953268   0.000000
  211       10.021718   0.000000
  212       10.242899   0.000000
  213       10.308957   0.000000
  214       10.344161   0.000000
  215       10.428860   0.000000
  216       10.447550   0.000000
  217       10.597652   0.000000
  218       10.605993   0.000000
  219       10.661854   0.000000
  220       10.764970   0.000000
  221       10.961149   0.000000
  222       10.989256   0.000000
  223       10.997111   0.000000
  224       11.085857   0.000000
  225       11.371480   0.000000
  226       11.416866   0.000000
  227       11.473862   0.000000
  228       11.490743   0.000000
  229       11.546750   0.000000
  230       11.602778   0.000000
  231       11.726175   0.000000
  232       11.781560   0.000000
  233       11.889869   0.000000
  234       11.897701   0.000000
  235       11.966603   0.000000
  236       11.987624   0.000000
  237       12.054406   0.000000
  238       12.081887   0.000000
  239       12.204642   0.000000
  240       12.316559   0.000000
  241       12.335284   0.000000
  242       12.360000   0.000000
  243       12.441063   0.000000
  244       12.485301   0.000000
  245       12.523638   0.000000
  246       12.724790   0.000000
  247       12.763251   0.000000
  248       13.018380   0.000000
  249       13.170502   0.000000
  250       13.287201   0.000000
  251       13.387069   0.000000
  252       13.492856   0.000000
  253       13.527964   0.000000
  254       13.583506   0.000000
  255       13.700887   0.000000
  256       13.790082   0.000000
 
 -0.1666667E+00  0.3333333E+00  0.1666667E+00  0.9259259E-02
    1      -11.468582   1.000000
    2      -11.329469   1.000000
    3      -11.214724   1.000000
    4       -9.898725   1.000000
    5       -9.792654   1.000000
    6       -9.756772   1.000000
    7       -9.634963   1.000000
    8       -9.407971   1.000000
    9       -9.332847   1.000000
   10       -9.305326   1.000000
   11       -9.201434   1.000000
   12       -8.620456   1.000000
   13       -8.562682   1.000000
   14       -8.529543   1.000000
   15       -8.373973   1.000000
   16       -8.209713   1.000000
   17       -8.108842   1.000000
   18       -7.997727   1.000000
   19       -7.786172   1.000000
   20       -7.708877   1.000000
   21       -7.488634   1.000000
   22       -7.319102   1.000000
   23       -7.311820   1.000000
   24       -7.123620   1.000000
   25       -6.167816   1.000000
   26       -6.121294   1.000000
   27       -6.097916   1.000000
   28       -5.975290   1.000000
   29       -5.825302   1.000000
   30       -5.766015   1.000000
   31       -5.591740   1.000000
   32       -5.487948   1.000000
   33       -5.410765   1.000000
   34       -5.257015   1.000000
   35       -5.138635   1.000000
   36       -4.974422   1.000000
   37       -4.961514   1.000000
   38       -4.909313   1.000000
   39       -4.730017   1.000000
   40       -4.663962   1.000000
   41       -4.494084   1.000000
   42       -4.398970   1.000000
   43       -4.298511   1.000000
   44       -4.062491   1.000000
   45       -4.020122   1.000000
   46       -3.982078   1.000000
   47       -3.889766   1.000000
   48       -3.759218   1.000000
   49       -3.159271   1.000000
   50       -3.079289   1.000000
   51       -2.892732   1.000000
   52       -2.789938   1.000000
   53       -2.706197   1.000000
   54       -2.667097   1.000000
   55       -2.544318   1.000000
   56       -2.391867   1.000000
   57       -2.372226   1.000000
   58       -2.336307   1.000000
   59       -2.315981   1.000000
   60       -2.265844   1.000000
   61       -2.219181   1.000000
   62       -2.188538   1.000000
   63       -2.106644   1.000000
   64       -2.043650   1.000000
   65       -1.957740   1.000000
   66       -1.902067   1.000000
   67       -1.809990   1.000000
   68       -1.737284   1.000000
   69       -1.635325   1.000000
   70       -1.510248   1.000000
   71       -1.450728   1.000000
   72       -1.415098   1.000000
   73       -1.309494   1.000000
   74       -1.270824   1.000000
   75       -1.206106   1.000000
   76       -1.143916   1.000000
   77       -1.088896   1.000000
   78       -1.042652   1.000000
   79       -0.939088   1.000000
   80       -0.911272   1.000000
   81       -0.877085   1.000000
   82       -0.743527   1.000000
   83       -0.695340   1.000000
   84       -0.516495   1.000000
   85       -0.467770   1.000000
   86       -0.360946   1.000000
   87       -0.347282   1.000000
   88       -0.233837   1.000000
   89       -0.129342   1.000000
   90       -0.024621   1.000000
   91        0.046607   1.000000
   92        0.126433   1.000000
   93        0.155856   1.000000
   94        0.241377   1.000000
   95        0.308364   1.000000
   96        0.349754   1.000000
   97        0.405129   1.000000
   98        0.451408   1.000000
   99        0.543999   1.000000
  100        0.599957   1.000000
  101        0.718216   1.000000
  102        0.720936   1.000000
  103        0.786327   1.000000
  104        0.864474   1.000000
  105        0.933620   1.000000
  106        0.970128   1.000000
  107        1.134221   1.000000
  108        1.164547   1.000000
  109        1.209858   1.000000
  110        1.277150   1.000000
  111        1.325477   1.000000
  112        1.400664   1.000000
  113        1.427063   1.000000
  114        1.512361   1.000000
  115        1.546154   1.000000
  116        1.604647   1.000000
  117        1.627433   1.000000
  118        1.736023   1.000000
  119        1.784521   1.000000
  120        1.880519   1.000000
  121        1.979264   1.000000
  122        2.013653   1.000000
  123        2.102883   1.000000
  124        2.136604   1.000000
  125        2.176005   1.000000
  126        2.209771   1.000000
  127        2.274546   1.000000
  128        2.333596   1.000000
  129        2.389752   1.000000
  130        2.409054   1.000000
  131        2.463454   1.000000
  132        2.515497   1.000000
  133        2.539513   1.000000
  134        2.570292   1.000000
  135        2.596013   1.000000
  136        2.653481   1.000000
  137        2.708143   1.000000
  138        2.738978   1.000000
  139        2.795119   1.000000
  140        2.839392   1.000000
  141        2.877018   1.000000
  142        2.888373   1.000000
  143        2.993345   1.000000
  144        3.022181   1.000000
  145        3.082110   1.000000
  146        3.107870   1.000000
  147        3.163460   1.000000
  148        3.181870   1.000000
  149        3.290533   1.000000
  150        3.295843   1.000000
  151        3.342178   1.000000
  152        3.372678   1.000000
  153        3.426001   1.000000
  154        3.522716   1.000000
  155        3.570853   1.000000
  156        3.582471   1.000000
  157        3.623313   1.000000
  158        3.652158   1.000000
  159        3.713701   1.000000
  160        3.736170   1.000000
  161        3.797627   1.000000
  162        3.844580   1.000000
  163        3.855637   1.000000
  164        3.954298   1.000000
  165        3.996912   1.000000
  166        4.068988   1.000000
  167        4.117149   1.000000
  168        4.145175   1.000000
  169        4.219772   1.000000
  170        4.259459   1.000000
  171        4.299778   1.000000
  172        4.342254   1.000000
  173        4.385140   1.000000
  174        4.546949   1.000000
  175        4.590804   1.000000
  176        4.649403   1.000000
  177        4.705434   1.000000
  178        4.834672   1.000000
  179        4.857431   1.000000
  180        4.936280   1.000000
  181        4.953147   1.000000
  182        5.090134   1.000000
  183        5.148605   1.000000
  184        5.197638   1.000000
  185        5.230607   1.000000
  186        5.260252   1.000000
  187        5.301327   1.000000
  188        5.326963   1.010942
  189        5.406993   0.311568
  190        5.442194  -0.014063
  191        5.539018  -0.033499
  192        5.573537   0.000000
  193        6.830783   0.000000
  194        6.925871   0.000000
  195        7.047503   0.000000
  196        7.666403   0.000000
  197        7.732056   0.000000
  198        7.879604   0.000000
  199        8.420206   0.000000
  200        8.655202   0.000000
  201        8.766905   0.000000
  202        8.963953   0.000000
  203        9.119895   0.000000
  204        9.425309   0.000000
  205        9.518276   0.000000
  206        9.596779   0.000000
  207        9.637618   0.000000
  208        9.677708   0.000000
  209        9.842765   0.000000
  210        9.975267   0.000000
  211        9.987009   0.000000
  212       10.088308   0.000000
  213       10.320196   0.000000
  214       10.358021   0.000000
  215       10.411141   0.000000
  216       10.461283   0.000000
  217       10.473596   0.000000
  218       10.537274   0.000000
  219       10.553134   0.000000
  220       10.663806   0.000000
  221       10.763581   0.000000
  222       10.809724   0.000000
  223       11.340432   0.000000
  224       11.370707   0.000000
  225       11.432937   0.000000
  226       11.447410   0.000000
  227       11.509591   0.000000
  228       11.557482   0.000000
  229       11.682889   0.000000
  230       11.733574   0.000000
  231       11.800411   0.000000
  232       11.830686   0.000000
  233       11.881700   0.000000
  234       11.925820   0.000000
  235       12.001606   0.000000
  236       12.071116   0.000000
  237       12.096731   0.000000
  238       12.253212   0.000000
  239       12.277588   0.000000
  240       12.321935   0.000000
  241       12.390026   0.000000
  242       12.494436   0.000000
  243       12.527894   0.000000
  244       12.644869   0.000000
  245       12.673611   0.000000
  246       12.864951   0.000000
  247       12.899905   0.000000
  248       13.052205   0.000000
  249       13.149584   0.000000
  250       13.344443   0.000000
  251       13.419447   0.000000
  252       13.438973   0.000000
  253       13.467628   0.000000
  254       13.473318   0.000000
  255       13.653039   0.000000
  256       13.769854   0.000000
 
  0.0000000E+00  0.5000000E+00  0.1666667E+00  0.9259259E-02
    1      -11.475541   1.000000
    2      -11.333843   1.000000
    3      -11.197366   1.000000
    4       -9.901254   1.000000
    5       -9.816259   1.000000
    6       -9.743010   1.000000
    7       -9.619410   1.000000
    8       -9.448834   1.000000
    9       -9.351671   1.000000
   10       -9.273473   1.000000
   11       -9.239612   1.000000
   12       -8.614857   1.000000
   13       -8.520185   1.000000
   14       -8.443651   1.000000
   15       -8.314795   1.000000
   16       -8.184115   1.000000
   17       -8.142993   1.000000
   18       -8.023817   1.000000
   19       -7.859315   1.000000
   20       -7.694692   1.000000
   21       -7.510290   1.000000
   22       -7.442372   1.000000
   23       -7.271392   1.000000
   24       -7.107497   1.000000
   25       -6.175913   1.000000
   26       -6.051624   1.000000
   27       -5.999390   1.000000
   28       -5.985924   1.000000
   29       -5.944791   1.000000
   30       -5.907669   1.000000
   31       -5.516187   1.000000
   32       -5.434784   1.000000
   33       -5.397992   1.000000
   34       -5.230695   1.000000
   35       -5.119699   1.000000
   36       -5.049246   1.000000
   37       -4.972802   1.000000
   38       -4.881230   1.000000
   39       -4.728542   1.000000
   40       -4.704879   1.000000
   41       -4.446251   1.000000
   42       -4.300624   1.000000
   43       -4.192247   1.000000
   44       -4.140091   1.000000
   45       -4.058245   1.000000
   46       -3.927306   1.000000
   47       -3.864299   1.000000
   48       -3.855431   1.000000
   49       -3.111879   1.000000
   50       -3.082167   1.000000
   51       -2.923317   1.000000
   52       -2.708029   1.000000
   53       -2.683254   1.000000
   54       -2.567530   1.000000
   55       -2.540006   1.000000
   56       -2.529386   1.000000
   57       -2.457401   1.000000
   58       -2.380898   1.000000
   59       -2.360610   1.000000
   60       -2.275527   1.000000
   61       -2.224557   1.000000
   62       -2.143939   1.000000
   63       -2.100831   1.000000
   64       -2.063969   1.000000
   65       -1.934577   1.000000
   66       -1.881577   1.000000
   67       -1.820613   1.000000
   68       -1.704134   1.000000
   69       -1.651467   1.000000
   70       -1.606098   1.000000
   71       -1.499262   1.000000
   72       -1.434315   1.000000
   73       -1.360105   1.000000
   74       -1.314406   1.000000
   75       -1.235536   1.000000
   76       -1.123121   1.000000
   77       -1.081973   1.000000
   78       -0.992828   1.000000
   79       -0.906630   1.000000
   80       -0.831608   1.000000
   81       -0.739114   1.000000
   82       -0.700034   1.000000
   83       -0.675770   1.000000
   84       -0.579557   1.000000
   85       -0.509290   1.000000
   86       -0.485157   1.000000
   87       -0.315039   1.000000
   88       -0.259668   1.000000
   89       -0.074250   1.000000
   90       -0.021395   1.000000
   91        0.135198   1.000000
   92        0.186450   1.000000
   93        0.187979   1.000000
   94        0.234058   1.000000
   95        0.249438   1.000000
   96        0.306383   1.000000
   97        0.383538   1.000000
   98        0.464242   1.000000
   99        0.535803   1.000000
  100        0.618788   1.000000
  101        0.652606   1.000000
  102        0.700982   1.000000
  103        0.776066   1.000000
  104        0.823060   1.000000
  105        0.911642   1.000000
  106        0.962282   1.000000
  107        0.977475   1.000000
  108        1.076957   1.000000
  109        1.146401   1.000000
  110        1.204887   1.000000
  111        1.335336   1.000000
  112        1.342442   1.000000
  113        1.414314   1.000000
  114        1.449143   1.000000
  115        1.537483   1.000000
  116        1.589150   1.000000
  117        1.638253   1.000000
  118        1.724446   1.000000
  119        1.831373   1.000000
  120        2.020206   1.000000
  121        2.099482   1.000000
  122        2.135176   1.000000
  123        2.153531   1.000000
  124        2.215307   1.000000
  125        2.296831   1.000000
  126        2.315057   1.000000
  127        2.357869   1.000000
  128        2.395944   1.000000
  129        2.421288   1.000000
  130        2.434175   1.000000
  131        2.449108   1.000000
  132        2.580864   1.000000
  133        2.587603   1.000000
  134        2.613841   1.000000
  135        2.656841   1.000000
  136        2.674555   1.000000
  137        2.688502   1.000000
  138        2.716097   1.000000
  139        2.749680   1.000000
  140        2.877518   1.000000
  141        2.919030   1.000000
  142        2.970022   1.000000
  143        3.029150   1.000000
  144        3.101500   1.000000
  145        3.119968   1.000000
  146        3.137845   1.000000
  147        3.169146   1.000000
  148        3.257398   1.000000
  149        3.303466   1.000000
  150        3.326960   1.000000
  151        3.357325   1.000000
  152        3.378229   1.000000
  153        3.408017   1.000000
  154        3.415573   1.000000
  155        3.446619   1.000000
  156        3.482105   1.000000
  157        3.532576   1.000000
  158        3.582375   1.000000
  159        3.629427   1.000000
  160        3.732016   1.000000
  161        3.778690   1.000000
  162        3.887304   1.000000
  163        3.929874   1.000000
  164        3.939314   1.000000
  165        3.962080   1.000000
  166        3.982489   1.000000
  167        4.030075   1.000000
  168        4.042605   1.000000
  169        4.108790   1.000000
  170        4.143507   1.000000
  171        4.256510   1.000000
  172        4.306358   1.000000
  173        4.433097   1.000000
  174        4.481592   1.000000
  175        4.563729   1.000000
  176        4.654993   1.000000
  177        4.736062   1.000000
  178        4.771174   1.000000
  179        4.849726   1.000000
  180        4.922305   1.000000
  181        4.968956   1.000000
  182        5.008039   1.000000
  183        5.121237   1.000000
  184        5.135326   1.000000
  185        5.187055   1.000000
  186        5.247539   1.000000
  187        5.340643   1.006391
  188        5.402015   0.471952
  189        5.487500  -0.095998
  190        5.546638  -0.000034
  191        5.619683   0.000000
  192        5.634677   0.000000
  193        6.831825   0.000000
  194        6.955781   0.000000
  195        7.058106   0.000000
  196        7.692941   0.000000
  197        7.778367   0.000000
  198        7.843474   0.000000
  199        8.554752   0.000000
  200        8.608825   0.000000
  201        8.711988   0.000000
  202        8.981210   0.000000
  203        9.129455   0.000000
  204        9.308398   0.000000
  205        9.483432   0.000000
  206        9.520405   0.000000
  207        9.595564   0.000000
  208        9.673707   0.000000
  209        9.939494   0.000000
  210       10.001991   0.000000
  211       10.099638   0.000000
  212       10.149156   0.000000
  213       10.202417   0.000000
  214       10.245222   0.000000
  215       10.310723   0.000000
  216       10.352995   0.000000
  217       10.405469   0.000000
  218       10.547274   0.000000
  219       10.606135   0.000000
  220       10.680561   0.000000
  221       10.822571   0.000000
  222       10.858461   0.000000
  223       10.994245   0.000000
  224       11.024895   0.000000
  225       11.394838   0.000000
  226       11.455253   0.000000
  227       11.526835   0.000000
  228       11.627234   0.000000
  229       11.700482   0.000000
  230       11.776084   0.000000
  231       11.838295   0.000000
  232       11.895288   0.000000
  233       11.974087   0.000000
  234       12.109529   0.000000
  235       12.144813   0.000000
  236       12.153460   0.000000
  237       12.205009   0.000000
  238       12.303735   0.000000
  239       12.357435   0.000000
  240       12.416115   0.000000
  241       12.531761   0.000000
  242       12.553749   0.000000
  243       12.589714   0.000000
  244       12.713957   0.000000
  245       12.781224   0.000000
  246       12.857994   0.000000
  247       12.886703   0.000000
  248       12.994432   0.000000
  249       13.039415   0.000000
  250       13.289891   0.000000
  251       13.385784   0.000000
  252       13.549581   0.000000
  253       13.586882   0.000000
  254       13.658545   0.000000
  255       13.677878   0.000000
  256       13.835573   0.000000
 
  0.1666667E+00  0.5000000E+00  0.1666667E+00  0.9259259E-02
    1      -11.468439   1.000000
    2      -11.331376   1.000000
    3      -11.213325   1.000000
    4       -9.921813   1.000000
    5       -9.790832   1.000000
    6       -9.714446   1.000000
    7       -9.571942   1.000000
    8       -9.460910   1.000000
    9       -9.353099   1.000000
   10       -9.328046   1.000000
   11       -9.208917   1.000000
   12       -8.674880   1.000000
   13       -8.529792   1.000000
   14       -8.491478   1.000000
   15       -8.425576   1.000000
   16       -8.175341   1.000000
   17       -8.094515   1.000000
   18       -7.975881   1.000000
   19       -7.823565   1.000000
   20       -7.634320   1.000000
   21       -7.563730   1.000000
   22       -7.371544   1.000000
   23       -7.255831   1.000000
   24       -7.056250   1.000000
   25       -6.169927   1.000000
   26       -6.099118   1.000000
   27       -6.054857   1.000000
   28       -5.984935   1.000000
   29       -5.921734   1.000000
   30       -5.837504   1.000000
   31       -5.500938   1.000000
   32       -5.466678   1.000000
   33       -5.395590   1.000000
   34       -5.243910   1.000000
   35       -5.219434   1.000000
   36       -5.099834   1.000000
   37       -5.006066   1.000000
   38       -4.906903   1.000000
   39       -4.678437   1.000000
   40       -4.649096   1.000000
   41       -4.371833   1.000000
   42       -4.357616   1.000000
   43       -4.235543   1.000000
   44       -4.124744   1.000000
   45       -4.028922   1.000000
   46       -3.886537   1.000000
   47       -3.847254   1.000000
   48       -3.781449   1.000000
   49       -3.203885   1.000000
   50       -3.087254   1.000000
   51       -2.994402   1.000000
   52       -2.875120   1.000000
   53       -2.748778   1.000000
   54       -2.705742   1.000000
   55       -2.651224   1.000000
   56       -2.566414   1.000000
   57       -2.499460   1.000000
   58       -2.458348   1.000000
   59       -2.396482   1.000000
   60       -2.345777   1.000000
   61       -2.176935   1.000000
   62       -2.145776   1.000000
   63       -2.086697   1.000000
   64       -2.023290   1.000000
   65       -1.922835   1.000000
   66       -1.787736   1.000000
   67       -1.759882   1.000000
   68       -1.712430   1.000000
   69       -1.648156   1.000000
   70       -1.627399   1.000000
   71       -1.457596   1.000000
   72       -1.345199   1.000000
   73       -1.207084   1.000000
   74       -1.114462   1.000000
   75       -1.066463   1.000000
   76       -0.986497   1.000000
   77       -0.875113   1.000000
   78       -0.841909   1.000000
   79       -0.833070   1.000000
   80       -0.674592   1.000000
   81       -0.616439   1.000000
   82       -0.578753   1.000000
   83       -0.510240   1.000000
   84       -0.453511   1.000000
   85       -0.347768   1.000000
   86       -0.278157   1.000000
   87       -0.160767   1.000000
   88       -0.126775   1.000000
   89       -0.102074   1.000000
   90       -0.064458   1.000000
   91       -0.038781   1.000000
   92        0.018000   1.000000
   93        0.036091   1.000000
   94        0.125522   1.000000
   95        0.142910   1.000000
   96        0.194466   1.000000
   97        0.271057   1.000000
   98        0.321337   1.000000
   99        0.382772   1.000000
  100        0.497620   1.000000
  101        0.570293   1.000000
  102        0.579910   1.000000
  103        0.616831   1.000000
  104        0.711066   1.000000
  105        0.780082   1.000000
  106        0.816041   1.000000
  107        0.928936   1.000000
  108        1.015132   1.000000
  109        1.047943   1.000000
  110        1.113125   1.000000
  111        1.190253   1.000000
  112        1.283427   1.000000
  113        1.312615   1.000000
  114        1.358836   1.000000
  115        1.519158   1.000000
  116        1.594565   1.000000
  117        1.636829   1.000000
  118        1.726149   1.000000
  119        1.801985   1.000000
  120        1.890168   1.000000
  121        1.948107   1.000000
  122        2.028415   1.000000
  123        2.071486   1.000000
  124        2.143912   1.000000
  125        2.192508   1.000000
  126        2.226973   1.000000
  127        2.317577   1.000000
  128        2.367783   1.000000
  129        2.400612   1.000000
  130        2.527223   1.000000
  131        2.550770   1.000000
  132        2.613077   1.000000
  133        2.635965   1.000000
  134        2.671403   1.000000
  135        2.694749   1.000000
  136        2.720805   1.000000
  137        2.797465   1.000000
  138        2.833602   1.000000
  139        2.872639   1.000000
  140        2.950307   1.000000
  141        2.990129   1.000000
  142        3.035746   1.000000
  143        3.113658   1.000000
  144        3.183276   1.000000
  145        3.209009   1.000000
  146        3.223621   1.000000
  147        3.230518   1.000000
  148        3.273470   1.000000
  149        3.286454   1.000000
  150        3.292424   1.000000
  151        3.330288   1.000000
  152        3.374395   1.000000
  153        3.443908   1.000000
  154        3.512705   1.000000
  155        3.615123   1.000000
  156        3.641307   1.000000
  157        3.650272   1.000000
  158        3.674749   1.000000
  159        3.687529   1.000000
  160        3.750025   1.000000
  161        3.781641   1.000000
  162        3.886287   1.000000
  163        3.928844   1.000000
  164        3.972612   1.000000
  165        3.988748   1.000000
  166        3.997160   1.000000
  167        4.023351   1.000000
  168        4.072353   1.000000
  169        4.154624   1.000000
  170        4.273158   1.000000
  171        4.346285   1.000000
  172        4.393134   1.000000
  173        4.409899   1.000000
  174        4.489186   1.000000
  175        4.547597   1.000000
  176        4.636746   1.000000
  177        4.740522   1.000000
  178        4.792846   1.000000
  179        4.845698   1.000000
  180        4.890653   1.000000
  181        4.907331   1.000000
  182        4.998358   1.000000
  183        5.034203   1.000000
  184        5.084644   1.000000
  185        5.117167   1.000000
  186        5.145441   1.000000
  187        5.255162   1.029948
  188        5.337391   0.902303
  189        5.515500   0.000144
  190        5.550976  -0.068520
  191        5.592087  -0.013990
  192        5.598617   0.000000
  193        6.832582   0.000000
  194        6.952005   0.000000
  195        7.026978   0.000000
  196        7.624782   0.000000
  197        7.738154   0.000000
  198        7.780643   0.000000
  199        8.597040   0.000000
  200        8.658149   0.000000
  201        8.734767   0.000000
  202        8.981328   0.000000
  203        9.024538   0.000000
  204        9.271813   0.000000
  205        9.451709   0.000000
  206        9.583154   0.000000
  207        9.606756   0.000000
  208        9.751290   0.000000
  209        9.901083   0.000000
  210        9.955374   0.000000
  211       10.021935   0.000000
  212       10.107335   0.000000
  213       10.121496   0.000000
  214       10.260479   0.000000
  215       10.412230   0.000000
  216       10.444334   0.000000
  217       10.561282   0.000000
  218       10.639435   0.000000
  219       10.647266   0.000000
  220       10.751119   0.000000
  221       10.809123   0.000000
  222       11.001469   0.000000
  223       11.074995   0.000000
  224       11.109320   0.000000
  225       11.210082   0.000000
  226       11.415854   0.000000
  227       11.593597   0.000000
  228       11.677281   0.000000
  229       11.714628   0.000000
  230       11.727717   0.000000
  231       11.780613   0.000000
  232       11.840760   0.000000
  233       11.950261   0.000000
  234       12.060402   0.000000
  235       12.080839   0.000000
  236       12.102477   0.000000
  237       12.177202   0.000000
  238       12.236611   0.000000
  239       12.291645   0.000000
  240       12.346836   0.000000
  241       12.373845   0.000000
  242       12.453360   0.000000
  243       12.559682   0.000000
  244       12.718472   0.000000
  245       12.742033   0.000000
  246       12.776893   0.000000
  247       12.847019   0.000000
  248       12.937384   0.000000
  249       13.063755   0.000000
  250       13.277065   0.000000
  251       13.368112   0.000000
  252       13.436278   0.000000
  253       13.481478   0.000000
  254       13.626532   0.000000
  255       13.709375   0.000000
  256       13.711581   0.000000
 
  0.3333333E+00  0.5000000E+00  0.1666667E+00  0.9259259E-02
    1      -11.439831   1.000000
    2      -11.338016   1.000000
    3      -11.245658   1.000000
    4       -9.937678   1.000000
    5       -9.841832   1.000000
    6       -9.587393   1.000000
    7       -9.536543   1.000000
    8       -9.464179   1.000000
    9       -9.395559   1.000000
   10       -9.318491   1.000000
   11       -9.163858   1.000000
   12       -8.812813   1.000000
   13       -8.653269   1.000000
   14       -8.464868   1.000000
   15       -8.399022   1.000000
   16       -8.195907   1.000000
   17       -8.108635   1.000000
   18       -7.883385   1.000000
   19       -7.763353   1.000000
   20       -7.610797   1.000000
   21       -7.542134   1.000000
   22       -7.384967   1.000000
   23       -7.195981   1.000000
   24       -7.053560   1.000000
   25       -6.174131   1.000000
   26       -6.166355   1.000000
   27       -6.081986   1.000000
   28       -5.991555   1.000000
   29       -5.867651   1.000000
   30       -5.786821   1.000000
   31       -5.502053   1.000000
   32       -5.444475   1.000000
   33       -5.425411   1.000000
   34       -5.329153   1.000000
   35       -5.176437   1.000000
   36       -5.096405   1.000000
   37       -5.009398   1.000000
   38       -4.960326   1.000000
   39       -4.847637   1.000000
   40       -4.697471   1.000000
   41       -4.358068   1.000000
   42       -4.305189   1.000000
   43       -4.301821   1.000000
   44       -4.123762   1.000000
   45       -4.026534   1.000000
   46       -3.917505   1.000000
   47       -3.798770   1.000000
   48       -3.745916   1.000000
   49       -3.243573   1.000000
   50       -3.076000   1.000000
   51       -2.963696   1.000000
   52       -2.926018   1.000000
   53       -2.771533   1.000000
   54       -2.744425   1.000000
   55       -2.654543   1.000000
   56       -2.639648   1.000000
   57       -2.533691   1.000000
   58       -2.445835   1.000000
   59       -2.383729   1.000000
   60       -2.283772   1.000000
   61       -2.119371   1.000000
   62       -2.065188   1.000000
   63       -2.003828   1.000000
   64       -1.820750   1.000000
   65       -1.722575   1.000000
   66       -1.676080   1.000000
   67       -1.598103   1.000000
   68       -1.574284   1.000000
   69       -1.546414   1.000000
   70       -1.475058   1.000000
   71       -1.444165   1.000000
   72       -1.336509   1.000000
   73       -1.236951   1.000000
   74       -1.211574   1.000000
   75       -1.165225   1.000000
   76       -1.074841   1.000000
   77       -0.912042   1.000000
   78       -0.889979   1.000000
   79       -0.765846   1.000000
   80       -0.676224   1.000000
   81       -0.667145   1.000000
   82       -0.547344   1.000000
   83       -0.495215   1.000000
   84       -0.482651   1.000000
   85       -0.383864   1.000000
   86       -0.344092   1.000000
   87       -0.322781   1.000000
   88       -0.270769   1.000000
   89       -0.213268   1.000000
   90       -0.179281   1.000000
   91       -0.149088   1.000000
   92       -0.010369   1.000000
   93        0.057161   1.000000
   94        0.123999   1.000000
   95        0.143495   1.000000
   96        0.185940   1.000000
   97        0.283799   1.000000
   98        0.371574   1.000000
   99        0.450405   1.000000
  100        0.480923   1.000000
  101        0.483632   1.000000
  102        0.607014   1.000000
  103        0.630503   1.000000
  104        0.726867   1.000000
  105        0.743014   1.000000
  106        0.808238   1.000000
  107        0.870257   1.000000
  108        0.934256   1.000000
  109        0.994974   1.000000
  110        1.097002   1.000000
  111        1.117590   1.000000
  112        1.203008   1.000000
  113        1.261592   1.000000
  114        1.295024   1.000000
  115        1.404153   1.000000
  116        1.480534   1.000000
  117        1.559819   1.000000
  118        1.727443   1.000000
  119        1.856448   1.000000
  120        1.880930   1.000000
  121        1.939557   1.000000
  122        2.003688   1.000000
  123        2.074651   1.000000
  124        2.114091   1.000000
  125        2.141267   1.000000
  126        2.231882   1.000000
  127        2.309100   1.000000
  128        2.346427   1.000000
  129        2.372778   1.000000
  130        2.547512   1.000000
  131        2.557945   1.000000
  132        2.587413   1.000000
  133        2.652983   1.000000
  134        2.703956   1.000000
  135        2.757177   1.000000
  136        2.787027   1.000000
  137        2.833693   1.000000
  138        2.967894   1.000000
  139        3.017195   1.000000
  140        3.027591   1.000000
  141        3.062089   1.000000
  142        3.071724   1.000000
  143        3.110328   1.000000
  144        3.147111   1.000000
  145        3.184272   1.000000
  146        3.225580   1.000000
  147        3.237787   1.000000
  148        3.268029   1.000000
  149        3.341679   1.000000
  150        3.377759   1.000000
  151        3.435352   1.000000
  152        3.496907   1.000000
  153        3.532098   1.000000
  154        3.554133   1.000000
  155        3.627091   1.000000
  156        3.684098   1.000000
  157        3.709108   1.000000
  158        3.730721   1.000000
  159        3.754690   1.000000
  160        3.793897   1.000000
  161        3.861292   1.000000
  162        3.890656   1.000000
  163        3.925463   1.000000
  164        4.002482   1.000000
  165        4.073118   1.000000
  166        4.136795   1.000000
  167        4.163904   1.000000
  168        4.228761   1.000000
  169        4.273570   1.000000
  170        4.364130   1.000000
  171        4.392435   1.000000
  172        4.452155   1.000000
  173        4.460093   1.000000
  174        4.489126   1.000000
  175        4.538756   1.000000
  176        4.569780   1.000000
  177        4.579211   1.000000
  178        4.648543   1.000000
  179        4.724011   1.000000
  180        4.766409   1.000000
  181        4.835975   1.000000
  182        4.927220   1.000000
  183        4.991315   1.000000
  184        5.017169   1.000000
  185        5.067675   1.000000
  186        5.094610   1.000000
  187        5.122381   1.000000
  188        5.291066   1.022484
  189        5.391681   0.571236
  190        5.417348   0.260492
  191        5.482361  -0.011006
  192        5.556190  -0.034276
  193        6.858831   0.000000
  194        6.920934   0.000000
  195        7.033281   0.000000
  196        7.580796   0.000000
  197        7.682198   0.000000
  198        7.809319   0.000000
  199        8.650110   0.000000
  200        8.672561   0.000000
  201        8.867838   0.000000
  202        8.900428   0.000000
  203        9.082815   0.000000
  204        9.303864   0.000000
  205        9.470476   0.000000
  206        9.548520   0.000000
  207        9.775798   0.000000
  208        9.867678   0.000000
  209        9.923125   0.000000
  210        9.989782   0.000000
  211       10.100379   0.000000
  212       10.161603   0.000000
  213       10.220435   0.000000
  214       10.375495   0.000000
  215       10.468824   0.000000
  216       10.534155   0.000000
  217       10.574407   0.000000
  218       10.618567   0.000000
  219       10.696086   0.000000
  220       10.826413   0.000000
  221       10.914278   0.000000
  222       11.035788   0.000000
  223       11.071651   0.000000
  224       11.139020   0.000000
  225       11.244273   0.000000
  226       11.330246   0.000000
  227       11.402153   0.000000
  228       11.474150   0.000000
  229       11.575456   0.000000
  230       11.669973   0.000000
  231       11.707777   0.000000
  232       11.760684   0.000000
  233       11.843773   0.000000
  234       11.879546   0.000000
  235       11.970344   0.000000
  236       12.043912   0.000000
  237       12.170401   0.000000
  238       12.241041   0.000000
  239       12.256410   0.000000
  240       12.260958   0.000000
  241       12.314287   0.000000
  242       12.356352   0.000000
  243       12.388182   0.000000
  244       12.470896   0.000000
  245       12.539678   0.000000
  246       12.660801   0.000000
  247       12.756942   0.000000
  248       12.865993   0.000000
  249       13.219773   0.000000
  250       13.333360   0.000000
  251       13.373219   0.000000
  252       13.421327   0.000000
  253       13.577875   0.000000
  254       13.595164   0.000000
  255       13.675462   0.000000
  256       13.706269   0.000000
 
  0.5000000E+00  0.5000000E+00  0.1666667E+00  0.9259259E-02
    1      -11.402323   1.000000
    2      -11.366662   1.000000
    3      -11.258538   1.000000
    4       -9.933098   1.000000
    5       -9.889533   1.000000
    6       -9.585031   1.000000
    7       -9.489850   1.000000
    8       -9.427567   1.000000
    9       -9.391843   1.000000
   10       -9.302077   1.000000
   11       -9.198981   1.000000
   12       -8.837500   1.000000
   13       -8.706585   1.000000
   14       -8.421987   1.000000
   15       -8.344024   1.000000
   16       -8.223057   1.000000
   17       -8.121332   1.000000
   18       -7.866096   1.000000
   19       -7.715069   1.000000
   20       -7.644585   1.000000
   21       -7.558278   1.000000
   22       -7.386285   1.000000
   23       -7.169389   1.000000
   24       -7.102843   1.000000
   25       -6.185735   1.000000
   26       -6.136128   1.000000
   27       -6.111408   1.000000
   28       -5.888962   1.000000
   29       -5.858024   1.000000
   30       -5.770798   1.000000
   31       -5.648329   1.000000
   32       -5.525554   1.000000
   33       -5.365505   1.000000
   34       -5.250150   1.000000
   35       -5.200453   1.000000
   36       -5.102387   1.000000
   37       -4.999382   1.000000
   38       -4.959983   1.000000
   39       -4.903231   1.000000
   40       -4.712694   1.000000
   41       -4.459624   1.000000
   42       -4.344595   1.000000
   43       -4.313625   1.000000
   44       -4.164260   1.000000
   45       -4.027060   1.000000
   46       -3.902139   1.000000
   47       -3.787770   1.000000
   48       -3.745332   1.000000
   49       -3.212192   1.000000
   50       -3.095395   1.000000
   51       -2.910207   1.000000
   52       -2.797772   1.000000
   53       -2.698324   1.000000
   54       -2.647206   1.000000
   55       -2.603173   1.000000
   56       -2.581315   1.000000
   57       -2.509681   1.000000
   58       -2.384407   1.000000
   59       -2.238206   1.000000
   60       -2.142556   1.000000
   61       -2.041415   1.000000
   62       -1.961680   1.000000
   63       -1.875228   1.000000
   64       -1.839633   1.000000
   65       -1.784878   1.000000
   66       -1.697018   1.000000
   67       -1.617530   1.000000
   68       -1.542118   1.000000
   69       -1.513904   1.000000
   70       -1.464064   1.000000
   71       -1.444977   1.000000
   72       -1.343017   1.000000
   73       -1.316830   1.000000
   74       -1.169936   1.000000
   75       -1.137834   1.000000
   76       -1.075569   1.000000
   77       -1.009584   1.000000
   78       -0.995021   1.000000
   79       -0.970031   1.000000
   80       -0.898095   1.000000
   81       -0.875628   1.000000
   82       -0.822820   1.000000
   83       -0.669514   1.000000
   84       -0.613001   1.000000
   85       -0.585045   1.000000
   86       -0.540703   1.000000
   87       -0.392840   1.000000
   88       -0.312877   1.000000
   89       -0.244841   1.000000
   90       -0.235143   1.000000
   91       -0.160993   1.000000
   92       -0.043341   1.000000
   93       -0.009681   1.000000
   94        0.087166   1.000000
   95        0.129680   1.000000
   96        0.206102   1.000000
   97        0.286595   1.000000
   98        0.364480   1.000000
   99        0.409373   1.000000
  100        0.485179   1.000000
  101        0.672561   1.000000
  102        0.692618   1.000000
  103        0.728695   1.000000
  104        0.803230   1.000000
  105        0.903486   1.000000
  106        0.986424   1.000000
  107        1.048952   1.000000
  108        1.083332   1.000000
  109        1.121762   1.000000
  110        1.178815   1.000000
  111        1.251852   1.000000
  112        1.297807   1.000000
  113        1.306910   1.000000
  114        1.377894   1.000000
  115        1.431345   1.000000
  116        1.542736   1.000000
  117        1.636883   1.000000
  118        1.697812   1.000000
  119        1.738960   1.000000
  120        1.891156   1.000000
  121        1.921504   1.000000
  122        1.947820   1.000000
  123        1.966305   1.000000
  124        2.198896   1.000000
  125        2.231521   1.000000
  126        2.277311   1.000000
  127        2.398542   1.000000
  128        2.452606   1.000000
  129        2.515139   1.000000
  130        2.527183   1.000000
  131        2.557819   1.000000
  132        2.582614   1.000000
  133        2.634255   1.000000
  134        2.718210   1.000000
  135        2.724711   1.000000
  136        2.766797   1.000000
  137        2.799645   1.000000
  138        2.837064   1.000000
  139        2.913483   1.000000
  140        2.949143   1.000000
  141        3.001564   1.000000
  142        3.008984   1.000000
  143        3.076935   1.000000
  144        3.087374   1.000000
  145        3.155586   1.000000
  146        3.191716   1.000000
  147        3.242280   1.000000
  148        3.267212   1.000000
  149        3.294198   1.000000
  150        3.326957   1.000000
  151        3.403733   1.000000
  152        3.490675   1.000000
  153        3.544679   1.000000
  154        3.568484   1.000000
  155        3.649470   1.000000
  156        3.690415   1.000000
  157        3.743366   1.000000
  158        3.831264   1.000000
  159        3.849346   1.000000
  160        3.871231   1.000000
  161        3.931019   1.000000
  162        3.984302   1.000000
  163        4.018921   1.000000
  164        4.027582   1.000000
  165        4.075885   1.000000
  166        4.104896   1.000000
  167        4.150454   1.000000
  168        4.170034   1.000000
  169        4.226791   1.000000
  170        4.337421   1.000000
  171        4.375363   1.000000
  172        4.415435   1.000000
  173        4.458432   1.000000
  174        4.499263   1.000000
  175        4.545003   1.000000
  176        4.555073   1.000000
  177        4.610095   1.000000
  178        4.638958   1.000000
  179        4.668178   1.000000
  180        4.784269   1.000000
  181        4.883376   1.000000
  182        4.887223   1.000000
  183        4.917077   1.000000
  184        4.952065   1.000000
  185        4.982011   1.000000
  186        5.091256   1.000000
  187        5.117206   1.000000
  188        5.219639   1.000000
  189        5.280909   1.082665
  190        5.345524   0.801425
  191        5.390712   0.306962
  192        5.513225  -0.022250
  193        6.882441   0.000000
  194        6.911920   0.000000
  195        7.058574   0.000000
  196        7.619515   0.000000
  197        7.670322   0.000000
  198        7.863052   0.000000
  199        8.636851   0.000000
  200        8.681016   0.000000
  201        8.862797   0.000000
  202        9.017078   0.000000
  203        9.062625   0.000000
  204        9.407041   0.000000
  205        9.509954   0.000000
  206        9.542906   0.000000
  207        9.822580   0.000000
  208        9.927562   0.000000
  209        9.960111   0.000000
  210       10.136640   0.000000
  211       10.206517   0.000000
  212       10.346191   0.000000
  213       10.436206   0.000000
  214       10.474570   0.000000
  215       10.525766   0.000000
  216       10.543585   0.000000
  217       10.621389   0.000000
  218       10.641519   0.000000
  219       10.681307   0.000000
  220       10.799730   0.000000
  221       10.920523   0.000000
  222       10.967449   0.000000
  223       10.973854   0.000000
  224       11.003339   0.000000
  225       11.069044   0.000000
  226       11.212000   0.000000
  227       11.230198   0.000000
  228       11.368542   0.000000
  229       11.381172   0.000000
  230       11.481584   0.000000
  231       11.715793   0.000000
  232       11.757466   0.000000
  233       11.833165   0.000000
  234       11.920035   0.000000
  235       11.976833   0.000000
  236       12.099567   0.000000
  237       12.139943   0.000000
  238       12.174379   0.000000
  239       12.180282   0.000000
  240       12.225819   0.000000
  241       12.334579   0.000000
  242       12.345460   0.000000
  243       12.372559   0.000000
  244       12.398340   0.000000
  245       12.445458   0.000000
  246       12.452114   0.000000
  247       12.756827   0.000000
  248       12.854942   0.000000
  249       13.302378   0.000000
  250       13.378022   0.000000
  251       13.415239   0.000000
  252       13.427138   0.000000
  253       13.656221   0.000000
  254       13.659544   0.000000
  255       13.723819   0.000000
  256       13.783917   0.000000
 
 -0.3333333E+00  0.5000000E+00  0.1666667E+00  0.9259259E-02
    1      -11.427530   1.000000
    2      -11.347245   1.000000
    3      -11.247165   1.000000
    4       -9.930683   1.000000
    5       -9.886775   1.000000
    6       -9.607572   1.000000
    7       -9.556928   1.000000
    8       -9.482007   1.000000
    9       -9.321925   1.000000
   10       -9.291821   1.000000
   11       -9.186081   1.000000
   12       -8.800971   1.000000
   13       -8.632504   1.000000
   14       -8.406525   1.000000
   15       -8.316712   1.000000
   16       -8.224381   1.000000
   17       -8.108134   1.000000
   18       -7.858563   1.000000
   19       -7.772639   1.000000
   20       -7.689268   1.000000
   21       -7.608333   1.000000
   22       -7.390556   1.000000
   23       -7.219392   1.000000
   24       -7.122462   1.000000
   25       -6.206956   1.000000
   26       -6.070231   1.000000
   27       -6.027056   1.000000
   28       -5.987248   1.000000
   29       -5.827769   1.000000
   30       -5.733328   1.000000
   31       -5.718097   1.000000
   32       -5.622990   1.000000
   33       -5.338246   1.000000
   34       -5.229761   1.000000
   35       -5.128541   1.000000
   36       -5.070116   1.000000
   37       -4.957723   1.000000
   38       -4.871286   1.000000
   39       -4.803172   1.000000
   40       -4.709100   1.000000
   41       -4.540176   1.000000
   42       -4.429929   1.000000
   43       -4.366619   1.000000
   44       -4.181546   1.000000
   45       -4.116263   1.000000
   46       -3.873170   1.000000
   47       -3.818661   1.000000
   48       -3.794445   1.000000
   49       -3.120869   1.000000
   50       -2.956113   1.000000
   51       -2.784478   1.000000
   52       -2.749985   1.000000
   53       -2.565808   1.000000
   54       -2.544296   1.000000
   55       -2.484446   1.000000
   56       -2.430774   1.000000
   57       -2.381468   1.000000
   58       -2.329935   1.000000
   59       -2.230275   1.000000
   60       -2.133715   1.000000
   61       -2.080880   1.000000
   62       -2.026026   1.000000
   63       -1.901687   1.000000
   64       -1.876281   1.000000
   65       -1.839206   1.000000
   66       -1.789677   1.000000
   67       -1.703617   1.000000
   68       -1.654124   1.000000
   69       -1.613926   1.000000
   70       -1.576408   1.000000
   71       -1.509292   1.000000
   72       -1.451753   1.000000
   73       -1.381818   1.000000
   74       -1.356506   1.000000
   75       -1.317071   1.000000
   76       -1.288736   1.000000
   77       -1.123126   1.000000
   78       -1.064648   1.000000
   79       -0.993706   1.000000
   80       -0.924440   1.000000
   81       -0.898928   1.000000
   82       -0.841484   1.000000
   83       -0.809375   1.000000
   84       -0.666133   1.000000
   85       -0.571830   1.000000
   86       -0.528500   1.000000
   87       -0.432968   1.000000
   88       -0.363559   1.000000
   89       -0.314108   1.000000
   90       -0.265608   1.000000
   91       -0.215873   1.000000
   92       -0.062016   1.000000
   93       -0.050752   1.000000
   94        0.094705   1.000000
   95        0.156127   1.000000
   96        0.296619   1.000000
   97        0.390144   1.000000
   98        0.515438   1.000000
   99        0.551496   1.000000
  100        0.596283   1.000000
  101        0.728115   1.000000
  102        0.826477   1.000000
  103        0.908654   1.000000
  104        0.951807   1.000000
  105        1.010224   1.000000
  106        1.042919   1.000000
  107        1.117052   1.000000
  108        1.186518   1.000000
  109        1.281379   1.000000
  110        1.320230   1.000000
  111        1.380866   1.000000
  112        1.418091   1.000000
  113        1.462549   1.000000
  114        1.511096   1.000000
  115        1.556994   1.000000
  116        1.572927   1.000000
  117        1.609094   1.000000
  118        1.715726   1.000000
  119        1.796473   1.000000
  120        1.871274   1.000000
  121        1.916606   1.000000
  122        2.006038   1.000000
  123        2.174080   1.000000
  124        2.200871   1.000000
  125        2.210286   1.000000
  126        2.296201   1.000000
  127        2.339400   1.000000
  128        2.367350   1.000000
  129        2.400994   1.000000
  130        2.492628   1.000000
  131        2.497590   1.000000
  132        2.578189   1.000000
  133        2.612056   1.000000
  134        2.651843   1.000000
  135        2.678259   1.000000
  136        2.704594   1.000000
  137        2.758487   1.000000
  138        2.818972   1.000000
  139        2.893168   1.000000
  140        2.943130   1.000000
  141        2.977890   1.000000
  142        3.006449   1.000000
  143        3.059248   1.000000
  144        3.084488   1.000000
  145        3.169858   1.000000
  146        3.230967   1.000000
  147        3.266051   1.000000
  148        3.276728   1.000000
  149        3.330821   1.000000
  150        3.350755   1.000000
  151        3.368609   1.000000
  152        3.440993   1.000000
  153        3.450628   1.000000
  154        3.479634   1.000000
  155        3.491644   1.000000
  156        3.549513   1.000000
  157        3.606066   1.000000
  158        3.625062   1.000000
  159        3.705079   1.000000
  160        3.746324   1.000000
  161        3.777943   1.000000
  162        3.805013   1.000000
  163        3.926030   1.000000
  164        3.963971   1.000000
  165        4.022038   1.000000
  166        4.080598   1.000000
  167        4.094054   1.000000
  168        4.123728   1.000000
  169        4.210197   1.000000
  170        4.291685   1.000000
  171        4.384764   1.000000
  172        4.446277   1.000000
  173        4.456985   1.000000
  174        4.539659   1.000000
  175        4.567019   1.000000
  176        4.591739   1.000000
  177        4.629163   1.000000
  178        4.730104   1.000000
  179        4.765066   1.000000
  180        4.814033   1.000000
  181        4.868600   1.000000
  182        4.912236   1.000000
  183        4.989048   1.000000
  184        5.055909   1.000000
  185        5.098309   1.000000
  186        5.115987   1.000000
  187        5.167506   1.000000
  188        5.219399   1.000000
  189        5.294718   1.043584
  190        5.359711   0.688442
  191        5.412818   0.192195
  192        5.555727  -0.039331
  193        6.873721   0.000000
  194        6.953361   0.000000
  195        7.077361   0.000000
  196        7.671431   0.000000
  197        7.725348   0.000000
  198        7.904981   0.000000
  199        8.600882   0.000000
  200        8.647915   0.000000
  201        8.909675   0.000000
  202        8.926754   0.000000
  203        9.116041   0.000000
  204        9.533775   0.000000
  205        9.586046   0.000000
  206        9.655129   0.000000
  207        9.801647   0.000000
  208        9.831148   0.000000
  209        9.900548   0.000000
  210       10.065391   0.000000
  211       10.129973   0.000000
  212       10.211454   0.000000
  213       10.378204   0.000000
  214       10.395769   0.000000
  215       10.439928   0.000000
  216       10.504934   0.000000
  217       10.536896   0.000000
  218       10.587186   0.000000
  219       10.836314   0.000000
  220       10.878204   0.000000
  221       10.920839   0.000000
  222       10.940198   0.000000
  223       10.972297   0.000000
  224       11.015730   0.000000
  225       11.068762   0.000000
  226       11.169163   0.000000
  227       11.209145   0.000000
  228       11.343061   0.000000
  229       11.481492   0.000000
  230       11.571298   0.000000
  231       11.674281   0.000000
  232       11.799421   0.000000
  233       11.928000   0.000000
  234       11.975981   0.000000
  235       12.006676   0.000000
  236       12.087462   0.000000
  237       12.147880   0.000000
  238       12.178190   0.000000
  239       12.182693   0.000000
  240       12.211583   0.000000
  241       12.249060   0.000000
  242       12.417329   0.000000
  243       12.463766   0.000000
  244       12.515608   0.000000
  245       12.548841   0.000000
  246       12.614239   0.000000
  247       12.793534   0.000000
  248       12.804056   0.000000
  249       13.293632   0.000000
  250       13.342939   0.000000
  251       13.520940   0.000000
  252       13.581411   0.000000
  253       13.614423   0.000000
  254       13.804819   0.000000
  255       13.827777   0.000000
  256       13.841463   0.000000
 
 -0.1666667E+00  0.5000000E+00  0.1666667E+00  0.9259259E-02
    1      -11.460821   1.000000
    2      -11.335010   1.000000
    3      -11.215729   1.000000
    4       -9.916298   1.000000
    5       -9.857048   1.000000
    6       -9.681865   1.000000
    7       -9.591334   1.000000
    8       -9.521812   1.000000
    9       -9.317124   1.000000
   10       -9.245595   1.000000
   11       -9.212660   1.000000
   12       -8.706140   1.000000
   13       -8.526255   1.000000
   14       -8.427460   1.000000
   15       -8.322331   1.000000
   16       -8.226046   1.000000
   17       -8.007026   1.000000
   18       -7.974719   1.000000
   19       -7.899439   1.000000
   20       -7.673214   1.000000
   21       -7.608468   1.000000
   22       -7.397399   1.000000
   23       -7.260056   1.000000
   24       -7.143755   1.000000
   25       -6.146826   1.000000
   26       -6.116447   1.000000
   27       -6.020735   1.000000
   28       -5.970938   1.000000
   29       -5.917223   1.000000
   30       -5.846821   1.000000
   31       -5.609284   1.000000
   32       -5.487988   1.000000
   33       -5.363937   1.000000
   34       -5.219368   1.000000
   35       -5.041329   1.000000
   36       -5.007684   1.000000
   37       -4.924792   1.000000
   38       -4.876474   1.000000
   39       -4.783032   1.000000
   40       -4.732311   1.000000
   41       -4.546977   1.000000
   42       -4.427995   1.000000
   43       -4.304289   1.000000
   44       -4.137071   1.000000
   45       -4.042732   1.000000
   46       -3.959190   1.000000
   47       -3.876309   1.000000
   48       -3.838077   1.000000
   49       -3.058381   1.000000
   50       -2.969557   1.000000
   51       -2.820597   1.000000
   52       -2.618903   1.000000
   53       -2.560522   1.000000
   54       -2.526267   1.000000
   55       -2.443517   1.000000
   56       -2.421120   1.000000
   57       -2.373622   1.000000
   58       -2.328989   1.000000
   59       -2.271230   1.000000
   60       -2.248816   1.000000
   61       -2.178927   1.000000
   62       -2.132224   1.000000
   63       -2.008794   1.000000
   64       -1.948629   1.000000
   65       -1.824613   1.000000
   66       -1.801492   1.000000
   67       -1.781149   1.000000
   68       -1.754749   1.000000
   69       -1.725573   1.000000
   70       -1.658016   1.000000
   71       -1.502764   1.000000
   72       -1.459806   1.000000
   73       -1.416338   1.000000
   74       -1.341339   1.000000
   75       -1.273683   1.000000
   76       -1.268004   1.000000
   77       -1.198147   1.000000
   78       -1.136803   1.000000
   79       -1.039589   1.000000
   80       -0.985327   1.000000
   81       -0.965830   1.000000
   82       -0.900711   1.000000
   83       -0.831988   1.000000
   84       -0.753362   1.000000
   85       -0.654137   1.000000
   86       -0.636155   1.000000
   87       -0.295982   1.000000
   88       -0.261157   1.000000
   89       -0.108076   1.000000
   90       -0.095016   1.000000
   91        0.044545   1.000000
   92        0.099746   1.000000
   93        0.179578   1.000000
   94        0.216610   1.000000
   95        0.294610   1.000000
   96        0.331610   1.000000
   97        0.458455   1.000000
   98        0.496349   1.000000
   99        0.606170   1.000000
  100        0.652092   1.000000
  101        0.689917   1.000000
  102        0.761341   1.000000
  103        0.871221   1.000000
  104        0.960275   1.000000
  105        1.023133   1.000000
  106        1.106674   1.000000
  107        1.186196   1.000000
  108        1.209713   1.000000
  109        1.275006   1.000000
  110        1.318739   1.000000
  111        1.352083   1.000000
  112        1.424178   1.000000
  113        1.483985   1.000000
  114        1.527707   1.000000
  115        1.547029   1.000000
  116        1.596780   1.000000
  117        1.657761   1.000000
  118        1.756807   1.000000
  119        1.812478   1.000000
  120        1.916007   1.000000
  121        1.919146   1.000000
  122        1.934011   1.000000
  123        2.150850   1.000000
  124        2.189024   1.000000
  125        2.261225   1.000000
  126        2.287838   1.000000
  127        2.365306   1.000000
  128        2.436393   1.000000
  129        2.457997   1.000000
  130        2.499738   1.000000
  131        2.558123   1.000000
  132        2.598055   1.000000
  133        2.629276   1.000000
  134        2.646143   1.000000
  135        2.670389   1.000000
  136        2.743343   1.000000
  137        2.787660   1.000000
  138        2.804700   1.000000
  139        2.818671   1.000000
  140        2.849417   1.000000
  141        2.911468   1.000000
  142        2.956193   1.000000
  143        2.977513   1.000000
  144        3.029641   1.000000
  145        3.104406   1.000000
  146        3.118720   1.000000
  147        3.193897   1.000000
  148        3.215741   1.000000
  149        3.236185   1.000000
  150        3.311134   1.000000
  151        3.341440   1.000000
  152        3.360472   1.000000
  153        3.373991   1.000000
  154        3.391718   1.000000
  155        3.407598   1.000000
  156        3.478244   1.000000
  157        3.566030   1.000000
  158        3.661250   1.000000
  159        3.711582   1.000000
  160        3.734647   1.000000
  161        3.755975   1.000000
  162        3.777168   1.000000
  163        3.827840   1.000000
  164        3.901799   1.000000
  165        3.971650   1.000000
  166        3.996471   1.000000
  167        4.009531   1.000000
  168        4.080801   1.000000
  169        4.133378   1.000000
  170        4.197297   1.000000
  171        4.259048   1.000000
  172        4.354067   1.000000
  173        4.430781   1.000000
  174        4.480834   1.000000
  175        4.585802   1.000000
  176        4.627460   1.000000
  177        4.704691   1.000000
  178        4.759898   1.000000
  179        4.820927   1.000000
  180        4.891462   1.000000
  181        4.908203   1.000000
  182        4.935217   1.000000
  183        5.120974   1.000000
  184        5.163625   1.000000
  185        5.208203   1.000000
  186        5.228863   1.000000
  187        5.310931   1.000000
  188        5.339221   0.994214
  189        5.396193   0.447001
  190        5.420467   0.092259
  191        5.542561  -0.055915
  192        5.597220   0.000000
  193        6.855910   0.000000
  194        6.963806   0.000000
  195        7.078614   0.000000
  196        7.697730   0.000000
  197        7.790965   0.000000
  198        7.902829   0.000000
  199        8.546528   0.000000
  200        8.633442   0.000000
  201        8.788473   0.000000
  202        8.969652   0.000000
  203        9.142206   0.000000
  204        9.535712   0.000000
  205        9.569459   0.000000
  206        9.612852   0.000000
  207        9.663519   0.000000
  208        9.685008   0.000000
  209        9.964431   0.000000
  210       10.043082   0.000000
  211       10.060587   0.000000
  212       10.105200   0.000000
  213       10.212764   0.000000
  214       10.247664   0.000000
  215       10.272127   0.000000
  216       10.391810   0.000000
  217       10.472495   0.000000
  218       10.553542   0.000000
  219       10.716356   0.000000
  220       10.725626   0.000000
  221       10.770269   0.000000
  222       10.937002   0.000000
  223       10.980715   0.000000
  224       11.009845   0.000000
  225       11.345661   0.000000
  226       11.382611   0.000000
  227       11.510881   0.000000
  228       11.544993   0.000000
  229       11.655051   0.000000
  230       11.674929   0.000000
  231       11.777320   0.000000
  232       11.820388   0.000000
  233       11.892300   0.000000
  234       11.955044   0.000000
  235       12.072263   0.000000
  236       12.135647   0.000000
  237       12.204759   0.000000
  238       12.286876   0.000000
  239       12.321667   0.000000
  240       12.351949   0.000000
  241       12.360654   0.000000
  242       12.435707   0.000000
  243       12.592502   0.000000
  244       12.642635   0.000000
  245       12.741621   0.000000
  246       12.760065   0.000000
  247       12.817909   0.000000
  248       12.835750   0.000000
  249       13.200925   0.000000
  250       13.354525   0.000000
  251       13.594373   0.000000
  252       13.633044   0.000000
  253       13.669542   0.000000
  254       13.704008   0.000000
  255       13.802616   0.000000
  256       13.883300   0.000000
 
  0.0000000E+00 -0.3333333E+00  0.1666667E+00  0.9259259E-02
    1      -11.489452   1.000000
    2      -11.315105   1.000000
    3      -11.196512   1.000000
    4       -9.951999   1.000000
    5       -9.807417   1.000000
    6       -9.734729   1.000000
    7       -9.564053   1.000000
    8       -9.481312   1.000000
    9       -9.354381   1.000000
   10       -9.311135   1.000000
   11       -9.169978   1.000000
   12       -8.684752   1.000000
   13       -8.490909   1.000000
   14       -8.398620   1.000000
   15       -8.324695   1.000000
   16       -8.232192   1.000000
   17       -8.097122   1.000000
   18       -8.061633   1.000000
   19       -7.832733   1.000000
   20       -7.657239   1.000000
   21       -7.586675   1.000000
   22       -7.454390   1.000000
   23       -7.252243   1.000000
   24       -7.067547   1.000000
   25       -6.171966   1.000000
   26       -6.078591   1.000000
   27       -6.059882   1.000000
   28       -6.037384   1.000000
   29       -5.857512   1.000000
   30       -5.770540   1.000000
   31       -5.551157   1.000000
   32       -5.469440   1.000000
   33       -5.363295   1.000000
   34       -5.239835   1.000000
   35       -5.156323   1.000000
   36       -5.019993   1.000000
   37       -4.991300   1.000000
   38       -4.829743   1.000000
   39       -4.792085   1.000000
   40       -4.706494   1.000000
   41       -4.526792   1.000000
   42       -4.365992   1.000000
   43       -4.223503   1.000000
   44       -4.125181   1.000000
   45       -4.053866   1.000000
   46       -3.958497   1.000000
   47       -3.898862   1.000000
   48       -3.662087   1.000000
   49       -3.208036   1.000000
   50       -3.039994   1.000000
   51       -2.903327   1.000000
   52       -2.757316   1.000000
   53       -2.704269   1.000000
   54       -2.668785   1.000000
   55       -2.528655   1.000000
   56       -2.450034   1.000000
   57       -2.389319   1.000000
   58       -2.335344   1.000000
   59       -2.289366   1.000000
   60       -2.251406   1.000000
   61       -2.203515   1.000000
   62       -2.152776   1.000000
   63       -2.098924   1.000000
   64       -2.059666   1.000000
   65       -1.997165   1.000000
   66       -1.833342   1.000000
   67       -1.729274   1.000000
   68       -1.632822   1.000000
   69       -1.599006   1.000000
   70       -1.534687   1.000000
   71       -1.487833   1.000000
   72       -1.388251   1.000000
   73       -1.351219   1.000000
   74       -1.316768   1.000000
   75       -1.279432   1.000000
   76       -1.250135   1.000000
   77       -1.166638   1.000000
   78       -1.054951   1.000000
   79       -0.995648   1.000000
   80       -0.958604   1.000000
   81       -0.821832   1.000000
   82       -0.767082   1.000000
   83       -0.695889   1.000000
   84       -0.615539   1.000000
   85       -0.392864   1.000000
   86       -0.304195   1.000000
   87       -0.271430   1.000000
   88       -0.201785   1.000000
   89       -0.169091   1.000000
   90       -0.059816   1.000000
   91        0.057323   1.000000
   92        0.098652   1.000000
   93        0.210802   1.000000
   94        0.225562   1.000000
   95        0.256250   1.000000
   96        0.311682   1.000000
   97        0.409979   1.000000
   98        0.505795   1.000000
   99        0.556831   1.000000
  100        0.635248   1.000000
  101        0.676355   1.000000
  102        0.720890   1.000000
  103        0.821731   1.000000
  104        0.832536   1.000000
  105        0.881574   1.000000
  106        0.941610   1.000000
  107        0.989653   1.000000
  108        1.037797   1.000000
  109        1.185535   1.000000
  110        1.272759   1.000000
  111        1.305714   1.000000
  112        1.376049   1.000000
  113        1.401044   1.000000
  114        1.471334   1.000000
  115        1.529034   1.000000
  116        1.603631   1.000000
  117        1.639794   1.000000
  118        1.708495   1.000000
  119        1.816271   1.000000
  120        1.943083   1.000000
  121        1.997280   1.000000
  122        2.091433   1.000000
  123        2.136371   1.000000
  124        2.306728   1.000000
  125        2.327260   1.000000
  126        2.351765   1.000000
  127        2.377368   1.000000
  128        2.432278   1.000000
  129        2.463160   1.000000
  130        2.480594   1.000000
  131        2.521018   1.000000
  132        2.532193   1.000000
  133        2.559088   1.000000
  134        2.617519   1.000000
  135        2.670759   1.000000
  136        2.699444   1.000000
  137        2.764686   1.000000
  138        2.793297   1.000000
  139        2.825214   1.000000
  140        2.864093   1.000000
  141        2.940936   1.000000
  142        2.956214   1.000000
  143        2.972879   1.000000
  144        2.997871   1.000000
  145        3.026234   1.000000
  146        3.073303   1.000000
  147        3.127432   1.000000
  148        3.190740   1.000000
  149        3.229978   1.000000
  150        3.262784   1.000000
  151        3.287492   1.000000
  152        3.351409   1.000000
  153        3.382478   1.000000
  154        3.427665   1.000000
  155        3.457603   1.000000
  156        3.469146   1.000000
  157        3.563822   1.000000
  158        3.645614   1.000000
  159        3.666885   1.000000
  160        3.715877   1.000000
  161        3.764715   1.000000
  162        3.847191   1.000000
  163        3.860979   1.000000
  164        3.910366   1.000000
  165        3.918871   1.000000
  166        4.021493   1.000000
  167        4.060429   1.000000
  168        4.071661   1.000000
  169        4.179787   1.000000
  170        4.201644   1.000000
  171        4.240069   1.000000
  172        4.349857   1.000000
  173        4.411220   1.000000
  174        4.531556   1.000000
  175        4.608373   1.000000
  176        4.661788   1.000000
  177        4.773967   1.000000
  178        4.833032   1.000000
  179        4.850590   1.000000
  180        4.919200   1.000000
  181        4.974220   1.000000
  182        5.053299   1.000000
  183        5.074745   1.000000
  184        5.152537   1.000000
  185        5.186861   1.000000
  186        5.285953   1.000000
  187        5.369694   0.973453
  188        5.419044   0.206082
  189        5.480107  -0.124082
  190        5.498475  -0.003560
  191        5.618500   0.000000
  192        5.634950   0.000000
  193        6.786379   0.000000
  194        6.918889   0.000000
  195        7.054792   0.000000
  196        7.714432   0.000000
  197        7.841622   0.000000
  198        7.882793   0.000000
  199        8.412264   0.000000
  200        8.663849   0.000000
  201        8.805866   0.000000
  202        8.902167   0.000000
  203        9.174607   0.000000
  204        9.230534   0.000000
  205        9.401878   0.000000
  206        9.465182   0.000000
  207        9.676735   0.000000
  208        9.785558   0.000000
  209        9.813018   0.000000
  210        9.851026   0.000000
  211        9.955465   0.000000
  212       10.048828   0.000000
  213       10.244414   0.000000
  214       10.276679   0.000000
  215       10.403697   0.000000
  216       10.411061   0.000000
  217       10.508319   0.000000
  218       10.520015   0.000000
  219       10.554780   0.000000
  220       10.729105   0.000000
  221       10.778830   0.000000
  222       10.925799   0.000000
  223       11.020445   0.000000
  224       11.290925   0.000000
  225       11.409260   0.000000
  226       11.466748   0.000000
  227       11.516241   0.000000
  228       11.602696   0.000000
  229       11.675771   0.000000
  230       11.789711   0.000000
  231       11.867724   0.000000
  232       11.959531   0.000000
  233       11.984387   0.000000
  234       11.999496   0.000000
  235       12.084595   0.000000
  236       12.119008   0.000000
  237       12.166930   0.000000
  238       12.238506   0.000000
  239       12.341079   0.000000
  240       12.428483   0.000000
  241       12.446786   0.000000
  242       12.591432   0.000000
  243       12.656449   0.000000
  244       12.701561   0.000000
  245       12.746818   0.000000
  246       12.990631   0.000000
  247       13.011899   0.000000
  248       13.077998   0.000000
  249       13.172810   0.000000
  250       13.239401   0.000000
  251       13.321248   0.000000
  252       13.357139   0.000000
  253       13.376757   0.000000
  254       13.511339   0.000000
  255       13.626964   0.000000
  256       13.750793   0.000000
 
  0.1666667E+00 -0.3333333E+00  0.1666667E+00  0.9259259E-02
    1      -11.466196   1.000000
    2      -11.332010   1.000000
    3      -11.212567   1.000000
    4       -9.913231   1.000000
    5       -9.759036   1.000000
    6       -9.742308   1.000000
    7       -9.643420   1.000000
    8       -9.501879   1.000000
    9       -9.331154   1.000000
   10       -9.313419   1.000000
   11       -9.209286   1.000000
   12       -8.608308   1.000000
   13       -8.488862   1.000000
   14       -8.425412   1.000000
   15       -8.299657   1.000000
   16       -8.188351   1.000000
   17       -8.101385   1.000000
   18       -8.028505   1.000000
   19       -7.916888   1.000000
   20       -7.651490   1.000000
   21       -7.549973   1.000000
   22       -7.473880   1.000000
   23       -7.277564   1.000000
   24       -7.112290   1.000000
   25       -6.208533   1.000000
   26       -6.182519   1.000000
   27       -6.084819   1.000000
   28       -5.890920   1.000000
   29       -5.838045   1.000000
   30       -5.771082   1.000000
   31       -5.481903   1.000000
   32       -5.422829   1.000000
   33       -5.326940   1.000000
   34       -5.298371   1.000000
   35       -5.119148   1.000000
   36       -5.021343   1.000000
   37       -4.940372   1.000000
   38       -4.910644   1.000000
   39       -4.783327   1.000000
   40       -4.743698   1.000000
   41       -4.489134   1.000000
   42       -4.422309   1.000000
   43       -4.341768   1.000000
   44       -4.215701   1.000000
   45       -4.018087   1.000000
   46       -3.930971   1.000000
   47       -3.813410   1.000000
   48       -3.722473   1.000000
   49       -3.221144   1.000000
   50       -2.957196   1.000000
   51       -2.860301   1.000000
   52       -2.797672   1.000000
   53       -2.714115   1.000000
   54       -2.625957   1.000000
   55       -2.562880   1.000000
   56       -2.459716   1.000000
   57       -2.430057   1.000000
   58       -2.357742   1.000000
   59       -2.301512   1.000000
   60       -2.229529   1.000000
   61       -2.146432   1.000000
   62       -2.130854   1.000000
   63       -2.074137   1.000000
   64       -2.041148   1.000000
   65       -1.936197   1.000000
   66       -1.889611   1.000000
   67       -1.758801   1.000000
   68       -1.662042   1.000000
   69       -1.593547   1.000000
   70       -1.495810   1.000000
   71       -1.476785   1.000000
   72       -1.434555   1.000000
   73       -1.422364   1.000000
   74       -1.355200   1.000000
   75       -1.332845   1.000000
   76       -1.139220   1.000000
   77       -1.057486   1.000000
   78       -1.013077   1.000000
   79       -0.952328   1.000000
   80       -0.830193   1.000000
   81       -0.705771   1.000000
   82       -0.612684   1.000000
   83       -0.573603   1.000000
   84       -0.456791   1.000000
   85       -0.321414   1.000000
   86       -0.274384   1.000000
   87       -0.229875   1.000000
   88       -0.185831   1.000000
   89       -0.134268   1.000000
   90       -0.110766   1.000000
   91       -0.094792   1.000000
   92       -0.041440   1.000000
   93        0.030071   1.000000
   94        0.057557   1.000000
   95        0.128699   1.000000
   96        0.194259   1.000000
   97        0.276399   1.000000
   98        0.354740   1.000000
   99        0.490163   1.000000
  100        0.598150   1.000000
  101        0.625584   1.000000
  102        0.662518   1.000000
  103        0.691924   1.000000
  104        0.775751   1.000000
  105        0.838818   1.000000
  106        0.904783   1.000000
  107        0.950621   1.000000
  108        1.023651   1.000000
  109        1.179569   1.000000
  110        1.244249   1.000000
  111        1.306573   1.000000
  112        1.338364   1.000000
  113        1.373764   1.000000
  114        1.449756   1.000000
  115        1.591747   1.000000
  116        1.668468   1.000000
  117        1.784224   1.000000
  118        1.876578   1.000000
  119        1.911617   1.000000
  120        1.981838   1.000000
  121        2.014097   1.000000
  122        2.069638   1.000000
  123        2.099122   1.000000
  124        2.154288   1.000000
  125        2.205143   1.000000
  126        2.384712   1.000000
  127        2.408023   1.000000
  128        2.444489   1.000000
  129        2.459167   1.000000
  130        2.478784   1.000000
  131        2.514724   1.000000
  132        2.609287   1.000000
  133        2.640356   1.000000
  134        2.710174   1.000000
  135        2.784080   1.000000
  136        2.817175   1.000000
  137        2.862526   1.000000
  138        2.904147   1.000000
  139        2.917983   1.000000
  140        2.936098   1.000000
  141        2.954063   1.000000
  142        2.986690   1.000000
  143        3.017965   1.000000
  144        3.033528   1.000000
  145        3.067253   1.000000
  146        3.077103   1.000000
  147        3.114920   1.000000
  148        3.160821   1.000000
  149        3.213476   1.000000
  150        3.261687   1.000000
  151        3.303507   1.000000
  152        3.334665   1.000000
  153        3.410952   1.000000
  154        3.439839   1.000000
  155        3.484619   1.000000
  156        3.530609   1.000000
  157        3.561506   1.000000
  158        3.599284   1.000000
  159        3.689426   1.000000
  160        3.717599   1.000000
  161        3.739974   1.000000
  162        3.795782   1.000000
  163        3.820424   1.000000
  164        3.856612   1.000000
  165        3.911844   1.000000
  166        4.032772   1.000000
  167        4.044118   1.000000
  168        4.120546   1.000000
  169        4.209113   1.000000
  170        4.213446   1.000000
  171        4.225979   1.000000
  172        4.305566   1.000000
  173        4.430594   1.000000
  174        4.516866   1.000000
  175        4.576491   1.000000
  176        4.617001   1.000000
  177        4.736504   1.000000
  178        4.838222   1.000000
  179        4.852941   1.000000
  180        4.886864   1.000000
  181        4.965790   1.000000
  182        5.001607   1.000000
  183        5.010690   1.000000
  184        5.059080   1.000000
  185        5.180568   1.000000
  186        5.263173   1.000000
  187        5.302952   1.042177
  188        5.410973   0.405796
  189        5.508627  -0.013210
  190        5.563752  -0.040600
  191        5.573706   0.000000
  192        5.601637   0.000000
  193        6.796453   0.000000
  194        6.891823   0.000000
  195        7.056276   0.000000
  196        7.742655   0.000000
  197        7.806037   0.000000
  198        7.852794   0.000000
  199        8.401142   0.000000
  200        8.718386   0.000000
  201        8.841779   0.000000
  202        8.978495   0.000000
  203        9.105981   0.000000
  204        9.247986   0.000000
  205        9.321383   0.000000
  206        9.494953   0.000000
  207        9.717947   0.000000
  208        9.766954   0.000000
  209        9.862813   0.000000
  210        9.893338   0.000000
  211       10.184929   0.000000
  212       10.217409   0.000000
  213       10.294895   0.000000
  214       10.317786   0.000000
  215       10.361334   0.000000
  216       10.401500   0.000000
  217       10.552528   0.000000
  218       10.555181   0.000000
  219       10.581966   0.000000
  220       10.602382   0.000000
  221       10.731530   0.000000
  222       10.824550   0.000000
  223       11.147763   0.000000
  224       11.213876   0.000000
  225       11.244391   0.000000
  226       11.424283   0.000000
  227       11.607722   0.000000
  228       11.722905   0.000000
  229       11.770120   0.000000
  230       11.791635   0.000000
  231       11.825072   0.000000
  232       11.846408   0.000000
  233       11.867182   0.000000
  234       11.936863   0.000000
  235       12.006214   0.000000
  236       12.046736   0.000000
  237       12.156935   0.000000
  238       12.169103   0.000000
  239       12.263601   0.000000
  240       12.342258   0.000000
  241       12.358852   0.000000
  242       12.582936   0.000000
  243       12.660138   0.000000
  244       12.774149   0.000000
  245       12.801991   0.000000
  246       12.916014   0.000000
  247       12.953265   0.000000
  248       12.971091   0.000000
  249       13.064659   0.000000
  250       13.146117   0.000000
  251       13.267233   0.000000
  252       13.413204   0.000000
  253       13.428980   0.000000
  254       13.457594   0.000000
  255       13.501194   0.000000
  256       13.706803   0.000000
 
  0.3333333E+00 -0.3333333E+00  0.1666667E+00  0.9259259E-02
    1      -11.419874   1.000000
    2      -11.358810   1.000000
    3      -11.244158   1.000000
    4       -9.904124   1.000000
    5       -9.799431   1.000000
    6       -9.671770   1.000000
    7       -9.609588   1.000000
    8       -9.555153   1.000000
    9       -9.356710   1.000000
   10       -9.304350   1.000000
   11       -9.170358   1.000000
   12       -8.690344   1.000000
   13       -8.485355   1.000000
   14       -8.450458   1.000000
   15       -8.339813   1.000000
   16       -8.161991   1.000000
   17       -8.073465   1.000000
   18       -7.917571   1.000000
   19       -7.871303   1.000000
   20       -7.651723   1.000000
   21       -7.628894   1.000000
   22       -7.347983   1.000000
   23       -7.337546   1.000000
   24       -7.156276   1.000000
   25       -6.327032   1.000000
   26       -6.165520   1.000000
   27       -6.094052   1.000000
   28       -5.936258   1.000000
   29       -5.776336   1.000000
   30       -5.704734   1.000000
   31       -5.523882   1.000000
   32       -5.355605   1.000000
   33       -5.312594   1.000000
   34       -5.228656   1.000000
   35       -5.176500   1.000000
   36       -5.052974   1.000000
   37       -4.958045   1.000000
   38       -4.907716   1.000000
   39       -4.902735   1.000000
   40       -4.674312   1.000000
   41       -4.542390   1.000000
   42       -4.493477   1.000000
   43       -4.289234   1.000000
   44       -4.226697   1.000000
   45       -4.026436   1.000000
   46       -3.982625   1.000000
   47       -3.819409   1.000000
   48       -3.758194   1.000000
   49       -3.211701   1.000000
   50       -2.951453   1.000000
   51       -2.808959   1.000000
   52       -2.737871   1.000000
   53       -2.699567   1.000000
   54       -2.608168   1.000000
   55       -2.575589   1.000000
   56       -2.445354   1.000000
   57       -2.403857   1.000000
   58       -2.339544   1.000000
   59       -2.226176   1.000000
   60       -2.165908   1.000000
   61       -2.151031   1.000000
   62       -2.123956   1.000000
   63       -2.042539   1.000000
   64       -1.945925   1.000000
   65       -1.845950   1.000000
   66       -1.796790   1.000000
   67       -1.731273   1.000000
   68       -1.710546   1.000000
   69       -1.592704   1.000000
   70       -1.497519   1.000000
   71       -1.447610   1.000000
   72       -1.403436   1.000000
   73       -1.376278   1.000000
   74       -1.297072   1.000000
   75       -1.260381   1.000000
   76       -1.219498   1.000000
   77       -1.039603   1.000000
   78       -0.883755   1.000000
   79       -0.828724   1.000000
   80       -0.728761   1.000000
   81       -0.677853   1.000000
   82       -0.664196   1.000000
   83       -0.578698   1.000000
   84       -0.532307   1.000000
   85       -0.479990   1.000000
   86       -0.473179   1.000000
   87       -0.449375   1.000000
   88       -0.407108   1.000000
   89       -0.320486   1.000000
   90       -0.292610   1.000000
   91       -0.274494   1.000000
   92       -0.096754   1.000000
   93       -0.040213   1.000000
   94        0.139717   1.000000
   95        0.215486   1.000000
   96        0.275401   1.000000
   97        0.398013   1.000000
   98        0.452539   1.000000
   99        0.516402   1.000000
  100        0.544550   1.000000
  101        0.571865   1.000000
  102        0.644147   1.000000
  103        0.696024   1.000000
  104        0.759147   1.000000
  105        0.803052   1.000000
  106        0.854819   1.000000
  107        0.994094   1.000000
  108        1.068022   1.000000
  109        1.174131   1.000000
  110        1.188496   1.000000
  111        1.232042   1.000000
  112        1.297909   1.000000
  113        1.324456   1.000000
  114        1.440081   1.000000
  115        1.564109   1.000000
  116        1.595275   1.000000
  117        1.708145   1.000000
  118        1.831719   1.000000
  119        1.882468   1.000000
  120        1.920539   1.000000
  121        1.933644   1.000000
  122        2.043191   1.000000
  123        2.175072   1.000000
  124        2.229736   1.000000
  125        2.357531   1.000000
  126        2.385496   1.000000
  127        2.402061   1.000000
  128        2.426849   1.000000
  129        2.502008   1.000000
  130        2.527733   1.000000
  131        2.555834   1.000000
  132        2.609236   1.000000
  133        2.648588   1.000000
  134        2.666517   1.000000
  135        2.688298   1.000000
  136        2.768057   1.000000
  137        2.799046   1.000000
  138        2.840826   1.000000
  139        2.881206   1.000000
  140        2.915524   1.000000
  141        2.935905   1.000000
  142        3.026341   1.000000
  143        3.100480   1.000000
  144        3.156240   1.000000
  145        3.177205   1.000000
  146        3.209931   1.000000
  147        3.286598   1.000000
  148        3.315668   1.000000
  149        3.340100   1.000000
  150        3.380349   1.000000
  151        3.396010   1.000000
  152        3.399633   1.000000
  153        3.437261   1.000000
  154        3.456688   1.000000
  155        3.546431   1.000000
  156        3.637605   1.000000
  157        3.651817   1.000000
  158        3.693049   1.000000
  159        3.716879   1.000000
  160        3.759523   1.000000
  161        3.799777   1.000000
  162        3.809601   1.000000
  163        3.910500   1.000000
  164        3.924684   1.000000
  165        3.947372   1.000000
  166        4.058523   1.000000
  167        4.106293   1.000000
  168        4.150703   1.000000
  169        4.159868   1.000000
  170        4.246803   1.000000
  171        4.287369   1.000000
  172        4.345780   1.000000
  173        4.419536   1.000000
  174        4.469385   1.000000
  175        4.509181   1.000000
  176        4.596270   1.000000
  177        4.657888   1.000000
  178        4.738161   1.000000
  179        4.762849   1.000000
  180        4.797498   1.000000
  181        4.840802   1.000000
  182        4.889767   1.000000
  183        4.915868   1.000000
  184        5.025608   1.000000
  185        5.093835   1.000000
  186        5.173280   1.000000
  187        5.250961   1.000000
  188        5.283356   1.055562
  189        5.386816   0.558342
  190        5.454052   0.050457
  191        5.521793  -0.020284
  192        5.620051   0.000000
  193        6.837931   0.000000
  194        6.871201   0.000000
  195        7.066406   0.000000
  196        7.701884   0.000000
  197        7.715424   0.000000
  198        7.846540   0.000000
  199        8.475166   0.000000
  200        8.704117   0.000000
  201        8.928962   0.000000
  202        8.975710   0.000000
  203        9.036944   0.000000
  204        9.340393   0.000000
  205        9.386976   0.000000
  206        9.559537   0.000000
  207        9.768825   0.000000
  208        9.925397   0.000000
  209        9.946383   0.000000
  210       10.040316   0.000000
  211       10.156793   0.000000
  212       10.203422   0.000000
  213       10.350557   0.000000
  214       10.390775   0.000000
  215       10.545740   0.000000
  216       10.550483   0.000000
  217       10.568973   0.000000
  218       10.616285   0.000000
  219       10.683355   0.000000
  220       10.746094   0.000000
  221       10.837053   0.000000
  222       10.863482   0.000000
  223       11.040538   0.000000
  224       11.073911   0.000000
  225       11.367415   0.000000
  226       11.410671   0.000000
  227       11.501367   0.000000
  228       11.548763   0.000000
  229       11.553560   0.000000
  230       11.617500   0.000000
  231       11.744830   0.000000
  232       11.781058   0.000000
  233       11.830875   0.000000
  234       11.860580   0.000000
  235       11.898595   0.000000
  236       12.034303   0.000000
  237       12.073849   0.000000
  238       12.087276   0.000000
  239       12.159084   0.000000
  240       12.199135   0.000000
  241       12.266087   0.000000
  242       12.297341   0.000000
  243       12.508212   0.000000
  244       12.525344   0.000000
  245       12.730411   0.000000
  246       12.778589   0.000000
  247       12.806810   0.000000
  248       13.095173   0.000000
  249       13.130409   0.000000
  250       13.183365   0.000000
  251       13.224159   0.000000
  252       13.394523   0.000000
  253       13.479072   0.000000
  254       13.531257   0.000000
  255       13.607635   0.000000
  256       13.677896   0.000000
 
  0.5000000E+00 -0.3333333E+00  0.1666667E+00  0.9259259E-02
    1      -11.405525   1.000000
    2      -11.359340   1.000000
    3      -11.260242   1.000000
    4       -9.906530   1.000000
    5       -9.880899   1.000000
    6       -9.637496   1.000000
    7       -9.554256   1.000000
    8       -9.471532   1.000000
    9       -9.372341   1.000000
   10       -9.336162   1.000000
   11       -9.158082   1.000000
   12       -8.765778   1.000000
   13       -8.555134   1.000000
   14       -8.422703   1.000000
   15       -8.317870   1.000000
   16       -8.208440   1.000000
   17       -8.118338   1.000000
   18       -7.826174   1.000000
   19       -7.768516   1.000000
   20       -7.673502   1.000000
   21       -7.636739   1.000000
   22       -7.399025   1.000000
   23       -7.228049   1.000000
   24       -7.180792   1.000000
   25       -6.315548   1.000000
   26       -6.190904   1.000000
   27       -6.083141   1.000000
   28       -5.965932   1.000000
   29       -5.733951   1.000000
   30       -5.692494   1.000000
   31       -5.638453   1.000000
   32       -5.415283   1.000000
   33       -5.314556   1.000000
   34       -5.228006   1.000000
   35       -5.150223   1.000000
   36       -5.070509   1.000000
   37       -5.029561   1.000000
   38       -4.903619   1.000000
   39       -4.850518   1.000000
   40       -4.700278   1.000000
   41       -4.579290   1.000000
   42       -4.502220   1.000000
   43       -4.255246   1.000000
   44       -4.198975   1.000000
   45       -3.937843   1.000000
   46       -3.920555   1.000000
   47       -3.894704   1.000000
   48       -3.767314   1.000000
   49       -3.182572   1.000000
   50       -2.969718   1.000000
   51       -2.865503   1.000000
   52       -2.789233   1.000000
   53       -2.646342   1.000000
   54       -2.591910   1.000000
   55       -2.568358   1.000000
   56       -2.498701   1.000000
   57       -2.429905   1.000000
   58       -2.340535   1.000000
   59       -2.222826   1.000000
   60       -2.166413   1.000000
   61       -2.061309   1.000000
   62       -1.988486   1.000000
   63       -1.951275   1.000000
   64       -1.869537   1.000000
   65       -1.810896   1.000000
   66       -1.785373   1.000000
   67       -1.611685   1.000000
   68       -1.596832   1.000000
   69       -1.566419   1.000000
   70       -1.489390   1.000000
   71       -1.443643   1.000000
   72       -1.386463   1.000000
   73       -1.281302   1.000000
   74       -1.240063   1.000000
   75       -1.201783   1.000000
   76       -1.084148   1.000000
   77       -1.050918   1.000000
   78       -1.024820   1.000000
   79       -0.995526   1.000000
   80       -0.964673   1.000000
   81       -0.902786   1.000000
   82       -0.812213   1.000000
   83       -0.798320   1.000000
   84       -0.687830   1.000000
   85       -0.662316   1.000000
   86       -0.507919   1.000000
   87       -0.486387   1.000000
   88       -0.420282   1.000000
   89       -0.273097   1.000000
   90       -0.210596   1.000000
   91       -0.080896   1.000000
   92        0.003407   1.000000
   93        0.071330   1.000000
   94        0.100467   1.000000
   95        0.158297   1.000000
   96        0.203253   1.000000
   97        0.327644   1.000000
   98        0.412231   1.000000
   99        0.570617   1.000000
  100        0.607692   1.000000
  101        0.639207   1.000000
  102        0.667321   1.000000
  103        0.681752   1.000000
  104        0.755961   1.000000
  105        0.833416   1.000000
  106        0.932636   1.000000
  107        0.995613   1.000000
  108        1.074425   1.000000
  109        1.127592   1.000000
  110        1.143449   1.000000
  111        1.204495   1.000000
  112        1.362634   1.000000
  113        1.429023   1.000000
  114        1.517051   1.000000
  115        1.638857   1.000000
  116        1.671792   1.000000
  117        1.710118   1.000000
  118        1.759117   1.000000
  119        1.859655   1.000000
  120        1.909318   1.000000
  121        1.948273   1.000000
  122        1.993260   1.000000
  123        2.124451   1.000000
  124        2.202324   1.000000
  125        2.237050   1.000000
  126        2.249383   1.000000
  127        2.395895   1.000000
  128        2.413708   1.000000
  129        2.441672   1.000000
  130        2.503352   1.000000
  131        2.530142   1.000000
  132        2.541057   1.000000
  133        2.635918   1.000000
  134        2.703083   1.000000
  135        2.739184   1.000000
  136        2.772567   1.000000
  137        2.826678   1.000000
  138        2.877462   1.000000
  139        2.904318   1.000000
  140        2.968496   1.000000
  141        2.982052   1.000000
  142        3.024765   1.000000
  143        3.060620   1.000000
  144        3.119256   1.000000
  145        3.141812   1.000000
  146        3.176175   1.000000
  147        3.194461   1.000000
  148        3.243042   1.000000
  149        3.295560   1.000000
  150        3.320976   1.000000
  151        3.427924   1.000000
  152        3.456358   1.000000
  153        3.489245   1.000000
  154        3.504292   1.000000
  155        3.589194   1.000000
  156        3.721831   1.000000
  157        3.753226   1.000000
  158        3.801645   1.000000
  159        3.844608   1.000000
  160        3.859670   1.000000
  161        3.881221   1.000000
  162        3.908777   1.000000
  163        3.987836   1.000000
  164        4.011988   1.000000
  165        4.040031   1.000000
  166        4.099339   1.000000
  167        4.137865   1.000000
  168        4.178517   1.000000
  169        4.197297   1.000000
  170        4.289071   1.000000
  171        4.316272   1.000000
  172        4.378841   1.000000
  173        4.418714   1.000000
  174        4.494145   1.000000
  175        4.514049   1.000000
  176        4.581504   1.000000
  177        4.614906   1.000000
  178        4.624809   1.000000
  179        4.708266   1.000000
  180        4.745080   1.000000
  181        4.835514   1.000000
  182        4.886237   1.000000
  183        4.912916   1.000000
  184        4.937569   1.000000
  185        5.068419   1.000000
  186        5.085999   1.000000
  187        5.147764   1.000000
  188        5.209023   1.000000
  189        5.257045   1.035101
  190        5.346422   0.694785
  191        5.493663  -0.040903
  192        5.569334  -0.031411
  193        6.835642   0.000000
  194        6.903766   0.000000
  195        7.071988   0.000000
  196        7.634030   0.000000
  197        7.681345   0.000000
  198        7.851795   0.000000
  199        8.590102   0.000000
  200        8.661535   0.000000
  201        8.863523   0.000000
  202        8.935693   0.000000
  203        9.034424   0.000000
  204        9.318826   0.000000
  205        9.464007   0.000000
  206        9.649358   0.000000
  207        9.783011   0.000000
  208       10.014688   0.000000
  209       10.030499   0.000000
  210       10.090910   0.000000
  211       10.261002   0.000000
  212       10.329540   0.000000
  213       10.436507   0.000000
  214       10.471150   0.000000
  215       10.520992   0.000000
  216       10.526400   0.000000
  217       10.639698   0.000000
  218       10.719330   0.000000
  219       10.803896   0.000000
  220       10.872521   0.000000
  221       10.955434   0.000000
  222       11.005776   0.000000
  223       11.028803   0.000000
  224       11.068486   0.000000
  225       11.162420   0.000000
  226       11.187948   0.000000
  227       11.245113   0.000000
  228       11.330482   0.000000
  229       11.445935   0.000000
  230       11.515178   0.000000
  231       11.555180   0.000000
  232       11.760574   0.000000
  233       11.865522   0.000000
  234       11.898467   0.000000
  235       11.989318   0.000000
  236       11.995323   0.000000
  237       12.032839   0.000000
  238       12.074557   0.000000
  239       12.155221   0.000000
  240       12.176247   0.000000
  241       12.201526   0.000000
  242       12.289677   0.000000
  243       12.374728   0.000000
  244       12.522118   0.000000
  245       12.549050   0.000000
  246       12.679485   0.000000
  247       12.719517   0.000000
  248       13.103340   0.000000
  249       13.189127   0.000000
  250       13.280513   0.000000
  251       13.408217   0.000000
  252       13.435618   0.000000
  253       13.495433   0.000000
  254       13.538082   0.000000
  255       13.561206   0.000000
  256       13.618265   0.000000
 
 -0.3333333E+00 -0.3333333E+00  0.1666667E+00  0.9259259E-02
    1      -11.454381   1.000000
    2      -11.307747   1.000000
    3      -11.253879   1.000000
    4       -9.968700   1.000000
    5       -9.842248   1.000000
    6       -9.678342   1.000000
    7       -9.518777   1.000000
    8       -9.462513   1.000000
    9       -9.340677   1.000000
   10       -9.269266   1.000000
   11       -9.224761   1.000000
   12       -8.739526   1.000000
   13       -8.605587   1.000000
   14       -8.408493   1.000000
   15       -8.313123   1.000000
   16       -8.295660   1.000000
   17       -8.121075   1.000000
   18       -7.814957   1.000000
   19       -7.742625   1.000000
   20       -7.676534   1.000000
   21       -7.633848   1.000000
   22       -7.381659   1.000000
   23       -7.304088   1.000000
   24       -7.060027   1.000000
   25       -6.192406   1.000000
   26       -6.169226   1.000000
   27       -6.132757   1.000000
   28       -5.892575   1.000000
   29       -5.815321   1.000000
   30       -5.784987   1.000000
   31       -5.586781   1.000000
   32       -5.556045   1.000000
   33       -5.380230   1.000000
   34       -5.307357   1.000000
   35       -5.113476   1.000000
   36       -5.089808   1.000000
   37       -4.957114   1.000000
   38       -4.885550   1.000000
   39       -4.819057   1.000000
   40       -4.757095   1.000000
   41       -4.494807   1.000000
   42       -4.393611   1.000000
   43       -4.243464   1.000000
   44       -4.188022   1.000000
   45       -4.043884   1.000000
   46       -3.901616   1.000000
   47       -3.779559   1.000000
   48       -3.719255   1.000000
   49       -3.153961   1.000000
   50       -3.012947   1.000000
   51       -2.916511   1.000000
   52       -2.818405   1.000000
   53       -2.755977   1.000000
   54       -2.591739   1.000000
   55       -2.579759   1.000000
   56       -2.456514   1.000000
   57       -2.321091   1.000000
   58       -2.241302   1.000000
   59       -2.203832   1.000000
   60       -2.147051   1.000000
   61       -2.102702   1.000000
   62       -2.066859   1.000000
   63       -1.962002   1.000000
   64       -1.927898   1.000000
   65       -1.895719   1.000000
   66       -1.791253   1.000000
   67       -1.716538   1.000000
   68       -1.685251   1.000000
   69       -1.547138   1.000000
   70       -1.523283   1.000000
   71       -1.478368   1.000000
   72       -1.428246   1.000000
   73       -1.384330   1.000000
   74       -1.291901   1.000000
   75       -1.172796   1.000000
   76       -1.149005   1.000000
   77       -1.089338   1.000000
   78       -1.080176   1.000000
   79       -0.980147   1.000000
   80       -0.960607   1.000000
   81       -0.866523   1.000000
   82       -0.787179   1.000000
   83       -0.728312   1.000000
   84       -0.587127   1.000000
   85       -0.554838   1.000000
   86       -0.442293   1.000000
   87       -0.394298   1.000000
   88       -0.308571   1.000000
   89       -0.262614   1.000000
   90       -0.195754   1.000000
   91       -0.145952   1.000000
   92       -0.036062   1.000000
   93        0.059021   1.000000
   94        0.130838   1.000000
   95        0.149687   1.000000
   96        0.217665   1.000000
   97        0.305902   1.000000
   98        0.406736   1.000000
   99        0.481868   1.000000
  100        0.529475   1.000000
  101        0.714309   1.000000
  102        0.721247   1.000000
  103        0.771301   1.000000
  104        0.807772   1.000000
  105        0.895301   1.000000
  106        0.943270   1.000000
  107        1.007452   1.000000
  108        1.192377   1.000000
  109        1.224968   1.000000
  110        1.261084   1.000000
  111        1.312969   1.000000
  112        1.425905   1.000000
  113        1.441108   1.000000
  114        1.575152   1.000000
  115        1.607722   1.000000
  116        1.677612   1.000000
  117        1.708790   1.000000
  118        1.770971   1.000000
  119        1.810552   1.000000
  120        1.881786   1.000000
  121        2.017401   1.000000
  122        2.033023   1.000000
  123        2.089658   1.000000
  124        2.138835   1.000000
  125        2.216339   1.000000
  126        2.263717   1.000000
  127        2.306307   1.000000
  128        2.417989   1.000000
  129        2.443890   1.000000
  130        2.512606   1.000000
  131        2.532969   1.000000
  132        2.541457   1.000000
  133        2.603044   1.000000
  134        2.618516   1.000000
  135        2.676616   1.000000
  136        2.720398   1.000000
  137        2.743996   1.000000
  138        2.765114   1.000000
  139        2.866443   1.000000
  140        2.895735   1.000000
  141        2.936920   1.000000
  142        2.955553   1.000000
  143        3.025854   1.000000
  144        3.092980   1.000000
  145        3.126778   1.000000
  146        3.167853   1.000000
  147        3.225694   1.000000
  148        3.233766   1.000000
  149        3.272804   1.000000
  150        3.296293   1.000000
  151        3.384646   1.000000
  152        3.419159   1.000000
  153        3.426309   1.000000
  154        3.550864   1.000000
  155        3.574699   1.000000
  156        3.637933   1.000000
  157        3.656881   1.000000
  158        3.727827   1.000000
  159        3.796509   1.000000
  160        3.891777   1.000000
  161        3.913793   1.000000
  162        3.923178   1.000000
  163        3.938254   1.000000
  164        3.970312   1.000000
  165        3.997130   1.000000
  166        4.028131   1.000000
  167        4.128220   1.000000
  168        4.151231   1.000000
  169        4.216690   1.000000
  170        4.241850   1.000000
  171        4.274010   1.000000
  172        4.413504   1.000000
  173        4.491425   1.000000
  174        4.528270   1.000000
  175        4.566280   1.000000
  176        4.675871   1.000000
  177        4.750143   1.000000
  178        4.771462   1.000000
  179        4.792858   1.000000
  180        4.874663   1.000000
  181        4.916366   1.000000
  182        4.937386   1.000000
  183        4.974855   1.000000
  184        4.986746   1.000000
  185        5.043801   1.000000
  186        5.063412   1.000000
  187        5.157599   1.000000
  188        5.190844   1.000000
  189        5.281810   1.081071
  190        5.376054   0.623531
  191        5.419364   0.070877
  192        5.564774  -0.025536
  193        6.834420   0.000000
  194        6.931409   0.000000
  195        7.067652   0.000000
  196        7.613795   0.000000
  197        7.707539   0.000000
  198        7.864785   0.000000
  199        8.591438   0.000000
  200        8.645194   0.000000
  201        8.818267   0.000000
  202        8.853192   0.000000
  203        9.119266   0.000000
  204        9.320216   0.000000
  205        9.430028   0.000000
  206        9.608012   0.000000
  207        9.774899   0.000000
  208        9.856671   0.000000
  209        9.998658   0.000000
  210       10.080839   0.000000
  211       10.244931   0.000000
  212       10.273480   0.000000
  213       10.290787   0.000000
  214       10.469416   0.000000
  215       10.530446   0.000000
  216       10.546047   0.000000
  217       10.634815   0.000000
  218       10.684216   0.000000
  219       10.755730   0.000000
  220       10.798725   0.000000
  221       10.946417   0.000000
  222       10.966657   0.000000
  223       11.013975   0.000000
  224       11.067319   0.000000
  225       11.203652   0.000000
  226       11.259217   0.000000
  227       11.318919   0.000000
  228       11.341859   0.000000
  229       11.466957   0.000000
  230       11.588026   0.000000
  231       11.670376   0.000000
  232       11.772597   0.000000
  233       11.878020   0.000000
  234       11.975454   0.000000
  235       12.025044   0.000000
  236       12.076440   0.000000
  237       12.128051   0.000000
  238       12.176558   0.000000
  239       12.194905   0.000000
  240       12.225098   0.000000
  241       12.303693   0.000000
  242       12.372878   0.000000
  243       12.422763   0.000000
  244       12.517964   0.000000
  245       12.557754   0.000000
  246       12.620795   0.000000
  247       12.677262   0.000000
  248       13.163947   0.000000
  249       13.204097   0.000000
  250       13.379066   0.000000
  251       13.445500   0.000000
  252       13.465903   0.000000
  253       13.480484   0.000000
  254       13.504271   0.000000
  255       13.542638   0.000000
  256       13.558174   0.000000
 
 -0.1666667E+00 -0.3333333E+00  0.1666667E+00  0.9259259E-02
    1      -11.485256   1.000000
    2      -11.301933   1.000000
    3      -11.216877   1.000000
    4       -9.982289   1.000000
    5       -9.820689   1.000000
    6       -9.695690   1.000000
    7       -9.540066   1.000000
    8       -9.494445   1.000000
    9       -9.318437   1.000000
   10       -9.308671   1.000000
   11       -9.148166   1.000000
   12       -8.750387   1.000000
   13       -8.539767   1.000000
   14       -8.439649   1.000000
   15       -8.310285   1.000000
   16       -8.299286   1.000000
   17       -8.123460   1.000000
   18       -7.890751   1.000000
   19       -7.758497   1.000000
   20       -7.697681   1.000000
   21       -7.616228   1.000000
   22       -7.381010   1.000000
   23       -7.308740   1.000000
   24       -7.022961   1.000000
   25       -6.152617   1.000000
   26       -6.118534   1.000000
   27       -6.046122   1.000000
   28       -6.035515   1.000000
   29       -5.878348   1.000000
   30       -5.708537   1.000000
   31       -5.642581   1.000000
   32       -5.480440   1.000000
   33       -5.423787   1.000000
   34       -5.304240   1.000000
   35       -5.158866   1.000000
   36       -5.060441   1.000000
   37       -4.963729   1.000000
   38       -4.838467   1.000000
   39       -4.800851   1.000000
   40       -4.683050   1.000000
   41       -4.494740   1.000000
   42       -4.347668   1.000000
   43       -4.181141   1.000000
   44       -4.138646   1.000000
   45       -4.104519   1.000000
   46       -3.946957   1.000000
   47       -3.879999   1.000000
   48       -3.651905   1.000000
   49       -3.156362   1.000000
   50       -3.074696   1.000000
   51       -2.902426   1.000000
   52       -2.771596   1.000000
   53       -2.683625   1.000000
   54       -2.667958   1.000000
   55       -2.535542   1.000000
   56       -2.371352   1.000000
   57       -2.312837   1.000000
   58       -2.285435   1.000000
   59       -2.277153   1.000000
   60       -2.255545   1.000000
   61       -2.222240   1.000000
   62       -2.126073   1.000000
   63       -2.087506   1.000000
   64       -2.030595   1.000000
   65       -1.879988   1.000000
   66       -1.842367   1.000000
   67       -1.775787   1.000000
   68       -1.617847   1.000000
   69       -1.570802   1.000000
   70       -1.514067   1.000000
   71       -1.465359   1.000000
   72       -1.430902   1.000000
   73       -1.344732   1.000000
   74       -1.318587   1.000000
   75       -1.260700   1.000000
   76       -1.222698   1.000000
   77       -1.167110   1.000000
   78       -1.106458   1.000000
   79       -1.059868   1.000000
   80       -0.996834   1.000000
   81       -0.883213   1.000000
   82       -0.836084   1.000000
   83       -0.644771   1.000000
   84       -0.583582   1.000000
   85       -0.502125   1.000000
   86       -0.365387   1.000000
   87       -0.249965   1.000000
   88       -0.220203   1.000000
   89       -0.179027   1.000000
   90       -0.129993   1.000000
   91       -0.010828   1.000000
   92        0.076933   1.000000
   93        0.107545   1.000000
   94        0.199255   1.000000
   95        0.231985   1.000000
   96        0.321948   1.000000
   97        0.356954   1.000000
   98        0.427518   1.000000
   99        0.511688   1.000000
  100        0.620837   1.000000
  101        0.690761   1.000000
  102        0.798760   1.000000
  103        0.864205   1.000000
  104        0.886499   1.000000
  105        0.924374   1.000000
  106        0.944090   1.000000
  107        1.072369   1.000000
  108        1.099684   1.000000
  109        1.229120   1.000000
  110        1.338678   1.000000
  111        1.348244   1.000000
  112        1.418882   1.000000
  113        1.454100   1.000000
  114        1.500713   1.000000
  115        1.541991   1.000000
  116        1.575165   1.000000
  117        1.622385   1.000000
  118        1.737712   1.000000
  119        1.809972   1.000000
  120        1.831613   1.000000
  121        1.970819   1.000000
  122        2.003556   1.000000
  123        2.122827   1.000000
  124        2.199393   1.000000
  125        2.291545   1.000000
  126        2.309214   1.000000
  127        2.359919   1.000000
  128        2.404798   1.000000
  129        2.426910   1.000000
  130        2.475143   1.000000
  131        2.513586   1.000000
  132        2.545588   1.000000
  133        2.594165   1.000000
  134        2.627074   1.000000
  135        2.644566   1.000000
  136        2.709198   1.000000
  137        2.730606   1.000000
  138        2.766808   1.000000
  139        2.801104   1.000000
  140        2.865247   1.000000
  141        2.933452   1.000000
  142        2.962355   1.000000
  143        2.980899   1.000000
  144        3.023598   1.000000
  145        3.052908   1.000000
  146        3.086235   1.000000
  147        3.091789   1.000000
  148        3.157345   1.000000
  149        3.259209   1.000000
  150        3.310169   1.000000
  151        3.361700   1.000000
  152        3.404025   1.000000
  153        3.426567   1.000000
  154        3.477052   1.000000
  155        3.526902   1.000000
  156        3.538059   1.000000
  157        3.625817   1.000000
  158        3.648115   1.000000
  159        3.696341   1.000000
  160        3.733514   1.000000
  161        3.804931   1.000000
  162        3.846771   1.000000
  163        3.893595   1.000000
  164        3.940826   1.000000
  165        3.973774   1.000000
  166        4.020804   1.000000
  167        4.105017   1.000000
  168        4.167976   1.000000
  169        4.224171   1.000000
  170        4.243633   1.000000
  171        4.310524   1.000000
  172        4.375089   1.000000
  173        4.468830   1.000000
  174        4.515199   1.000000
  175        4.586719   1.000000
  176        4.675241   1.000000
  177        4.735330   1.000000
  178        4.790280   1.000000
  179        4.877129   1.000000
  180        4.903173   1.000000
  181        4.943167   1.000000
  182        5.031859   1.000000
  183        5.045065   1.000000
  184        5.094038   1.000000
  185        5.164867   1.000000
  186        5.186074   1.000000
  187        5.253868   1.000000
  188        5.351778   0.986004
  189        5.388686   0.538082
  190        5.404517   0.171824
  191        5.545818  -0.054653
  192        5.609103   0.000000
  193        6.815939   0.000000
  194        6.941092   0.000000
  195        7.056655   0.000000
  196        7.648861   0.000000
  197        7.784004   0.000000
  198        7.886337   0.000000
  199        8.494201   0.000000
  200        8.633599   0.000000
  201        8.795027   0.000000
  202        8.853662   0.000000
  203        9.180414   0.000000
  204        9.358007   0.000000
  205        9.475242   0.000000
  206        9.585272   0.000000
  207        9.626792   0.000000
  208        9.673172   0.000000
  209        9.834126   0.000000
  210        9.915111   0.000000
  211       10.035765   0.000000
  212       10.118908   0.000000
  213       10.332021   0.000000
  214       10.340118   0.000000
  215       10.446983   0.000000
  216       10.498045   0.000000
  217       10.515741   0.000000
  218       10.569900   0.000000
  219       10.582532   0.000000
  220       10.720296   0.000000
  221       10.766548   0.000000
  222       10.893958   0.000000
  223       11.206358   0.000000
  224       11.330931   0.000000
  225       11.374526   0.000000
  226       11.452406   0.000000
  227       11.494210   0.000000
  228       11.522323   0.000000
  229       11.690548   0.000000
  230       11.724734   0.000000
  231       11.748430   0.000000
  232       11.810222   0.000000
  233       11.929091   0.000000
  234       11.949940   0.000000
  235       11.981123   0.000000
  236       12.068461   0.000000
  237       12.107616   0.000000
  238       12.204164   0.000000
  239       12.323195   0.000000
  240       12.390597   0.000000
  241       12.416714   0.000000
  242       12.471688   0.000000
  243       12.530674   0.000000
  244       12.601109   0.000000
  245       12.635387   0.000000
  246       12.829281   0.000000
  247       12.917932   0.000000
  248       13.110565   0.000000
  249       13.245233   0.000000
  250       13.326270   0.000000
  251       13.332378   0.000000
  252       13.371589   0.000000
  253       13.438398   0.000000
  254       13.554545   0.000000
  255       13.678570   0.000000
  256       13.706293   0.000000
 
  0.0000000E+00 -0.1666667E+00  0.1666667E+00  0.9259259E-02
    1      -11.517365   1.000000
    2      -11.280774   1.000000
    3      -11.194912   1.000000
    4       -9.981227   1.000000
    5       -9.870078   1.000000
    6       -9.639038   1.000000
    7       -9.501582   1.000000
    8       -9.473866   1.000000
    9       -9.340076   1.000000
   10       -9.289501   1.000000
   11       -9.164934   1.000000
   12       -8.761096   1.000000
   13       -8.576132   1.000000
   14       -8.532659   1.000000
   15       -8.391857   1.000000
   16       -8.312067   1.000000
   17       -8.145153   1.000000
   18       -7.954260   1.000000
   19       -7.789150   1.000000
   20       -7.604126   1.000000
   21       -7.523165   1.000000
   22       -7.381655   1.000000
   23       -7.144711   1.000000
   24       -6.959822   1.000000
   25       -6.190858   1.000000
   26       -6.140612   1.000000
   27       -6.085201   1.000000
   28       -6.029571   1.000000
   29       -5.752245   1.000000
   30       -5.647553   1.000000
   31       -5.611481   1.000000
   32       -5.549537   1.000000
   33       -5.469540   1.000000
   34       -5.285553   1.000000
   35       -5.162660   1.000000
   36       -5.100999   1.000000
   37       -4.972024   1.000000
   38       -4.873204   1.000000
   39       -4.747175   1.000000
   40       -4.646187   1.000000
   41       -4.490778   1.000000
   42       -4.366350   1.000000
   43       -4.304814   1.000000
   44       -4.019479   1.000000
   45       -3.973124   1.000000
   46       -3.926981   1.000000
   47       -3.748235   1.000000
   48       -3.494490   1.000000
   49       -3.448005   1.000000
   50       -3.222673   1.000000
   51       -3.129587   1.000000
   52       -3.087974   1.000000
   53       -2.849404   1.000000
   54       -2.745663   1.000000
   55       -2.728376   1.000000
   56       -2.651858   1.000000
   57       -2.623060   1.000000
   58       -2.455170   1.000000
   59       -2.388054   1.000000
   60       -2.307211   1.000000
   61       -2.217037   1.000000
   62       -2.180116   1.000000
   63       -2.042361   1.000000
   64       -1.963826   1.000000
   65       -1.789625   1.000000
   66       -1.770028   1.000000
   67       -1.722032   1.000000
   68       -1.536818   1.000000
   69       -1.449293   1.000000
   70       -1.367282   1.000000
   71       -1.280940   1.000000
   72       -1.254991   1.000000
   73       -1.172419   1.000000
   74       -1.162629   1.000000
   75       -1.018191   1.000000
   76       -0.949592   1.000000
   77       -0.936093   1.000000
   78       -0.899365   1.000000
   79       -0.868027   1.000000
   80       -0.838764   1.000000
   81       -0.736095   1.000000
   82       -0.628682   1.000000
   83       -0.598406   1.000000
   84       -0.435306   1.000000
   85       -0.357848   1.000000
   86       -0.346218   1.000000
   87       -0.304169   1.000000
   88       -0.286541   1.000000
   89       -0.102740   1.000000
   90       -0.023896   1.000000
   91        0.048985   1.000000
   92        0.146838   1.000000
   93        0.162755   1.000000
   94        0.199630   1.000000
   95        0.309185   1.000000
   96        0.334627   1.000000
   97        0.381699   1.000000
   98        0.429168   1.000000
   99        0.463271   1.000000
  100        0.476561   1.000000
  101        0.533551   1.000000
  102        0.623213   1.000000
  103        0.783514   1.000000
  104        0.854491   1.000000
  105        0.882969   1.000000
  106        0.915009   1.000000
  107        1.041971   1.000000
  108        1.065519   1.000000
  109        1.092614   1.000000
  110        1.182158   1.000000
  111        1.201230   1.000000
  112        1.218185   1.000000
  113        1.239612   1.000000
  114        1.290845   1.000000
  115        1.409553   1.000000
  116        1.501534   1.000000
  117        1.612673   1.000000
  118        1.706445   1.000000
  119        1.734539   1.000000
  120        1.762529   1.000000
  121        1.847951   1.000000
  122        1.898226   1.000000
  123        2.109662   1.000000
  124        2.171774   1.000000
  125        2.207600   1.000000
  126        2.218185   1.000000
  127        2.264065   1.000000
  128        2.334260   1.000000
  129        2.370938   1.000000
  130        2.397343   1.000000
  131        2.433554   1.000000
  132        2.481757   1.000000
  133        2.522241   1.000000
  134        2.546026   1.000000
  135        2.586907   1.000000
  136        2.734359   1.000000
  137        2.777701   1.000000
  138        2.800950   1.000000
  139        2.840024   1.000000
  140        2.863180   1.000000
  141        2.876783   1.000000
  142        2.925594   1.000000
  143        2.939085   1.000000
  144        2.963885   1.000000
  145        2.988763   1.000000
  146        3.003964   1.000000
  147        3.115784   1.000000
  148        3.173246   1.000000
  149        3.222839   1.000000
  150        3.281741   1.000000
  151        3.347620   1.000000
  152        3.407416   1.000000
  153        3.425915   1.000000
  154        3.478869   1.000000
  155        3.532046   1.000000
  156        3.609320   1.000000
  157        3.663525   1.000000
  158        3.705470   1.000000
  159        3.739223   1.000000
  160        3.768501   1.000000
  161        3.803722   1.000000
  162        3.857567   1.000000
  163        3.964271   1.000000
  164        3.975673   1.000000
  165        4.025910   1.000000
  166        4.132810   1.000000
  167        4.179768   1.000000
  168        4.191232   1.000000
  169        4.253763   1.000000
  170        4.347010   1.000000
  171        4.364391   1.000000
  172        4.409653   1.000000
  173        4.578177   1.000000
  174        4.700567   1.000000
  175        4.770031   1.000000
  176        4.797526   1.000000
  177        4.841935   1.000000
  178        4.873003   1.000000
  179        4.916307   1.000000
  180        4.969240   1.000000
  181        5.018311   1.000000
  182        5.053092   1.000000
  183        5.096358   1.000000
  184        5.168367   1.000000
  185        5.227695   1.000000
  186        5.290815   1.000000
  187        5.352629   1.000000
  188        5.364237   0.856501
  189        5.419554   0.087639
  190        5.502837  -0.052648
  191        5.607131   0.000000
  192        5.645205   0.000000
  193        6.692773   0.000000
  194        6.838510   0.000000
  195        7.004619   0.000000
  196        7.617744   0.000000
  197        7.806103   0.000000
  198        7.851121   0.000000
  199        8.281417   0.000000
  200        8.722327   0.000000
  201        8.805217   0.000000
  202        8.889813   0.000000
  203        9.160060   0.000000
  204        9.198327   0.000000
  205        9.364072   0.000000
  206        9.434409   0.000000
  207        9.522680   0.000000
  208        9.574045   0.000000
  209        9.721543   0.000000
  210        9.852939   0.000000
  211        9.892230   0.000000
  212       10.067724   0.000000
  213       10.089693   0.000000
  214       10.204524   0.000000
  215       10.326139   0.000000
  216       10.369771   0.000000
  217       10.477229   0.000000
  218       10.569799   0.000000
  219       10.596659   0.000000
  220       10.827517   0.000000
  221       11.233910   0.000000
  222       11.264726   0.000000
  223       11.357936   0.000000
  224       11.387211   0.000000
  225       11.443365   0.000000
  226       11.466841   0.000000
  227       11.565708   0.000000
  228       11.625805   0.000000
  229       11.732712   0.000000
  230       11.776203   0.000000
  231       11.793283   0.000000
  232       11.851046   0.000000
  233       11.913832   0.000000
  234       11.981753   0.000000
  235       12.019903   0.000000
  236       12.039559   0.000000
  237       12.066209   0.000000
  238       12.185490   0.000000
  239       12.250107   0.000000
  240       12.383254   0.000000
  241       12.481115   0.000000
  242       12.608429   0.000000
  243       12.649639   0.000000
  244       12.710456   0.000000
  245       12.742455   0.000000
  246       12.777237   0.000000
  247       13.047545   0.000000
  248       13.096755   0.000000
  249       13.144644   0.000000
  250       13.176648   0.000000
  251       13.209227   0.000000
  252       13.380876   0.000000
  253       13.499522   0.000000
  254       13.593297   0.000000
  255       13.644328   0.000000
  256       13.739009   0.000000
 
  0.1666667E+00 -0.1666667E+00  0.1666667E+00  0.9259259E-02
    1      -11.494372   1.000000
    2      -11.297484   1.000000
    3      -11.212589   1.000000
    4       -9.946601   1.000000
    5       -9.831862   1.000000
    6       -9.676155   1.000000
    7       -9.527743   1.000000
    8       -9.515003   1.000000
    9       -9.356813   1.000000
   10       -9.259232   1.000000
   11       -9.219635   1.000000
   12       -8.668958   1.000000
   13       -8.532086   1.000000
   14       -8.510029   1.000000
   15       -8.385865   1.000000
   16       -8.219372   1.000000
   17       -8.116412   1.000000
   18       -8.073818   1.000000
   19       -7.783620   1.000000
   20       -7.679090   1.000000
   21       -7.469026   1.000000
   22       -7.403467   1.000000
   23       -7.210500   1.000000
   24       -7.040138   1.000000
   25       -6.259928   1.000000
   26       -6.221561   1.000000
   27       -6.006442   1.000000
   28       -5.968626   1.000000
   29       -5.718214   1.000000
   30       -5.654326   1.000000
   31       -5.563012   1.000000
   32       -5.492296   1.000000
   33       -5.326872   1.000000
   34       -5.216534   1.000000
   35       -5.123865   1.000000
   36       -5.061465   1.000000
   37       -4.958276   1.000000
   38       -4.886337   1.000000
   39       -4.811651   1.000000
   40       -4.718882   1.000000
   41       -4.581313   1.000000
   42       -4.549886   1.000000
   43       -4.392878   1.000000
   44       -4.228259   1.000000
   45       -3.936424   1.000000
   46       -3.874973   1.000000
   47       -3.739428   1.000000
   48       -3.526749   1.000000
   49       -3.453022   1.000000
   50       -3.134271   1.000000
   51       -3.057397   1.000000
   52       -2.972909   1.000000
   53       -2.847497   1.000000
   54       -2.788892   1.000000
   55       -2.703851   1.000000
   56       -2.571742   1.000000
   57       -2.392033   1.000000
   58       -2.317609   1.000000
   59       -2.235622   1.000000
   60       -2.190834   1.000000
   61       -2.141999   1.000000
   62       -2.133332   1.000000
   63       -2.093343   1.000000
   64       -1.953264   1.000000
   65       -1.808623   1.000000
   66       -1.735640   1.000000
   67       -1.701303   1.000000
   68       -1.655478   1.000000
   69       -1.571776   1.000000
   70       -1.479898   1.000000
   71       -1.386113   1.000000
   72       -1.250121   1.000000
   73       -1.203958   1.000000
   74       -1.143657   1.000000
   75       -1.067880   1.000000
   76       -1.001859   1.000000
   77       -0.967955   1.000000
   78       -0.949459   1.000000
   79       -0.896591   1.000000
   80       -0.846203   1.000000
   81       -0.743320   1.000000
   82       -0.684372   1.000000
   83       -0.615698   1.000000
   84       -0.435814   1.000000
   85       -0.394236   1.000000
   86       -0.331417   1.000000
   87       -0.267492   1.000000
   88       -0.211054   1.000000
   89       -0.155780   1.000000
   90       -0.095218   1.000000
   91       -0.078120   1.000000
   92       -0.042970   1.000000
   93       -0.028777   1.000000
   94        0.107604   1.000000
   95        0.163772   1.000000
   96        0.217179   1.000000
   97        0.331598   1.000000
   98        0.446400   1.000000
   99        0.462142   1.000000
  100        0.565318   1.000000
  101        0.574549   1.000000
  102        0.620541   1.000000
  103        0.652933   1.000000
  104        0.757909   1.000000
  105        0.857529   1.000000
  106        0.924314   1.000000
  107        1.088443   1.000000
  108        1.120989   1.000000
  109        1.150823   1.000000
  110        1.176965   1.000000
  111        1.255042   1.000000
  112        1.343711   1.000000
  113        1.404882   1.000000
  114        1.432484   1.000000
  115        1.477338   1.000000
  116        1.624322   1.000000
  117        1.658271   1.000000
  118        1.705376   1.000000
  119        1.731953   1.000000
  120        1.876554   1.000000
  121        1.940369   1.000000
  122        1.978308   1.000000
  123        2.040071   1.000000
  124        2.155561   1.000000
  125        2.212489   1.000000
  126        2.225414   1.000000
  127        2.237056   1.000000
  128        2.340364   1.000000
  129        2.358343   1.000000
  130        2.465022   1.000000
  131        2.566362   1.000000
  132        2.583360   1.000000
  133        2.591592   1.000000
  134        2.694611   1.000000
  135        2.738591   1.000000
  136        2.743262   1.000000
  137        2.828000   1.000000
  138        2.830250   1.000000
  139        2.870749   1.000000
  140        2.938377   1.000000
  141        2.941075   1.000000
  142        2.947520   1.000000
  143        2.961049   1.000000
  144        3.012848   1.000000
  145        3.071058   1.000000
  146        3.076259   1.000000
  147        3.153827   1.000000
  148        3.157145   1.000000
  149        3.200109   1.000000
  150        3.200952   1.000000
  151        3.269195   1.000000
  152        3.337926   1.000000
  153        3.367106   1.000000
  154        3.385184   1.000000
  155        3.430491   1.000000
  156        3.529520   1.000000
  157        3.620668   1.000000
  158        3.670036   1.000000
  159        3.744426   1.000000
  160        3.778609   1.000000
  161        3.824624   1.000000
  162        3.865877   1.000000
  163        3.901091   1.000000
  164        3.967886   1.000000
  165        3.986754   1.000000
  166        4.031070   1.000000
  167        4.104112   1.000000
  168        4.146137   1.000000
  169        4.165701   1.000000
  170        4.259413   1.000000
  171        4.342469   1.000000
  172        4.400885   1.000000
  173        4.543687   1.000000
  174        4.659747   1.000000
  175        4.701491   1.000000
  176        4.794975   1.000000
  177        4.810150   1.000000
  178        4.851963   1.000000
  179        4.867057   1.000000
  180        4.920989   1.000000
  181        5.014983   1.000000
  182        5.060265   1.000000
  183        5.119826   1.000000
  184        5.155034   1.000000
  185        5.192464   1.000000
  186        5.310931   1.000000
  187        5.339147   1.000000
  188        5.399696   0.465796
  189        5.501921  -0.045295
  190        5.521716  -0.062478
  191        5.553190   0.000000
  192        5.588413   0.000000
  193        6.704398   0.000000
  194        6.812068   0.000000
  195        7.011721   0.000000
  196        7.723023   0.000000
  197        7.847164   0.000000
  198        7.880449   0.000000
  199        8.244322   0.000000
  200        8.802976   0.000000
  201        8.902159   0.000000
  202        9.024508   0.000000
  203        9.048623   0.000000
  204        9.125091   0.000000
  205        9.381150   0.000000
  206        9.504798   0.000000
  207        9.581001   0.000000
  208        9.655529   0.000000
  209        9.865650   0.000000
  210        9.941575   0.000000
  211        9.973492   0.000000
  212       10.045518   0.000000
  213       10.087226   0.000000
  214       10.160650   0.000000
  215       10.238851   0.000000
  216       10.418350   0.000000
  217       10.449026   0.000000
  218       10.553882   0.000000
  219       10.588105   0.000000
  220       10.907029   0.000000
  221       11.088959   0.000000
  222       11.246026   0.000000
  223       11.256664   0.000000
  224       11.325519   0.000000
  225       11.388245   0.000000
  226       11.434020   0.000000
  227       11.547699   0.000000
  228       11.638268   0.000000
  229       11.720371   0.000000
  230       11.796098   0.000000
  231       11.815035   0.000000
  232       11.839014   0.000000
  233       11.874435   0.000000
  234       11.963372   0.000000
  235       12.072050   0.000000
  236       12.122544   0.000000
  237       12.128240   0.000000
  238       12.188608   0.000000
  239       12.199880   0.000000
  240       12.223747   0.000000
  241       12.359020   0.000000
  242       12.508221   0.000000
  243       12.609373   0.000000
  244       12.676498   0.000000
  245       12.707170   0.000000
  246       12.817195   0.000000
  247       12.845880   0.000000
  248       12.897484   0.000000
  249       12.919727   0.000000
  250       12.976710   0.000000
  251       13.262520   0.000000
  252       13.385804   0.000000
  253       13.451538   0.000000
  254       13.495801   0.000000
  255       13.767065   0.000000
  256       13.830095   0.000000
 
  0.3333333E+00 -0.1666667E+00  0.1666667E+00  0.9259259E-02
    1      -11.445139   1.000000
    2      -11.330344   1.000000
    3      -11.244475   1.000000
    4       -9.922774   1.000000
    5       -9.742108   1.000000
    6       -9.691435   1.000000
    7       -9.649433   1.000000
    8       -9.555157   1.000000
    9       -9.340658   1.000000
   10       -9.244055   1.000000
   11       -9.220509   1.000000
   12       -8.629360   1.000000
   13       -8.540273   1.000000
   14       -8.506335   1.000000
   15       -8.276639   1.000000
   16       -8.163293   1.000000
   17       -8.118581   1.000000
   18       -8.006093   1.000000
   19       -7.833177   1.000000
   20       -7.703782   1.000000
   21       -7.497278   1.000000
   22       -7.368161   1.000000
   23       -7.332985   1.000000
   24       -7.149507   1.000000
   25       -6.388893   1.000000
   26       -6.180299   1.000000
   27       -6.062564   1.000000
   28       -5.809383   1.000000
   29       -5.768740   1.000000
   30       -5.607446   1.000000
   31       -5.550234   1.000000
   32       -5.472291   1.000000
   33       -5.298586   1.000000
   34       -5.137401   1.000000
   35       -5.057959   1.000000
   36       -5.038147   1.000000
   37       -4.984783   1.000000
   38       -4.915569   1.000000
   39       -4.857176   1.000000
   40       -4.764883   1.000000
   41       -4.639322   1.000000
   42       -4.605231   1.000000
   43       -4.385552   1.000000
   44       -4.275844   1.000000
   45       -4.023471   1.000000
   46       -3.903240   1.000000
   47       -3.824816   1.000000
   48       -3.651510   1.000000
   49       -3.341321   1.000000
   50       -2.899190   1.000000
   51       -2.839455   1.000000
   52       -2.830652   1.000000
   53       -2.779470   1.000000
   54       -2.679518   1.000000
   55       -2.605722   1.000000
   56       -2.477754   1.000000
   57       -2.349040   1.000000
   58       -2.308600   1.000000
   59       -2.217053   1.000000
   60       -2.169498   1.000000
   61       -2.151718   1.000000
   62       -2.009614   1.000000
   63       -1.972287   1.000000
   64       -1.818801   1.000000
   65       -1.792766   1.000000
   66       -1.790644   1.000000
   67       -1.692732   1.000000
   68       -1.677954   1.000000
   69       -1.635432   1.000000
   70       -1.550170   1.000000
   71       -1.482931   1.000000
   72       -1.418369   1.000000
   73       -1.337597   1.000000
   74       -1.304868   1.000000
   75       -1.141607   1.000000
   76       -1.114649   1.000000
   77       -1.088980   1.000000
   78       -1.001631   1.000000
   79       -0.882547   1.000000
   80       -0.869001   1.000000
   81       -0.806282   1.000000
   82       -0.732135   1.000000
   83       -0.627650   1.000000
   84       -0.539005   1.000000
   85       -0.462074   1.000000
   86       -0.397552   1.000000
   87       -0.379562   1.000000
   88       -0.315064   1.000000
   89       -0.273125   1.000000
   90       -0.174996   1.000000
   91       -0.115319   1.000000
   92       -0.095994   1.000000
   93       -0.014997   1.000000
   94        0.053874   1.000000
   95        0.219557   1.000000
   96        0.258193   1.000000
   97        0.325933   1.000000
   98        0.359330   1.000000
   99        0.410092   1.000000
  100        0.463686   1.000000
  101        0.621224   1.000000
  102        0.660899   1.000000
  103        0.738240   1.000000
  104        0.890057   1.000000
  105        0.922324   1.000000
  106        1.011589   1.000000
  107        1.091939   1.000000
  108        1.114727   1.000000
  109        1.169965   1.000000
  110        1.208635   1.000000
  111        1.327902   1.000000
  112        1.411534   1.000000
  113        1.469678   1.000000
  114        1.523030   1.000000
  115        1.546847   1.000000
  116        1.591925   1.000000
  117        1.710433   1.000000
  118        1.721419   1.000000
  119        1.793456   1.000000
  120        1.856780   1.000000
  121        1.919729   1.000000
  122        1.989033   1.000000
  123        2.091328   1.000000
  124        2.140694   1.000000
  125        2.223943   1.000000
  126        2.294806   1.000000
  127        2.342109   1.000000
  128        2.355539   1.000000
  129        2.436281   1.000000
  130        2.454216   1.000000
  131        2.530882   1.000000
  132        2.585350   1.000000
  133        2.619649   1.000000
  134        2.643047   1.000000
  135        2.664084   1.000000
  136        2.736053   1.000000
  137        2.784190   1.000000
  138        2.800913   1.000000
  139        2.860402   1.000000
  140        2.938942   1.000000
  141        2.995987   1.000000
  142        3.086128   1.000000
  143        3.107439   1.000000
  144        3.152182   1.000000
  145        3.168431   1.000000
  146        3.187833   1.000000
  147        3.196910   1.000000
  148        3.222068   1.000000
  149        3.254727   1.000000
  150        3.285864   1.000000
  151        3.364172   1.000000
  152        3.385537   1.000000
  153        3.398096   1.000000
  154        3.438861   1.000000
  155        3.458853   1.000000
  156        3.516783   1.000000
  157        3.586140   1.000000
  158        3.623076   1.000000
  159        3.701125   1.000000
  160        3.746505   1.000000
  161        3.833110   1.000000
  162        3.853652   1.000000
  163        3.979412   1.000000
  164        3.988552   1.000000
  165        4.048608   1.000000
  166        4.083680   1.000000
  167        4.114559   1.000000
  168        4.148325   1.000000
  169        4.186613   1.000000
  170        4.210533   1.000000
  171        4.283315   1.000000
  172        4.407786   1.000000
  173        4.434992   1.000000
  174        4.503496   1.000000
  175        4.533291   1.000000
  176        4.697030   1.000000
  177        4.781204   1.000000
  178        4.787791   1.000000
  179        4.804835   1.000000
  180        4.841216   1.000000
  181        4.932976   1.000000
  182        4.964489   1.000000
  183        5.012920   1.000000
  184        5.033463   1.000000
  185        5.136934   1.000000
  186        5.253952   1.000000
  187        5.287395   1.000000
  188        5.328904   1.009348
  189        5.436050   0.211834
  190        5.485313  -0.047197
  191        5.509850   0.000000
  192        5.599069   0.000000
  193        6.775554   0.000000
  194        6.810664   0.000000
  195        7.025116   0.000000
  196        7.757699   0.000000
  197        7.820834   0.000000
  198        7.882512   0.000000
  199        8.293764   0.000000
  200        8.724668   0.000000
  201        8.842846   0.000000
  202        8.988959   0.000000
  203        9.149489   0.000000
  204        9.290596   0.000000
  205        9.407291   0.000000
  206        9.597093   0.000000
  207        9.684307   0.000000
  208        9.715799   0.000000
  209        9.947331   0.000000
  210       10.033630   0.000000
  211       10.066329   0.000000
  212       10.097830   0.000000
  213       10.210657   0.000000
  214       10.294178   0.000000
  215       10.318848   0.000000
  216       10.456986   0.000000
  217       10.548743   0.000000
  218       10.714119   0.000000
  219       10.750290   0.000000
  220       10.786375   0.000000
  221       10.897331   0.000000
  222       11.129438   0.000000
  223       11.324057   0.000000
  224       11.355242   0.000000
  225       11.420551   0.000000
  226       11.521201   0.000000
  227       11.542770   0.000000
  228       11.602507   0.000000
  229       11.646617   0.000000
  230       11.718109   0.000000
  231       11.786190   0.000000
  232       11.810927   0.000000
  233       11.887094   0.000000
  234       11.924702   0.000000
  235       11.928062   0.000000
  236       11.984971   0.000000
  237       11.994152   0.000000
  238       12.027809   0.000000
  239       12.158432   0.000000
  240       12.199758   0.000000
  241       12.237488   0.000000
  242       12.300830   0.000000
  243       12.352367   0.000000
  244       12.434208   0.000000
  245       12.586952   0.000000
  246       12.629544   0.000000
  247       12.739320   0.000000
  248       12.887820   0.000000
  249       12.945583   0.000000
  250       13.058395   0.000000
  251       13.126378   0.000000
  252       13.367254   0.000000
  253       13.459488   0.000000
  254       13.549806   0.000000
  255       13.704578   0.000000
  256       13.794524   0.000000
 
  0.5000000E+00 -0.1666667E+00  0.1666667E+00  0.9259259E-02
    1      -11.418915   1.000000
    2      -11.345789   1.000000
    3      -11.259372   1.000000
    4       -9.915982   1.000000
    5       -9.814761   1.000000
    6       -9.654372   1.000000
    7       -9.596744   1.000000
    8       -9.566359   1.000000
    9       -9.353384   1.000000
   10       -9.269944   1.000000
   11       -9.166191   1.000000
   12       -8.728435   1.000000
   13       -8.569856   1.000000
   14       -8.417597   1.000000
   15       -8.307652   1.000000
   16       -8.155412   1.000000
   17       -8.015730   1.000000
   18       -7.983289   1.000000
   19       -7.825808   1.000000
   20       -7.633648   1.000000
   21       -7.616019   1.000000
   22       -7.380466   1.000000
   23       -7.294726   1.000000
   24       -7.207065   1.000000
   25       -6.426870   1.000000
   26       -6.170755   1.000000
   27       -6.020908   1.000000
   28       -5.925821   1.000000
   29       -5.742111   1.000000
   30       -5.658636   1.000000
   31       -5.535037   1.000000
   32       -5.405832   1.000000
   33       -5.338820   1.000000
   34       -5.257928   1.000000
   35       -5.176933   1.000000
   36       -5.056586   1.000000
   37       -4.894919   1.000000
   38       -4.855839   1.000000
   39       -4.850788   1.000000
   40       -4.756562   1.000000
   41       -4.555946   1.000000
   42       -4.488171   1.000000
   43       -4.354918   1.000000
   44       -4.153239   1.000000
   45       -4.065800   1.000000
   46       -4.045795   1.000000
   47       -3.866911   1.000000
   48       -3.746392   1.000000
   49       -3.175281   1.000000
   50       -2.959024   1.000000
   51       -2.807963   1.000000
   52       -2.735660   1.000000
   53       -2.597818   1.000000
   54       -2.573248   1.000000
   55       -2.453643   1.000000
   56       -2.408632   1.000000
   57       -2.370705   1.000000
   58       -2.354784   1.000000
   59       -2.274181   1.000000
   60       -2.248120   1.000000
   61       -2.152929   1.000000
   62       -2.070979   1.000000
   63       -1.997235   1.000000
   64       -1.950106   1.000000
   65       -1.865477   1.000000
   66       -1.812703   1.000000
   67       -1.776132   1.000000
   68       -1.678297   1.000000
   69       -1.590972   1.000000
   70       -1.562200   1.000000
   71       -1.430198   1.000000
   72       -1.353181   1.000000
   73       -1.282675   1.000000
   74       -1.266276   1.000000
   75       -1.193533   1.000000
   76       -1.155206   1.000000
   77       -1.102910   1.000000
   78       -1.029363   1.000000
   79       -0.989506   1.000000
   80       -0.930250   1.000000
   81       -0.793923   1.000000
   82       -0.762305   1.000000
   83       -0.753492   1.000000
   84       -0.682439   1.000000
   85       -0.592132   1.000000
   86       -0.560928   1.000000
   87       -0.403825   1.000000
   88       -0.322514   1.000000
   89       -0.229977   1.000000
   90       -0.140499   1.000000
   91       -0.103204   1.000000
   92       -0.002163   1.000000
   93        0.026377   1.000000
   94        0.094135   1.000000
   95        0.287864   1.000000
   96        0.326613   1.000000
   97        0.414407   1.000000
   98        0.503663   1.000000
   99        0.528039   1.000000
  100        0.592442   1.000000
  101        0.652941   1.000000
  102        0.677626   1.000000
  103        0.781786   1.000000
  104        0.799489   1.000000
  105        0.909686   1.000000
  106        0.982501   1.000000
  107        1.010143   1.000000
  108        1.093922   1.000000
  109        1.125295   1.000000
  110        1.167265   1.000000
  111        1.246291   1.000000
  112        1.357115   1.000000
  113        1.453941   1.000000
  114        1.537341   1.000000
  115        1.552967   1.000000
  116        1.652375   1.000000
  117        1.708901   1.000000
  118        1.801445   1.000000
  119        1.887151   1.000000
  120        1.909041   1.000000
  121        1.923861   1.000000
  122        1.947378   1.000000
  123        2.033490   1.000000
  124        2.100880   1.000000
  125        2.110385   1.000000
  126        2.198474   1.000000
  127        2.259935   1.000000
  128        2.276649   1.000000
  129        2.431425   1.000000
  130        2.494461   1.000000
  131        2.524198   1.000000
  132        2.554674   1.000000
  133        2.563358   1.000000
  134        2.614644   1.000000
  135        2.662641   1.000000
  136        2.724979   1.000000
  137        2.828971   1.000000
  138        2.849577   1.000000
  139        2.875499   1.000000
  140        2.931833   1.000000
  141        3.020697   1.000000
  142        3.090657   1.000000
  143        3.097815   1.000000
  144        3.116604   1.000000
  145        3.185152   1.000000
  146        3.196952   1.000000
  147        3.208388   1.000000
  148        3.243359   1.000000
  149        3.304522   1.000000
  150        3.308438   1.000000
  151        3.368495   1.000000
  152        3.459152   1.000000
  153        3.478071   1.000000
  154        3.514870   1.000000
  155        3.566610   1.000000
  156        3.658795   1.000000
  157        3.680106   1.000000
  158        3.729186   1.000000
  159        3.764484   1.000000
  160        3.794293   1.000000
  161        3.891436   1.000000
  162        3.902769   1.000000
  163        3.952314   1.000000
  164        3.962052   1.000000
  165        3.982504   1.000000
  166        4.100318   1.000000
  167        4.125773   1.000000
  168        4.205033   1.000000
  169        4.255801   1.000000
  170        4.320234   1.000000
  171        4.380704   1.000000
  172        4.424705   1.000000
  173        4.452097   1.000000
  174        4.560323   1.000000
  175        4.584781   1.000000
  176        4.590871   1.000000
  177        4.657282   1.000000
  178        4.704199   1.000000
  179        4.752249   1.000000
  180        4.805965   1.000000
  181        4.823508   1.000000
  182        4.881323   1.000000
  183        4.969932   1.000000
  184        4.973863   1.000000
  185        5.050867   1.000000
  186        5.087679   1.000000
  187        5.209743   1.000000
  188        5.257875   1.025862
  189        5.343962   0.930144
  190        5.429200   0.183380
  191        5.526236   0.000000
  192        5.587379   0.000000
  193        6.795892   0.000000
  194        6.869701   0.000000
  195        7.027524   0.000000
  196        7.670176   0.000000
  197        7.783671   0.000000
  198        7.849929   0.000000
  199        8.439595   0.000000
  200        8.655103   0.000000
  201        8.695238   0.000000
  202        8.933866   0.000000
  203        9.068681   0.000000
  204        9.264438   0.000000
  205        9.484273   0.000000
  206        9.640953   0.000000
  207        9.841172   0.000000
  208        9.944084   0.000000
  209        9.985366   0.000000
  210        9.999192   0.000000
  211       10.029642   0.000000
  212       10.139048   0.000000
  213       10.243635   0.000000
  214       10.402231   0.000000
  215       10.465071   0.000000
  216       10.540678   0.000000
  217       10.599208   0.000000
  218       10.774646   0.000000
  219       10.958697   0.000000
  220       11.010240   0.000000
  221       11.076070   0.000000
  222       11.149732   0.000000
  223       11.242920   0.000000
  224       11.285292   0.000000
  225       11.319184   0.000000
  226       11.390608   0.000000
  227       11.442630   0.000000
  228       11.463964   0.000000
  229       11.567859   0.000000
  230       11.649830   0.000000
  231       11.672555   0.000000
  232       11.736983   0.000000
  233       11.828639   0.000000
  234       11.854486   0.000000
  235       11.891246   0.000000
  236       11.907490   0.000000
  237       11.947702   0.000000
  238       11.969720   0.000000
  239       12.185067   0.000000
  240       12.221488   0.000000
  241       12.225274   0.000000
  242       12.273445   0.000000
  243       12.418656   0.000000
  244       12.504516   0.000000
  245       12.612846   0.000000
  246       12.639403   0.000000
  247       12.700135   0.000000
  248       12.760693   0.000000
  249       12.870752   0.000000
  250       13.043868   0.000000
  251       13.300195   0.000000
  252       13.350973   0.000000
  253       13.415384   0.000000
  254       13.543644   0.000000
  255       13.596303   0.000000
  256       13.641349   0.000000
 
 -0.3333333E+00 -0.1666667E+00  0.1666667E+00  0.9259259E-02
    1      -11.469285   1.000000
    2      -11.279625   1.000000
    3      -11.264318   1.000000
    4       -9.962911   1.000000
    5       -9.815674   1.000000
    6       -9.706216   1.000000
    7       -9.523519   1.000000
    8       -9.497572   1.000000
    9       -9.327201   1.000000
   10       -9.299364   1.000000
   11       -9.153641   1.000000
   12       -8.774584   1.000000
   13       -8.610868   1.000000
   14       -8.432163   1.000000
   15       -8.301168   1.000000
   16       -8.267353   1.000000
   17       -8.109835   1.000000
   18       -7.894999   1.000000
   19       -7.719983   1.000000
   20       -7.668488   1.000000
   21       -7.589136   1.000000
   22       -7.376259   1.000000
   23       -7.298252   1.000000
   24       -7.063907   1.000000
   25       -6.330332   1.000000
   26       -6.172079   1.000000
   27       -6.066928   1.000000
   28       -5.933895   1.000000
   29       -5.841795   1.000000
   30       -5.639868   1.000000
   31       -5.489646   1.000000
   32       -5.468501   1.000000
   33       -5.442291   1.000000
   34       -5.422005   1.000000
   35       -5.185363   1.000000
   36       -5.073487   1.000000
   37       -4.924255   1.000000
   38       -4.854793   1.000000
   39       -4.801185   1.000000
   40       -4.774656   1.000000
   41       -4.370453   1.000000
   42       -4.340648   1.000000
   43       -4.212339   1.000000
   44       -4.182347   1.000000
   45       -4.017800   1.000000
   46       -3.969423   1.000000
   47       -3.816057   1.000000
   48       -3.750498   1.000000
   49       -3.161361   1.000000
   50       -3.056127   1.000000
   51       -2.917709   1.000000
   52       -2.831446   1.000000
   53       -2.785141   1.000000
   54       -2.706845   1.000000
   55       -2.545567   1.000000
   56       -2.453609   1.000000
   57       -2.412848   1.000000
   58       -2.372372   1.000000
   59       -2.289874   1.000000
   60       -2.271993   1.000000
   61       -2.199623   1.000000
   62       -2.135570   1.000000
   63       -2.096558   1.000000
   64       -1.982286   1.000000
   65       -1.848699   1.000000
   66       -1.801453   1.000000
   67       -1.767501   1.000000
   68       -1.669917   1.000000
   69       -1.576390   1.000000
   70       -1.546547   1.000000
   71       -1.442844   1.000000
   72       -1.388690   1.000000
   73       -1.311065   1.000000
   74       -1.246162   1.000000
   75       -1.161358   1.000000
   76       -1.137513   1.000000
   77       -0.990850   1.000000
   78       -0.902335   1.000000
   79       -0.885183   1.000000
   80       -0.830689   1.000000
   81       -0.743628   1.000000
   82       -0.711429   1.000000
   83       -0.660660   1.000000
   84       -0.573457   1.000000
   85       -0.526168   1.000000
   86       -0.419474   1.000000
   87       -0.290911   1.000000
   88       -0.131314   1.000000
   89       -0.112560   1.000000
   90       -0.099011   1.000000
   91       -0.003657   1.000000
   92        0.043848   1.000000
   93        0.052578   1.000000
   94        0.119609   1.000000
   95        0.205301   1.000000
   96        0.252222   1.000000
   97        0.397473   1.000000
   98        0.489719   1.000000
   99        0.510260   1.000000
  100        0.596139   1.000000
  101        0.655155   1.000000
  102        0.697668   1.000000
  103        0.726178   1.000000
  104        0.772846   1.000000
  105        0.793737   1.000000
  106        0.944169   1.000000
  107        1.007667   1.000000
  108        1.016652   1.000000
  109        1.059024   1.000000
  110        1.121429   1.000000
  111        1.221044   1.000000
  112        1.259368   1.000000
  113        1.342348   1.000000
  114        1.503299   1.000000
  115        1.545054   1.000000
  116        1.679432   1.000000
  117        1.715328   1.000000
  118        1.814820   1.000000
  119        1.850465   1.000000
  120        1.902223   1.000000
  121        1.938559   1.000000
  122        2.009306   1.000000
  123        2.033479   1.000000
  124        2.045392   1.000000
  125        2.139928   1.000000
  126        2.191737   1.000000
  127        2.292807   1.000000
  128        2.311251   1.000000
  129        2.358022   1.000000
  130        2.359302   1.000000
  131        2.424305   1.000000
  132        2.469618   1.000000
  133        2.517562   1.000000
  134        2.530771   1.000000
  135        2.690194   1.000000
  136        2.718269   1.000000
  137        2.781884   1.000000
  138        2.784446   1.000000
  139        2.843811   1.000000
  140        2.931697   1.000000
  141        2.995302   1.000000
  142        3.005828   1.000000
  143        3.054537   1.000000
  144        3.077179   1.000000
  145        3.104799   1.000000
  146        3.146211   1.000000
  147        3.167253   1.000000
  148        3.200480   1.000000
  149        3.277736   1.000000
  150        3.292718   1.000000
  151        3.388957   1.000000
  152        3.410650   1.000000
  153        3.521916   1.000000
  154        3.557396   1.000000
  155        3.627970   1.000000
  156        3.672178   1.000000
  157        3.701107   1.000000
  158        3.748232   1.000000
  159        3.773625   1.000000
  160        3.838464   1.000000
  161        3.888202   1.000000
  162        3.902636   1.000000
  163        3.987244   1.000000
  164        3.998721   1.000000
  165        4.074643   1.000000
  166        4.126334   1.000000
  167        4.136975   1.000000
  168        4.196159   1.000000
  169        4.245258   1.000000
  170        4.282000   1.000000
  171        4.451628   1.000000
  172        4.498501   1.000000
  173        4.544317   1.000000
  174        4.568513   1.000000
  175        4.637315   1.000000
  176        4.715785   1.000000
  177        4.766920   1.000000
  178        4.796765   1.000000
  179        4.809184   1.000000
  180        4.870391   1.000000
  181        4.879064   1.000000
  182        4.916010   1.000000
  183        4.964616   1.000000
  184        5.054711   1.000000
  185        5.099338   1.000000
  186        5.113602   1.000000
  187        5.197117   1.000000
  188        5.225464   1.000000
  189        5.329464   1.012291
  190        5.350883   0.655029
  191        5.494545  -0.008256
  192        5.565504   0.000000
  193        6.796948   0.000000
  194        6.893007   0.000000
  195        7.016505   0.000000
  196        7.582448   0.000000
  197        7.744139   0.000000
  198        7.815374   0.000000
  199        8.510263   0.000000
  200        8.578415   0.000000
  201        8.700025   0.000000
  202        8.793696   0.000000
  203        9.086273   0.000000
  204        9.188692   0.000000
  205        9.364787   0.000000
  206        9.626469   0.000000
  207        9.651028   0.000000
  208        9.882972   0.000000
  209        9.968276   0.000000
  210        9.979189   0.000000
  211       10.065795   0.000000
  212       10.146375   0.000000
  213       10.276890   0.000000
  214       10.353033   0.000000
  215       10.518356   0.000000
  216       10.612572   0.000000
  217       10.692055   0.000000
  218       10.815433   0.000000
  219       10.904232   0.000000
  220       10.972013   0.000000
  221       10.996664   0.000000
  222       11.016409   0.000000
  223       11.242336   0.000000
  224       11.280068   0.000000
  225       11.327123   0.000000
  226       11.444557   0.000000
  227       11.485695   0.000000
  228       11.506558   0.000000
  229       11.560939   0.000000
  230       11.674292   0.000000
  231       11.745051   0.000000
  232       11.757706   0.000000
  233       11.792107   0.000000
  234       11.875141   0.000000
  235       12.010819   0.000000
  236       12.071948   0.000000
  237       12.092130   0.000000
  238       12.097579   0.000000
  239       12.190613   0.000000
  240       12.235536   0.000000
  241       12.283954   0.000000
  242       12.362528   0.000000
  243       12.454413   0.000000
  244       12.534744   0.000000
  245       12.575165   0.000000
  246       12.737161   0.000000
  247       12.758525   0.000000
  248       12.913859   0.000000
  249       13.025408   0.000000
  250       13.142005   0.000000
  251       13.213581   0.000000
  252       13.349874   0.000000
  253       13.376530   0.000000
  254       13.429745   0.000000
  255       13.486440   0.000000
  256       13.503501   0.000000
 
 -0.1666667E+00 -0.1666667E+00  0.1666667E+00  0.9259259E-02
    1      -11.508112   1.000000
    2      -11.270542   1.000000
    3      -11.219084   1.000000
    4       -9.993331   1.000000
    5       -9.848950   1.000000
    6       -9.648026   1.000000
    7       -9.527654   1.000000
    8       -9.484637   1.000000
    9       -9.318796   1.000000
   10       -9.222299   1.000000
   11       -9.205466   1.000000
   12       -8.758188   1.000000
   13       -8.639193   1.000000
   14       -8.509078   1.000000
   15       -8.353199   1.000000
   16       -8.321093   1.000000
   17       -8.148537   1.000000
   18       -7.876937   1.000000
   19       -7.769945   1.000000
   20       -7.595335   1.000000
   21       -7.552979   1.000000
   22       -7.399158   1.000000
   23       -7.191614   1.000000
   24       -6.957265   1.000000
   25       -6.168750   1.000000
   26       -6.131317   1.000000
   27       -6.118785   1.000000
   28       -6.073766   1.000000
   29       -5.726610   1.000000
   30       -5.676208   1.000000
   31       -5.580851   1.000000
   32       -5.542506   1.000000
   33       -5.530528   1.000000
   34       -5.388583   1.000000
   35       -5.203818   1.000000
   36       -5.044015   1.000000
   37       -5.010348   1.000000
   38       -4.848958   1.000000
   39       -4.790792   1.000000
   40       -4.685294   1.000000
   41       -4.365891   1.000000
   42       -4.241526   1.000000
   43       -4.203086   1.000000
   44       -4.023304   1.000000
   45       -4.011246   1.000000
   46       -3.919120   1.000000
   47       -3.822990   1.000000
   48       -3.575489   1.000000
   49       -3.306611   1.000000
   50       -3.199527   1.000000
   51       -3.061637   1.000000
   52       -3.007787   1.000000
   53       -2.867949   1.000000
   54       -2.767169   1.000000
   55       -2.659765   1.000000
   56       -2.604270   1.000000
   57       -2.557813   1.000000
   58       -2.509324   1.000000
   59       -2.434822   1.000000
   60       -2.360203   1.000000
   61       -2.165835   1.000000
   62       -2.100588   1.000000
   63       -2.062468   1.000000
   64       -1.981126   1.000000
   65       -1.853545   1.000000
   66       -1.689153   1.000000
   67       -1.667857   1.000000
   68       -1.645460   1.000000
   69       -1.583015   1.000000
   70       -1.526844   1.000000
   71       -1.434289   1.000000
   72       -1.318978   1.000000
   73       -1.242580   1.000000
   74       -1.191789   1.000000
   75       -1.019116   1.000000
   76       -0.941091   1.000000
   77       -0.904493   1.000000
   78       -0.878380   1.000000
   79       -0.825632   1.000000
   80       -0.773495   1.000000
   81       -0.758833   1.000000
   82       -0.648343   1.000000
   83       -0.621042   1.000000
   84       -0.433924   1.000000
   85       -0.288630   1.000000
   86       -0.269264   1.000000
   87       -0.212060   1.000000
   88       -0.136551   1.000000
   89       -0.087242   1.000000
   90       -0.046971   1.000000
   91        0.018195   1.000000
   92        0.060501   1.000000
   93        0.098886   1.000000
   94        0.114022   1.000000
   95        0.259705   1.000000
   96        0.345077   1.000000
   97        0.376958   1.000000
   98        0.408555   1.000000
   99        0.466942   1.000000
  100        0.572165   1.000000
  101        0.594940   1.000000
  102        0.677897   1.000000
  103        0.716582   1.000000
  104        0.731258   1.000000
  105        0.794540   1.000000
  106        0.816834   1.000000
  107        0.982798   1.000000
  108        1.039560   1.000000
  109        1.075206   1.000000
  110        1.112142   1.000000
  111        1.157573   1.000000
  112        1.325936   1.000000
  113        1.376975   1.000000
  114        1.419911   1.000000
  115        1.457965   1.000000
  116        1.595274   1.000000
  117        1.640928   1.000000
  118        1.666656   1.000000
  119        1.771432   1.000000
  120        1.814758   1.000000
  121        1.929248   1.000000
  122        1.998192   1.000000
  123        2.022512   1.000000
  124        2.083533   1.000000
  125        2.157491   1.000000
  126        2.241418   1.000000
  127        2.261691   1.000000
  128        2.296772   1.000000
  129        2.309955   1.000000
  130        2.359603   1.000000
  131        2.392086   1.000000
  132        2.464117   1.000000
  133        2.516547   1.000000
  134        2.587913   1.000000
  135        2.631916   1.000000
  136        2.653932   1.000000
  137        2.709704   1.000000
  138        2.769800   1.000000
  139        2.824624   1.000000
  140        2.894551   1.000000
  141        2.920016   1.000000
  142        2.943301   1.000000
  143        2.960644   1.000000
  144        2.995930   1.000000
  145        3.008488   1.000000
  146        3.019548   1.000000
  147        3.065331   1.000000
  148        3.130729   1.000000
  149        3.216824   1.000000
  150        3.344948   1.000000
  151        3.398459   1.000000
  152        3.471267   1.000000
  153        3.513262   1.000000
  154        3.535949   1.000000
  155        3.575374   1.000000
  156        3.612634   1.000000
  157        3.676090   1.000000
  158        3.737903   1.000000
  159        3.840876   1.000000
  160        3.851878   1.000000
  161        3.893405   1.000000
  162        3.925508   1.000000
  163        3.947687   1.000000
  164        4.015063   1.000000
  165        4.063053   1.000000
  166        4.120503   1.000000
  167        4.149159   1.000000
  168        4.204616   1.000000
  169        4.241417   1.000000
  170        4.424801   1.000000
  171        4.445669   1.000000
  172        4.487414   1.000000
  173        4.524968   1.000000
  174        4.583487   1.000000
  175        4.694921   1.000000
  176        4.736721   1.000000
  177        4.864679   1.000000
  178        4.880706   1.000000
  179        4.940518   1.000000
  180        4.969037   1.000000
  181        4.992824   1.000000
  182        5.011846   1.000000
  183        5.055319   1.000000
  184        5.088780   1.000000
  185        5.140866   1.000000
  186        5.221228   1.000000
  187        5.243768   1.000000
  188        5.313308   1.025401
  189        5.359852   0.823266
  190        5.426808   0.007805
  191        5.540827  -0.005488
  192        5.606503   0.000000
  193        6.750628   0.000000
  194        6.880888   0.000000
  195        7.001487   0.000000
  196        7.556702   0.000000
  197        7.750059   0.000000
  198        7.815174   0.000000
  199        8.377363   0.000000
  200        8.654233   0.000000
  201        8.716526   0.000000
  202        8.782350   0.000000
  203        9.107074   0.000000
  204        9.289821   0.000000
  205        9.356364   0.000000
  206        9.498714   0.000000
  207        9.516824   0.000000
  208        9.633780   0.000000
  209        9.725152   0.000000
  210        9.943488   0.000000
  211       10.016974   0.000000
  212       10.102707   0.000000
  213       10.129345   0.000000
  214       10.372318   0.000000
  215       10.490559   0.000000
  216       10.511291   0.000000
  217       10.526333   0.000000
  218       10.614165   0.000000
  219       10.643624   0.000000
  220       10.750211   0.000000
  221       11.080175   0.000000
  222       11.300462   0.000000
  223       11.423526   0.000000
  224       11.478331   0.000000
  225       11.489732   0.000000
  226       11.510586   0.000000
  227       11.553066   0.000000
  228       11.616576   0.000000
  229       11.693386   0.000000
  230       11.735648   0.000000
  231       11.790013   0.000000
  232       11.807787   0.000000
  233       11.844123   0.000000
  234       11.853853   0.000000
  235       11.909360   0.000000
  236       11.994993   0.000000
  237       12.022765   0.000000
  238       12.160826   0.000000
  239       12.283196   0.000000
  240       12.355905   0.000000
  241       12.409770   0.000000
  242       12.463693   0.000000
  243       12.595901   0.000000
  244       12.690127   0.000000
  245       12.805212   0.000000
  246       12.843940   0.000000
  247       12.912070   0.000000
  248       13.043652   0.000000
  249       13.073536   0.000000
  250       13.175297   0.000000
  251       13.259109   0.000000
  252       13.280133   0.000000
  253       13.319983   0.000000
  254       13.386150   0.000000
  255       13.598354   0.000000
  256       13.698130   0.000000
 
  0.0000000E+00  0.0000000E+00  0.3333333E+00  0.9259259E-02
    1      -11.520419   1.000000
    2      -11.266448   1.000000
    3      -11.195618   1.000000
    4      -10.055453   1.000000
    5       -9.885731   1.000000
    6       -9.575406   1.000000
    7       -9.538134   1.000000
    8       -9.487636   1.000000
    9       -9.273988   1.000000
   10       -9.233558   1.000000
   11       -9.200444   1.000000
   12       -8.738533   1.000000
   13       -8.646049   1.000000
   14       -8.505117   1.000000
   15       -8.390960   1.000000
   16       -8.332146   1.000000
   17       -8.121859   1.000000
   18       -7.887269   1.000000
   19       -7.760526   1.000000
   20       -7.568955   1.000000
   21       -7.546053   1.000000
   22       -7.443413   1.000000
   23       -7.197226   1.000000
   24       -6.942543   1.000000
   25       -6.227316   1.000000
   26       -6.150655   1.000000
   27       -6.064050   1.000000
   28       -5.972760   1.000000
   29       -5.704094   1.000000
   30       -5.628665   1.000000
   31       -5.596164   1.000000
   32       -5.556019   1.000000
   33       -5.517066   1.000000
   34       -5.387231   1.000000
   35       -5.194640   1.000000
   36       -5.103504   1.000000
   37       -5.068227   1.000000
   38       -4.933820   1.000000
   39       -4.803711   1.000000
   40       -4.641324   1.000000
   41       -4.425579   1.000000
   42       -4.268787   1.000000
   43       -4.246852   1.000000
   44       -4.108994   1.000000
   45       -4.021419   1.000000
   46       -3.976369   1.000000
   47       -3.800995   1.000000
   48       -3.653425   1.000000
   49       -3.322746   1.000000
   50       -3.123490   1.000000
   51       -3.060317   1.000000
   52       -2.926691   1.000000
   53       -2.812620   1.000000
   54       -2.691840   1.000000
   55       -2.680482   1.000000
   56       -2.577379   1.000000
   57       -2.501008   1.000000
   58       -2.445509   1.000000
   59       -2.242772   1.000000
   60       -2.171065   1.000000
   61       -2.146840   1.000000
   62       -2.096937   1.000000
   63       -2.030271   1.000000
   64       -1.926397   1.000000
   65       -1.897923   1.000000
   66       -1.775019   1.000000
   67       -1.734070   1.000000
   68       -1.654149   1.000000
   69       -1.572842   1.000000
   70       -1.551469   1.000000
   71       -1.419546   1.000000
   72       -1.314963   1.000000
   73       -1.297485   1.000000
   74       -1.060293   1.000000
   75       -1.038278   1.000000
   76       -1.000561   1.000000
   77       -0.966379   1.000000
   78       -0.908104   1.000000
   79       -0.859142   1.000000
   80       -0.790348   1.000000
   81       -0.749201   1.000000
   82       -0.649391   1.000000
   83       -0.580544   1.000000
   84       -0.472650   1.000000
   85       -0.311289   1.000000
   86       -0.268252   1.000000
   87       -0.237820   1.000000
   88       -0.190770   1.000000
   89       -0.115374   1.000000
   90       -0.093840   1.000000
   91       -0.015278   1.000000
   92        0.005936   1.000000
   93        0.107925   1.000000
   94        0.113542   1.000000
   95        0.255454   1.000000
   96        0.290018   1.000000
   97        0.343183   1.000000
   98        0.363926   1.000000
   99        0.461450   1.000000
  100        0.545956   1.000000
  101        0.595294   1.000000
  102        0.691209   1.000000
  103        0.770703   1.000000
  104        0.818169   1.000000
  105        0.870970   1.000000
  106        0.918504   1.000000
  107        0.970593   1.000000
  108        0.991285   1.000000
  109        1.058440   1.000000
  110        1.106740   1.000000
  111        1.161212   1.000000
  112        1.200396   1.000000
  113        1.276980   1.000000
  114        1.332627   1.000000
  115        1.508394   1.000000
  116        1.561048   1.000000
  117        1.649704   1.000000
  118        1.729308   1.000000
  119        1.766926   1.000000
  120        1.803784   1.000000
  121        1.829742   1.000000
  122        2.000143   1.000000
  123        2.021492   1.000000
  124        2.126901   1.000000
  125        2.161703   1.000000
  126        2.213021   1.000000
  127        2.240535   1.000000
  128        2.259305   1.000000
  129        2.273286   1.000000
  130        2.304660   1.000000
  131        2.369807   1.000000
  132        2.474551   1.000000
  133        2.532378   1.000000
  134        2.615356   1.000000
  135        2.646223   1.000000
  136        2.694519   1.000000
  137        2.748286   1.000000
  138        2.765266   1.000000
  139        2.843170   1.000000
  140        2.864500   1.000000
  141        2.904240   1.000000
  142        2.932771   1.000000
  143        2.951150   1.000000
  144        2.988881   1.000000
  145        3.031124   1.000000
  146        3.062102   1.000000
  147        3.221263   1.000000
  148        3.294553   1.000000
  149        3.320344   1.000000
  150        3.344393   1.000000
  151        3.379126   1.000000
  152        3.438648   1.000000
  153        3.483820   1.000000
  154        3.544768   1.000000
  155        3.572323   1.000000
  156        3.600647   1.000000
  157        3.639673   1.000000
  158        3.752102   1.000000
  159        3.814730   1.000000
  160        3.831738   1.000000
  161        3.881390   1.000000
  162        3.905846   1.000000
  163        3.947539   1.000000
  164        4.014175   1.000000
  165        4.078720   1.000000
  166        4.173571   1.000000
  167        4.285999   1.000000
  168        4.299926   1.000000
  169        4.368876   1.000000
  170        4.425497   1.000000
  171        4.521024   1.000000
  172        4.548750   1.000000
  173        4.571739   1.000000
  174        4.604604   1.000000
  175        4.644355   1.000000
  176        4.741035   1.000000
  177        4.830149   1.000000
  178        4.857350   1.000000
  179        4.894129   1.000000
  180        4.910386   1.000000
  181        4.962272   1.000000
  182        4.972730   1.000000
  183        5.016672   1.000000
  184        5.069711   1.000000
  185        5.147436   1.000000
  186        5.218686   1.000000
  187        5.252834   1.000000
  188        5.305415   1.000000
  189        5.355757   0.999899
  190        5.391078   0.580257
  191        5.407268   0.108492
  192        5.514385   0.000000
  193        6.697836   0.000000
  194        6.851433   0.000000
  195        7.016783   0.000000
  196        7.626877   0.000000
  197        7.822104   0.000000
  198        7.909465   0.000000
  199        8.339441   0.000000
  200        8.583269   0.000000
  201        8.665983   0.000000
  202        8.788135   0.000000
  203        9.184159   0.000000
  204        9.267499   0.000000
  205        9.314691   0.000000
  206        9.468394   0.000000
  207        9.613671   0.000000
  208        9.672168   0.000000
  209        9.702753   0.000000
  210        9.851180   0.000000
  211        9.930932   0.000000
  212       10.080571   0.000000
  213       10.275655   0.000000
  214       10.320283   0.000000
  215       10.471418   0.000000
  216       10.483890   0.000000
  217       10.525740   0.000000
  218       10.819124   0.000000
  219       10.873833   0.000000
  220       10.974199   0.000000
  221       11.215839   0.000000
  222       11.320889   0.000000
  223       11.347060   0.000000
  224       11.376233   0.000000
  225       11.409810   0.000000
  226       11.459164   0.000000
  227       11.610804   0.000000
  228       11.622784   0.000000
  229       11.690774   0.000000
  230       11.743470   0.000000
  231       11.794336   0.000000
  232       11.803511   0.000000
  233       11.870675   0.000000
  234       11.891353   0.000000
  235       11.984815   0.000000
  236       12.072384   0.000000
  237       12.119844   0.000000
  238       12.132924   0.000000
  239       12.223711   0.000000
  240       12.254791   0.000000
  241       12.329829   0.000000
  242       12.343753   0.000000
  243       12.354000   0.000000
  244       12.608191   0.000000
  245       12.686548   0.000000
  246       12.763395   0.000000
  247       12.879404   0.000000
  248       12.891171   0.000000
  249       13.032169   0.000000
  250       13.150191   0.000000
  251       13.176166   0.000000
  252       13.249089   0.000000
  253       13.260290   0.000000
  254       13.422472   0.000000
  255       13.736176   0.000000
  256       13.771209   0.000000
 
  0.1666667E+00  0.1387779E-16  0.3333333E+00  0.9259259E-02
    1      -11.506371   1.000000
    2      -11.269818   1.000000
    3      -11.216664   1.000000
    4      -10.027957   1.000000
    5       -9.882670   1.000000
    6       -9.621028   1.000000
    7       -9.508113   1.000000
    8       -9.408040   1.000000
    9       -9.370428   1.000000
   10       -9.240667   1.000000
   11       -9.181471   1.000000
   12       -8.760569   1.000000
   13       -8.635907   1.000000
   14       -8.520359   1.000000
   15       -8.426761   1.000000
   16       -8.256662   1.000000
   17       -8.106707   1.000000
   18       -7.922944   1.000000
   19       -7.790691   1.000000
   20       -7.552425   1.000000
   21       -7.537985   1.000000
   22       -7.424120   1.000000
   23       -7.163551   1.000000
   24       -6.992919   1.000000
   25       -6.328696   1.000000
   26       -6.210590   1.000000
   27       -5.991936   1.000000
   28       -5.882434   1.000000
   29       -5.641639   1.000000
   30       -5.621664   1.000000
   31       -5.586232   1.000000
   32       -5.549090   1.000000
   33       -5.389697   1.000000
   34       -5.296030   1.000000
   35       -5.115720   1.000000
   36       -5.077659   1.000000
   37       -5.055510   1.000000
   38       -4.938809   1.000000
   39       -4.832605   1.000000
   40       -4.756521   1.000000
   41       -4.584609   1.000000
   42       -4.516901   1.000000
   43       -4.472737   1.000000
   44       -4.203995   1.000000
   45       -3.955594   1.000000
   46       -3.928818   1.000000
   47       -3.729804   1.000000
   48       -3.556425   1.000000
   49       -3.444844   1.000000
   50       -3.203404   1.000000
   51       -3.001346   1.000000
   52       -2.954601   1.000000
   53       -2.846087   1.000000
   54       -2.775123   1.000000
   55       -2.625924   1.000000
   56       -2.571156   1.000000
   57       -2.462078   1.000000
   58       -2.354655   1.000000
   59       -2.245317   1.000000
   60       -2.137007   1.000000
   61       -2.066988   1.000000
   62       -2.020182   1.000000
   63       -1.956385   1.000000
   64       -1.815128   1.000000
   65       -1.801593   1.000000
   66       -1.702866   1.000000
   67       -1.582098   1.000000
   68       -1.469957   1.000000
   69       -1.450736   1.000000
   70       -1.448046   1.000000
   71       -1.439494   1.000000
   72       -1.256877   1.000000
   73       -1.208027   1.000000
   74       -1.122267   1.000000
   75       -1.051113   1.000000
   76       -0.934322   1.000000
   77       -0.923582   1.000000
   78       -0.886542   1.000000
   79       -0.825603   1.000000
   80       -0.800167   1.000000
   81       -0.753152   1.000000
   82       -0.682759   1.000000
   83       -0.597020   1.000000
   84       -0.570649   1.000000
   85       -0.475921   1.000000
   86       -0.369465   1.000000
   87       -0.349439   1.000000
   88       -0.284609   1.000000
   89       -0.270615   1.000000
   90       -0.250707   1.000000
   91       -0.108903   1.000000
   92       -0.066548   1.000000
   93        0.001141   1.000000
   94        0.136869   1.000000
   95        0.238742   1.000000
   96        0.266450   1.000000
   97        0.286626   1.000000
   98        0.318889   1.000000
   99        0.378545   1.000000
  100        0.442418   1.000000
  101        0.488846   1.000000
  102        0.578290   1.000000
  103        0.644680   1.000000
  104        0.827480   1.000000
  105        0.859464   1.000000
  106        0.923309   1.000000
  107        0.975103   1.000000
  108        1.062034   1.000000
  109        1.113648   1.000000
  110        1.155631   1.000000
  111        1.195933   1.000000
  112        1.255993   1.000000
  113        1.356529   1.000000
  114        1.397484   1.000000
  115        1.425177   1.000000
  116        1.574118   1.000000
  117        1.618854   1.000000
  118        1.687408   1.000000
  119        1.703686   1.000000
  120        1.765792   1.000000
  121        1.817396   1.000000
  122        1.962888   1.000000
  123        2.018281   1.000000
  124        2.138818   1.000000
  125        2.207398   1.000000
  126        2.249731   1.000000
  127        2.272444   1.000000
  128        2.281008   1.000000
  129        2.362815   1.000000
  130        2.432818   1.000000
  131        2.527512   1.000000
  132        2.541240   1.000000
  133        2.566456   1.000000
  134        2.640661   1.000000
  135        2.729841   1.000000
  136        2.745070   1.000000
  137        2.757559   1.000000
  138        2.811071   1.000000
  139        2.874486   1.000000
  140        2.941868   1.000000
  141        2.970264   1.000000
  142        2.977659   1.000000
  143        3.032295   1.000000
  144        3.056216   1.000000
  145        3.132204   1.000000
  146        3.142746   1.000000
  147        3.184533   1.000000
  148        3.263816   1.000000
  149        3.288032   1.000000
  150        3.332403   1.000000
  151        3.383129   1.000000
  152        3.396609   1.000000
  153        3.436514   1.000000
  154        3.505363   1.000000
  155        3.539589   1.000000
  156        3.601375   1.000000
  157        3.658921   1.000000
  158        3.719779   1.000000
  159        3.748655   1.000000
  160        3.787954   1.000000
  161        3.839265   1.000000
  162        3.900747   1.000000
  163        3.952924   1.000000
  164        3.993271   1.000000
  165        4.120183   1.000000
  166        4.204016   1.000000
  167        4.229638   1.000000
  168        4.264788   1.000000
  169        4.272927   1.000000
  170        4.388958   1.000000
  171        4.446810   1.000000
  172        4.497526   1.000000
  173        4.517257   1.000000
  174        4.542033   1.000000
  175        4.712666   1.000000
  176        4.785641   1.000000
  177        4.858661   1.000000
  178        4.868569   1.000000
  179        4.906755   1.000000
  180        4.926401   1.000000
  181        4.948823   1.000000
  182        4.983944   1.000000
  183        5.060065   1.000000
  184        5.105423   1.000000
  185        5.143689   1.000000
  186        5.181720   1.000000
  187        5.267398   1.000000
  188        5.298048   1.004159
  189        5.309740   1.036239
  190        5.376194   0.645309
  191        5.429800   0.088422
  192        5.444400  -0.015859
  193        6.691845   0.000000
  194        6.828925   0.000000
  195        6.980039   0.000000
  196        7.702361   0.000000
  197        7.850076   0.000000
  198        7.930675   0.000000
  199        8.263895   0.000000
  200        8.704462   0.000000
  201        8.819862   0.000000
  202        8.972238   0.000000
  203        9.223138   0.000000
  204        9.265769   0.000000
  205        9.383966   0.000000
  206        9.487740   0.000000
  207        9.525080   0.000000
  208        9.775835   0.000000
  209        9.792975   0.000000
  210        9.827486   0.000000
  211        9.913116   0.000000
  212       10.045665   0.000000
  213       10.199294   0.000000
  214       10.263275   0.000000
  215       10.364022   0.000000
  216       10.504270   0.000000
  217       10.585818   0.000000
  218       10.748719   0.000000
  219       10.867155   0.000000
  220       10.991990   0.000000
  221       11.155155   0.000000
  222       11.194988   0.000000
  223       11.331505   0.000000
  224       11.373162   0.000000
  225       11.448641   0.000000
  226       11.527510   0.000000
  227       11.588988   0.000000
  228       11.601917   0.000000
  229       11.684688   0.000000
  230       11.724437   0.000000
  231       11.767498   0.000000
  232       11.813730   0.000000
  233       11.897464   0.000000
  234       11.944200   0.000000
  235       11.948010   0.000000
  236       11.987943   0.000000
  237       12.080635   0.000000
  238       12.128531   0.000000
  239       12.135775   0.000000
  240       12.185975   0.000000
  241       12.251951   0.000000
  242       12.299807   0.000000
  243       12.303707   0.000000
  244       12.395670   0.000000
  245       12.471890   0.000000
  246       12.496017   0.000000
  247       12.659019   0.000000
  248       12.724721   0.000000
  249       12.803671   0.000000
  250       12.999875   0.000000
  251       13.256973   0.000000
  252       13.345377   0.000000
  253       13.436297   0.000000
  254       13.619609   0.000000
  255       13.666441   0.000000
  256       13.731289   0.000000
 
  0.3333333E+00  0.2775558E-16  0.3333333E+00  0.9259259E-02
    1      -11.463692   1.000000
    2      -11.294984   1.000000
    3      -11.252473   1.000000
    4       -9.980791   1.000000
    5       -9.832007   1.000000
    6       -9.649279   1.000000
    7       -9.611731   1.000000
    8       -9.471715   1.000000
    9       -9.302020   1.000000
   10       -9.244613   1.000000
   11       -9.196448   1.000000
   12       -8.660413   1.000000
   13       -8.625274   1.000000
   14       -8.578619   1.000000
   15       -8.329078   1.000000
   16       -8.190550   1.000000
   17       -8.068122   1.000000
   18       -7.977699   1.000000
   19       -7.799114   1.000000
   20       -7.617727   1.000000
   21       -7.478749   1.000000
   22       -7.432797   1.000000
   23       -7.254028   1.000000
   24       -7.108597   1.000000
   25       -6.381314   1.000000
   26       -6.359343   1.000000
   27       -5.912293   1.000000
   28       -5.722514   1.000000
   29       -5.634838   1.000000
   30       -5.582532   1.000000
   31       -5.564026   1.000000
   32       -5.496602   1.000000
   33       -5.275624   1.000000
   34       -5.133066   1.000000
   35       -5.065620   1.000000
   36       -5.026025   1.000000
   37       -5.002615   1.000000
   38       -4.982624   1.000000
   39       -4.949413   1.000000
   40       -4.844260   1.000000
   41       -4.719644   1.000000
   42       -4.674487   1.000000
   43       -4.584961   1.000000
   44       -4.332806   1.000000
   45       -3.948582   1.000000
   46       -3.882980   1.000000
   47       -3.806035   1.000000
   48       -3.614812   1.000000
   49       -3.424820   1.000000
   50       -3.148634   1.000000
   51       -2.949022   1.000000
   52       -2.869020   1.000000
   53       -2.808286   1.000000
   54       -2.787240   1.000000
   55       -2.610060   1.000000
   56       -2.519604   1.000000
   57       -2.271825   1.000000
   58       -2.219591   1.000000
   59       -2.143138   1.000000
   60       -2.110482   1.000000
   61       -2.053540   1.000000
   62       -1.967939   1.000000
   63       -1.876539   1.000000
   64       -1.711771   1.000000
   65       -1.684515   1.000000
   66       -1.568755   1.000000
   67       -1.520033   1.000000
   68       -1.488339   1.000000
   69       -1.357821   1.000000
   70       -1.336874   1.000000
   71       -1.333717   1.000000
   72       -1.293349   1.000000
   73       -1.221940   1.000000
   74       -1.151413   1.000000
   75       -1.101860   1.000000
   76       -1.056543   1.000000
   77       -1.020326   1.000000
   78       -0.977515   1.000000
   79       -0.926710   1.000000
   80       -0.898402   1.000000
   81       -0.813018   1.000000
   82       -0.777194   1.000000
   83       -0.704767   1.000000
   84       -0.633931   1.000000
   85       -0.590011   1.000000
   86       -0.450780   1.000000
   87       -0.433363   1.000000
   88       -0.393497   1.000000
   89       -0.315609   1.000000
   90       -0.253325   1.000000
   91       -0.182231   1.000000
   92       -0.080266   1.000000
   93       -0.018470   1.000000
   94        0.000021   1.000000
   95        0.051874   1.000000
   96        0.079459   1.000000
   97        0.129558   1.000000
   98        0.244995   1.000000
   99        0.262452   1.000000
  100        0.301733   1.000000
  101        0.488993   1.000000
  102        0.635274   1.000000
  103        0.703450   1.000000
  104        0.814879   1.000000
  105        0.830632   1.000000
  106        0.974752   1.000000
  107        1.032107   1.000000
  108        1.131974   1.000000
  109        1.189817   1.000000
  110        1.231557   1.000000
  111        1.281206   1.000000
  112        1.349578   1.000000
  113        1.383895   1.000000
  114        1.410089   1.000000
  115        1.541611   1.000000
  116        1.550447   1.000000
  117        1.621560   1.000000
  118        1.688582   1.000000
  119        1.832432   1.000000
  120        1.916223   1.000000
  121        1.925525   1.000000
  122        1.976456   1.000000
  123        2.021494   1.000000
  124        2.110486   1.000000
  125        2.189537   1.000000
  126        2.196803   1.000000
  127        2.244725   1.000000
  128        2.254255   1.000000
  129        2.275094   1.000000
  130        2.392504   1.000000
  131        2.552627   1.000000
  132        2.621762   1.000000
  133        2.686424   1.000000
  134        2.698417   1.000000
  135        2.826669   1.000000
  136        2.874480   1.000000
  137        2.892690   1.000000
  138        2.940408   1.000000
  139        2.954481   1.000000
  140        2.998267   1.000000
  141        3.030296   1.000000
  142        3.051587   1.000000
  143        3.101674   1.000000
  144        3.127608   1.000000
  145        3.168883   1.000000
  146        3.207884   1.000000
  147        3.238050   1.000000
  148        3.249651   1.000000
  149        3.314670   1.000000
  150        3.333341   1.000000
  151        3.378306   1.000000
  152        3.399149   1.000000
  153        3.486272   1.000000
  154        3.566187   1.000000
  155        3.613866   1.000000
  156        3.642736   1.000000
  157        3.658386   1.000000
  158        3.661844   1.000000
  159        3.762027   1.000000
  160        3.819147   1.000000
  161        3.846403   1.000000
  162        3.864897   1.000000
  163        3.886682   1.000000
  164        4.007776   1.000000
  165        4.082897   1.000000
  166        4.127162   1.000000
  167        4.170250   1.000000
  168        4.234663   1.000000
  169        4.273287   1.000000
  170        4.304626   1.000000
  171        4.347152   1.000000
  172        4.429056   1.000000
  173        4.483387   1.000000
  174        4.571643   1.000000
  175        4.647761   1.000000
  176        4.703931   1.000000
  177        4.725950   1.000000
  178        4.825827   1.000000
  179        4.842248   1.000000
  180        4.864615   1.000000
  181        4.921928   1.000000
  182        4.941045   1.000000
  183        4.967680   1.000000
  184        5.073686   1.000000
  185        5.097335   1.000000
  186        5.117565   1.000000
  187        5.174017   1.000000
  188        5.245485   1.010977
  189        5.272075   1.037531
  190        5.342894   0.822909
  191        5.419105   0.136164
  192        5.472847  -0.028513
  193        6.754675   0.000000
  194        6.817777   0.000000
  195        6.958458   0.000000
  196        7.767278   0.000000
  197        7.831200   0.000000
  198        7.922282   0.000000
  199        8.215170   0.000000
  200        8.865118   0.000000
  201        8.967413   0.000000
  202        9.118354   0.000000
  203        9.210131   0.000000
  204        9.300831   0.000000
  205        9.466197   0.000000
  206        9.516793   0.000000
  207        9.548056   0.000000
  208        9.684075   0.000000
  209        9.797000   0.000000
  210        9.997400   0.000000
  211       10.055425   0.000000
  212       10.146449   0.000000
  213       10.297320   0.000000
  214       10.400962   0.000000
  215       10.477768   0.000000
  216       10.576395   0.000000
  217       10.674550   0.000000
  218       10.712171   0.000000
  219       10.841242   0.000000
  220       10.980933   0.000000
  221       11.085527   0.000000
  222       11.238650   0.000000
  223       11.265495   0.000000
  224       11.346019   0.000000
  225       11.366594   0.000000
  226       11.399861   0.000000
  227       11.439341   0.000000
  228       11.536424   0.000000
  229       11.702180   0.000000
  230       11.710974   0.000000
  231       11.742245   0.000000
  232       11.779111   0.000000
  233       11.826862   0.000000
  234       11.841311   0.000000
  235       11.917309   0.000000
  236       11.935217   0.000000
  237       11.989704   0.000000
  238       12.046951   0.000000
  239       12.053981   0.000000
  240       12.107776   0.000000
  241       12.122656   0.000000
  242       12.149838   0.000000
  243       12.269090   0.000000
  244       12.308076   0.000000
  245       12.366250   0.000000
  246       12.419031   0.000000
  247       12.443637   0.000000
  248       12.506026   0.000000
  249       12.547430   0.000000
  250       12.856402   0.000000
  251       13.019171   0.000000
  252       13.150619   0.000000
  253       13.525651   0.000000
  254       13.652451   0.000000
  255       13.877679   0.000000
  256       13.940554   0.000000
 
  0.5000000E+00  0.5551115E-16  0.3333333E+00  0.9259259E-02
    1      -11.420662   1.000000
    2      -11.339425   1.000000
    3      -11.259059   1.000000
    4       -9.935993   1.000000
    5       -9.815490   1.000000
    6       -9.736923   1.000000
    7       -9.608336   1.000000
    8       -9.458212   1.000000
    9       -9.392319   1.000000
   10       -9.233760   1.000000
   11       -9.146376   1.000000
   12       -8.669112   1.000000
   13       -8.612821   1.000000
   14       -8.482926   1.000000
   15       -8.260816   1.000000
   16       -8.162502   1.000000
   17       -8.057041   1.000000
   18       -7.925475   1.000000
   19       -7.841304   1.000000
   20       -7.670814   1.000000
   21       -7.479124   1.000000
   22       -7.415990   1.000000
   23       -7.346358   1.000000
   24       -7.227851   1.000000
   25       -6.490441   1.000000
   26       -6.279846   1.000000
   27       -5.933805   1.000000
   28       -5.757800   1.000000
   29       -5.723624   1.000000
   30       -5.560562   1.000000
   31       -5.496404   1.000000
   32       -5.399879   1.000000
   33       -5.307083   1.000000
   34       -5.217902   1.000000
   35       -5.076045   1.000000
   36       -5.012474   1.000000
   37       -4.988286   1.000000
   38       -4.911990   1.000000
   39       -4.809194   1.000000
   40       -4.774250   1.000000
   41       -4.722025   1.000000
   42       -4.636572   1.000000
   43       -4.565642   1.000000
   44       -4.391887   1.000000
   45       -4.026797   1.000000
   46       -3.964198   1.000000
   47       -3.895416   1.000000
   48       -3.724239   1.000000
   49       -3.304252   1.000000
   50       -2.959985   1.000000
   51       -2.888872   1.000000
   52       -2.837975   1.000000
   53       -2.770652   1.000000
   54       -2.684922   1.000000
   55       -2.463428   1.000000
   56       -2.410167   1.000000
   57       -2.287825   1.000000
   58       -2.230018   1.000000
   59       -2.090861   1.000000
   60       -2.060724   1.000000
   61       -1.921613   1.000000
   62       -1.887880   1.000000
   63       -1.834331   1.000000
   64       -1.808865   1.000000
   65       -1.713177   1.000000
   66       -1.659754   1.000000
   67       -1.615877   1.000000
   68       -1.583739   1.000000
   69       -1.501749   1.000000
   70       -1.455912   1.000000
   71       -1.419488   1.000000
   72       -1.367864   1.000000
   73       -1.270044   1.000000
   74       -1.217318   1.000000
   75       -1.178093   1.000000
   76       -1.152504   1.000000
   77       -1.106305   1.000000
   78       -1.039194   1.000000
   79       -0.984491   1.000000
   80       -0.921602   1.000000
   81       -0.858277   1.000000
   82       -0.769772   1.000000
   83       -0.683070   1.000000
   84       -0.596427   1.000000
   85       -0.589194   1.000000
   86       -0.563470   1.000000
   87       -0.444075   1.000000
   88       -0.413098   1.000000
   89       -0.377789   1.000000
   90       -0.349561   1.000000
   91       -0.225752   1.000000
   92       -0.163961   1.000000
   93       -0.064740   1.000000
   94        0.009008   1.000000
   95        0.189618   1.000000
   96        0.223949   1.000000
   97        0.273056   1.000000
   98        0.319949   1.000000
   99        0.386957   1.000000
  100        0.411656   1.000000
  101        0.512962   1.000000
  102        0.589832   1.000000
  103        0.678920   1.000000
  104        0.746212   1.000000
  105        0.937261   1.000000
  106        0.966517   1.000000
  107        1.062718   1.000000
  108        1.094092   1.000000
  109        1.124807   1.000000
  110        1.255411   1.000000
  111        1.307315   1.000000
  112        1.342150   1.000000
  113        1.446831   1.000000
  114        1.474699   1.000000
  115        1.536267   1.000000
  116        1.611947   1.000000
  117        1.645901   1.000000
  118        1.735522   1.000000
  119        1.772031   1.000000
  120        1.852036   1.000000
  121        1.963220   1.000000
  122        2.034976   1.000000
  123        2.048035   1.000000
  124        2.080801   1.000000
  125        2.160435   1.000000
  126        2.264398   1.000000
  127        2.281546   1.000000
  128        2.382668   1.000000
  129        2.419990   1.000000
  130        2.439269   1.000000
  131        2.503318   1.000000
  132        2.590394   1.000000
  133        2.637445   1.000000
  134        2.689142   1.000000
  135        2.692751   1.000000
  136        2.815860   1.000000
  137        2.824528   1.000000
  138        2.854574   1.000000
  139        2.909908   1.000000
  140        2.994122   1.000000
  141        3.047351   1.000000
  142        3.084221   1.000000
  143        3.107827   1.000000
  144        3.152235   1.000000
  145        3.245379   1.000000
  146        3.313319   1.000000
  147        3.346746   1.000000
  148        3.377024   1.000000
  149        3.393476   1.000000
  150        3.412830   1.000000
  151        3.419784   1.000000
  152        3.434051   1.000000
  153        3.527253   1.000000
  154        3.555773   1.000000
  155        3.582368   1.000000
  156        3.617128   1.000000
  157        3.692696   1.000000
  158        3.726435   1.000000
  159        3.782014   1.000000
  160        3.847422   1.000000
  161        3.874014   1.000000
  162        3.927145   1.000000
  163        4.008825   1.000000
  164        4.027936   1.000000
  165        4.053429   1.000000
  166        4.094205   1.000000
  167        4.173168   1.000000
  168        4.192106   1.000000
  169        4.219490   1.000000
  170        4.268597   1.000000
  171        4.337024   1.000000
  172        4.437419   1.000000
  173        4.473520   1.000000
  174        4.559475   1.000000
  175        4.590977   1.000000
  176        4.634833   1.000000
  177        4.654645   1.000000
  178        4.715848   1.000000
  179        4.730328   1.000000
  180        4.775864   1.000000
  181        4.821994   1.000000
  182        4.868702   1.000000
  183        4.954742   1.000000
  184        5.005864   1.000000
  185        5.053742   1.000000
  186        5.058488   1.000000
  187        5.121397   1.000000
  188        5.181337   1.000000
  189        5.201255   1.062833
  190        5.337288   0.925017
  191        5.423531   0.018491
  192        5.496174   0.000000
  193        6.755777   0.000000
  194        6.884590   0.000000
  195        6.970503   0.000000
  196        7.729017   0.000000
  197        7.817212   0.000000
  198        7.888073   0.000000
  199        8.280870   0.000000
  200        8.760845   0.000000
  201        8.886161   0.000000
  202        9.049956   0.000000
  203        9.264092   0.000000
  204        9.359605   0.000000
  205        9.470950   0.000000
  206        9.545890   0.000000
  207        9.629456   0.000000
  208        9.844955   0.000000
  209        9.903105   0.000000
  210       10.063526   0.000000
  211       10.147254   0.000000
  212       10.273413   0.000000
  213       10.362644   0.000000
  214       10.400096   0.000000
  215       10.563393   0.000000
  216       10.703648   0.000000
  217       10.749616   0.000000
  218       10.923700   0.000000
  219       10.986305   0.000000
  220       11.047034   0.000000
  221       11.083497   0.000000
  222       11.159046   0.000000
  223       11.209768   0.000000
  224       11.236058   0.000000
  225       11.304810   0.000000
  226       11.376532   0.000000
  227       11.423582   0.000000
  228       11.455706   0.000000
  229       11.494695   0.000000
  230       11.560133   0.000000
  231       11.597094   0.000000
  232       11.658471   0.000000
  233       11.741093   0.000000
  234       11.778922   0.000000
  235       11.832116   0.000000
  236       11.884098   0.000000
  237       11.953025   0.000000
  238       12.010569   0.000000
  239       12.081264   0.000000
  240       12.119444   0.000000
  241       12.195205   0.000000
  242       12.214344   0.000000
  243       12.261085   0.000000
  244       12.302411   0.000000
  245       12.339866   0.000000
  246       12.425280   0.000000
  247       12.504053   0.000000
  248       12.639818   0.000000
  249       12.678777   0.000000
  250       12.720232   0.000000
  251       12.783133   0.000000
  252       12.932354   0.000000
  253       13.664414   0.000000
  254       13.708188   0.000000
  255       13.723181   0.000000
  256       13.732336   0.000000
 
 -0.3333333E+00 -0.2775558E-16  0.3333333E+00  0.9259259E-02
    1      -11.457492   1.000000
    2      -11.299214   1.000000
    3      -11.252747   1.000000
    4       -9.957400   1.000000
    5       -9.863156   1.000000
    6       -9.714709   1.000000
    7       -9.571775   1.000000
    8       -9.489836   1.000000
    9       -9.317086   1.000000
   10       -9.269977   1.000000
   11       -9.149179   1.000000
   12       -8.720552   1.000000
   13       -8.597215   1.000000
   14       -8.378010   1.000000
   15       -8.327016   1.000000
   16       -8.159402   1.000000
   17       -8.042648   1.000000
   18       -7.979352   1.000000
   19       -7.779826   1.000000
   20       -7.633500   1.000000
   21       -7.543780   1.000000
   22       -7.467638   1.000000
   23       -7.338591   1.000000
   24       -7.177672   1.000000
   25       -6.483051   1.000000
   26       -6.103292   1.000000
   27       -5.987757   1.000000
   28       -5.963775   1.000000
   29       -5.877081   1.000000
   30       -5.499449   1.000000
   31       -5.447055   1.000000
   32       -5.433295   1.000000
   33       -5.394190   1.000000
   34       -5.261784   1.000000
   35       -5.164891   1.000000
   36       -5.027196   1.000000
   37       -5.016312   1.000000
   38       -4.884117   1.000000
   39       -4.729199   1.000000
   40       -4.696325   1.000000
   41       -4.589069   1.000000
   42       -4.480089   1.000000
   43       -4.364915   1.000000
   44       -4.266430   1.000000
   45       -4.099655   1.000000
   46       -4.019288   1.000000
   47       -3.984899   1.000000
   48       -3.780218   1.000000
   49       -3.144962   1.000000
   50       -2.985561   1.000000
   51       -2.823105   1.000000
   52       -2.751800   1.000000
   53       -2.697100   1.000000
   54       -2.593919   1.000000
   55       -2.438384   1.000000
   56       -2.379145   1.000000
   57       -2.306890   1.000000
   58       -2.274278   1.000000
   59       -2.195623   1.000000
   60       -2.126563   1.000000
   61       -2.115760   1.000000
   62       -2.050910   1.000000
   63       -1.942881   1.000000
   64       -1.885814   1.000000
   65       -1.871054   1.000000
   66       -1.857034   1.000000
   67       -1.725992   1.000000
   68       -1.675659   1.000000
   69       -1.577397   1.000000
   70       -1.527512   1.000000
   71       -1.450352   1.000000
   72       -1.362997   1.000000
   73       -1.320832   1.000000
   74       -1.259544   1.000000
   75       -1.254909   1.000000
   76       -1.182080   1.000000
   77       -1.121319   1.000000
   78       -1.097403   1.000000
   79       -0.977922   1.000000
   80       -0.866993   1.000000
   81       -0.729081   1.000000
   82       -0.712178   1.000000
   83       -0.662779   1.000000
   84       -0.642894   1.000000
   85       -0.528339   1.000000
   86       -0.498419   1.000000
   87       -0.449367   1.000000
   88       -0.378579   1.000000
   89       -0.167902   1.000000
   90       -0.098060   1.000000
   91       -0.066261   1.000000
   92       -0.005272   1.000000
   93        0.055297   1.000000
   94        0.201370   1.000000
   95        0.245956   1.000000
   96        0.260266   1.000000
   97        0.342094   1.000000
   98        0.402532   1.000000
   99        0.459171   1.000000
  100        0.495465   1.000000
  101        0.556080   1.000000
  102        0.622362   1.000000
  103        0.675205   1.000000
  104        0.758548   1.000000
  105        0.833964   1.000000
  106        0.889612   1.000000
  107        1.032289   1.000000
  108        1.068966   1.000000
  109        1.142712   1.000000
  110        1.197896   1.000000
  111        1.221768   1.000000
  112        1.293109   1.000000
  113        1.321723   1.000000
  114        1.506355   1.000000
  115        1.564952   1.000000
  116        1.656801   1.000000
  117        1.740116   1.000000
  118        1.843624   1.000000
  119        1.865003   1.000000
  120        1.912667   1.000000
  121        1.934849   1.000000
  122        1.959489   1.000000
  123        2.021247   1.000000
  124        2.061037   1.000000
  125        2.098454   1.000000
  126        2.145385   1.000000
  127        2.184343   1.000000
  128        2.265740   1.000000
  129        2.337510   1.000000
  130        2.494431   1.000000
  131        2.508830   1.000000
  132        2.539399   1.000000
  133        2.545856   1.000000
  134        2.628401   1.000000
  135        2.734098   1.000000
  136        2.766136   1.000000
  137        2.830853   1.000000
  138        2.899454   1.000000
  139        2.932327   1.000000
  140        2.934599   1.000000
  141        3.047583   1.000000
  142        3.088059   1.000000
  143        3.131450   1.000000
  144        3.159561   1.000000
  145        3.209027   1.000000
  146        3.234928   1.000000
  147        3.280886   1.000000
  148        3.285876   1.000000
  149        3.320691   1.000000
  150        3.406900   1.000000
  151        3.442100   1.000000
  152        3.475015   1.000000
  153        3.491401   1.000000
  154        3.544666   1.000000
  155        3.566144   1.000000
  156        3.654440   1.000000
  157        3.665943   1.000000
  158        3.717654   1.000000
  159        3.727281   1.000000
  160        3.859776   1.000000
  161        3.870425   1.000000
  162        3.901123   1.000000
  163        3.960392   1.000000
  164        3.999115   1.000000
  165        4.015349   1.000000
  166        4.095121   1.000000
  167        4.163169   1.000000
  168        4.211135   1.000000
  169        4.270827   1.000000
  170        4.287829   1.000000
  171        4.386189   1.000000
  172        4.446242   1.000000
  173        4.511521   1.000000
  174        4.578134   1.000000
  175        4.607504   1.000000
  176        4.680131   1.000000
  177        4.783205   1.000000
  178        4.799983   1.000000
  179        4.843976   1.000000
  180        4.853755   1.000000
  181        4.870753   1.000000
  182        4.905383   1.000000
  183        4.942796   1.000000
  184        4.976044   1.000000
  185        5.041861   1.000000
  186        5.058786   1.000000
  187        5.105421   1.000000
  188        5.125569   1.000000
  189        5.206755   1.011545
  190        5.336584   1.010608
  191        5.435163  -0.100281
  192        5.450225   0.000000
  193        6.745486   0.000000
  194        6.908154   0.000000
  195        7.016155   0.000000
  196        7.642817   0.000000
  197        7.806283   0.000000
  198        7.850217   0.000000
  199        8.442501   0.000000
  200        8.579683   0.000000
  201        8.711672   0.000000
  202        8.909351   0.000000
  203        9.105520   0.000000
  204        9.265330   0.000000
  205        9.420260   0.000000
  206        9.509497   0.000000
  207        9.829581   0.000000
  208        9.920191   0.000000
  209        9.980117   0.000000
  210       10.075780   0.000000
  211       10.112630   0.000000
  212       10.189495   0.000000
  213       10.299476   0.000000
  214       10.489562   0.000000
  215       10.605630   0.000000
  216       10.771491   0.000000
  217       10.784007   0.000000
  218       10.898012   0.000000
  219       10.927322   0.000000
  220       10.948633   0.000000
  221       11.033622   0.000000
  222       11.141114   0.000000
  223       11.263534   0.000000
  224       11.290067   0.000000
  225       11.340005   0.000000
  226       11.417088   0.000000
  227       11.422832   0.000000
  228       11.495518   0.000000
  229       11.552110   0.000000
  230       11.598783   0.000000
  231       11.622106   0.000000
  232       11.669157   0.000000
  233       11.760161   0.000000
  234       11.847915   0.000000
  235       11.884413   0.000000
  236       11.937417   0.000000
  237       12.025654   0.000000
  238       12.078765   0.000000
  239       12.195753   0.000000
  240       12.255941   0.000000
  241       12.306518   0.000000
  242       12.322658   0.000000
  243       12.357544   0.000000
  244       12.393668   0.000000
  245       12.461098   0.000000
  246       12.490233   0.000000
  247       12.529536   0.000000
  248       12.560825   0.000000
  249       12.601558   0.000000
  250       12.965471   0.000000
  251       12.999109   0.000000
  252       13.031817   0.000000
  253       13.330151   0.000000
  254       13.339469   0.000000
  255       13.646770   0.000000
  256       13.701203   0.000000
 
 -0.1666667E+00 -0.1387779E-16  0.3333333E+00  0.9259259E-02
    1      -11.502325   1.000000
    2      -11.270163   1.000000
    3      -11.218623   1.000000
    4      -10.034819   1.000000
    5       -9.841769   1.000000
    6       -9.708777   1.000000
    7       -9.516318   1.000000
    8       -9.473347   1.000000
    9       -9.298072   1.000000
   10       -9.250313   1.000000
   11       -9.177494   1.000000
   12       -8.729030   1.000000
   13       -8.605885   1.000000
   14       -8.430447   1.000000
   15       -8.332235   1.000000
   16       -8.316983   1.000000
   17       -8.096496   1.000000
   18       -7.915785   1.000000
   19       -7.715214   1.000000
   20       -7.630964   1.000000
   21       -7.556894   1.000000
   22       -7.447414   1.000000
   23       -7.310424   1.000000
   24       -7.018455   1.000000
   25       -6.350971   1.000000
   26       -6.112327   1.000000
   27       -6.009460   1.000000
   28       -5.970518   1.000000
   29       -5.880984   1.000000
   30       -5.551283   1.000000
   31       -5.528743   1.000000
   32       -5.497794   1.000000
   33       -5.451755   1.000000
   34       -5.427741   1.000000
   35       -5.187672   1.000000
   36       -5.062102   1.000000
   37       -4.993150   1.000000
   38       -4.966767   1.000000
   39       -4.783292   1.000000
   40       -4.640176   1.000000
   41       -4.393191   1.000000
   42       -4.340158   1.000000
   43       -4.171674   1.000000
   44       -4.101846   1.000000
   45       -4.061880   1.000000
   46       -4.020062   1.000000
   47       -3.895896   1.000000
   48       -3.811661   1.000000
   49       -3.103791   1.000000
   50       -3.055540   1.000000
   51       -2.969247   1.000000
   52       -2.770483   1.000000
   53       -2.750466   1.000000
   54       -2.683144   1.000000
   55       -2.590228   1.000000
   56       -2.526255   1.000000
   57       -2.416758   1.000000
   58       -2.355372   1.000000
   59       -2.267125   1.000000
   60       -2.192916   1.000000
   61       -2.149235   1.000000
   62       -2.096544   1.000000
   63       -2.012454   1.000000
   64       -1.997044   1.000000
   65       -1.920310   1.000000
   66       -1.836535   1.000000
   67       -1.802037   1.000000
   68       -1.705058   1.000000
   69       -1.622880   1.000000
   70       -1.558698   1.000000
   71       -1.522192   1.000000
   72       -1.385661   1.000000
   73       -1.335219   1.000000
   74       -1.269643   1.000000
   75       -1.190096   1.000000
   76       -1.133655   1.000000
   77       -0.929271   1.000000
   78       -0.912820   1.000000
   79       -0.836157   1.000000
   80       -0.781317   1.000000
   81       -0.722141   1.000000
   82       -0.665307   1.000000
   83       -0.549692   1.000000
   84       -0.462525   1.000000
   85       -0.440483   1.000000
   86       -0.399626   1.000000
   87       -0.362419   1.000000
   88       -0.236710   1.000000
   89       -0.119947   1.000000
   90       -0.101150   1.000000
   91       -0.024615   1.000000
   92        0.038622   1.000000
   93        0.095840   1.000000
   94        0.226882   1.000000
   95        0.279726   1.000000
   96        0.343463   1.000000
   97        0.412207   1.000000
   98        0.457496   1.000000
   99        0.496181   1.000000
  100        0.549898   1.000000
  101        0.652536   1.000000
  102        0.700615   1.000000
  103        0.706929   1.000000
  104        0.800763   1.000000
  105        0.858470   1.000000
  106        0.902945   1.000000
  107        0.916533   1.000000
  108        1.025441   1.000000
  109        1.041841   1.000000
  110        1.097950   1.000000
  111        1.141404   1.000000
  112        1.253933   1.000000
  113        1.338748   1.000000
  114        1.437293   1.000000
  115        1.535452   1.000000
  116        1.631613   1.000000
  117        1.729606   1.000000
  118        1.786613   1.000000
  119        1.834715   1.000000
  120        1.848948   1.000000
  121        1.887462   1.000000
  122        1.946616   1.000000
  123        2.008129   1.000000
  124        2.041585   1.000000
  125        2.130220   1.000000
  126        2.151688   1.000000
  127        2.212450   1.000000
  128        2.245930   1.000000
  129        2.324178   1.000000
  130        2.405349   1.000000
  131        2.443806   1.000000
  132        2.486686   1.000000
  133        2.543130   1.000000
  134        2.591530   1.000000
  135        2.658778   1.000000
  136        2.706384   1.000000
  137        2.766688   1.000000
  138        2.829655   1.000000
  139        2.841389   1.000000
  140        2.913423   1.000000
  141        2.958871   1.000000
  142        2.987047   1.000000
  143        3.031979   1.000000
  144        3.047693   1.000000
  145        3.066046   1.000000
  146        3.088534   1.000000
  147        3.177677   1.000000
  148        3.226134   1.000000
  149        3.326808   1.000000
  150        3.362142   1.000000
  151        3.409362   1.000000
  152        3.458134   1.000000
  153        3.485624   1.000000
  154        3.573652   1.000000
  155        3.592155   1.000000
  156        3.663208   1.000000
  157        3.688712   1.000000
  158        3.733780   1.000000
  159        3.791168   1.000000
  160        3.810326   1.000000
  161        3.839544   1.000000
  162        3.922232   1.000000
  163        3.967028   1.000000
  164        4.020842   1.000000
  165        4.116995   1.000000
  166        4.163316   1.000000
  167        4.189035   1.000000
  168        4.240085   1.000000
  169        4.316757   1.000000
  170        4.362453   1.000000
  171        4.438453   1.000000
  172        4.507187   1.000000
  173        4.545984   1.000000
  174        4.566525   1.000000
  175        4.639608   1.000000
  176        4.766554   1.000000
  177        4.820082   1.000000
  178        4.844495   1.000000
  179        4.863044   1.000000
  180        4.915336   1.000000
  181        4.935896   1.000000
  182        4.970425   1.000000
  183        4.981044   1.000000
  184        5.005027   1.000000
  185        5.046042   1.000000
  186        5.126425   1.000000
  187        5.271362   1.000000
  188        5.278664   1.000000
  189        5.321089   1.000000
  190        5.373253   0.864839
  191        5.397158   0.120311
  192        5.410225   0.000000
  193        6.737848   0.000000
  194        6.880695   0.000000
  195        7.037300   0.000000
  196        7.601231   0.000000
  197        7.790751   0.000000
  198        7.866217   0.000000
  199        8.413111   0.000000
  200        8.601751   0.000000
  201        8.624816   0.000000
  202        8.737638   0.000000
  203        9.053780   0.000000
  204        9.253730   0.000000
  205        9.325303   0.000000
  206        9.509997   0.000000
  207        9.680458   0.000000
  208        9.723412   0.000000
  209        9.865638   0.000000
  210        9.948520   0.000000
  211       10.070555   0.000000
  212       10.264414   0.000000
  213       10.289582   0.000000
  214       10.352702   0.000000
  215       10.532476   0.000000
  216       10.587269   0.000000
  217       10.649468   0.000000
  218       10.874446   0.000000
  219       10.887260   0.000000
  220       11.031073   0.000000
  221       11.069907   0.000000
  222       11.198649   0.000000
  223       11.253798   0.000000
  224       11.374784   0.000000
  225       11.414599   0.000000
  226       11.499958   0.000000
  227       11.606464   0.000000
  228       11.615527   0.000000
  229       11.699982   0.000000
  230       11.713943   0.000000
  231       11.763507   0.000000
  232       11.775533   0.000000
  233       11.784030   0.000000
  234       11.805927   0.000000
  235       11.911132   0.000000
  236       12.018813   0.000000
  237       12.106287   0.000000
  238       12.184645   0.000000
  239       12.225277   0.000000
  240       12.272223   0.000000
  241       12.282681   0.000000
  242       12.362171   0.000000
  243       12.381832   0.000000
  244       12.530454   0.000000
  245       12.672102   0.000000
  246       12.707778   0.000000
  247       12.832758   0.000000
  248       12.852957   0.000000
  249       12.890736   0.000000
  250       12.941725   0.000000
  251       12.958254   0.000000
  252       13.294856   0.000000
  253       13.366138   0.000000
  254       13.424935   0.000000
  255       13.448247   0.000000
  256       13.507219   0.000000
 
  0.0000000E+00  0.1666667E+00  0.3333333E+00  0.9259259E-02
    1      -11.514049   1.000000
    2      -11.279009   1.000000
    3      -11.196584   1.000000
    4      -10.013754   1.000000
    5       -9.889830   1.000000
    6       -9.636530   1.000000
    7       -9.523723   1.000000
    8       -9.403552   1.000000
    9       -9.366929   1.000000
   10       -9.230279   1.000000
   11       -9.122809   1.000000
   12       -8.788144   1.000000
   13       -8.645998   1.000000
   14       -8.551032   1.000000
   15       -8.474711   1.000000
   16       -8.306471   1.000000
   17       -8.047612   1.000000
   18       -7.923095   1.000000
   19       -7.807207   1.000000
   20       -7.532481   1.000000
   21       -7.485681   1.000000
   22       -7.413115   1.000000
   23       -7.131774   1.000000
   24       -6.991078   1.000000
   25       -6.198308   1.000000
   26       -6.150140   1.000000
   27       -6.085015   1.000000
   28       -6.047970   1.000000
   29       -5.682366   1.000000
   30       -5.642893   1.000000
   31       -5.630365   1.000000
   32       -5.541783   1.000000
   33       -5.496324   1.000000
   34       -5.424772   1.000000
   35       -5.274151   1.000000
   36       -5.034580   1.000000
   37       -4.960401   1.000000
   38       -4.916221   1.000000
   39       -4.814941   1.000000
   40       -4.607793   1.000000
   41       -4.300580   1.000000
   42       -4.233272   1.000000
   43       -4.223820   1.000000
   44       -4.175247   1.000000
   45       -4.082495   1.000000
   46       -3.896509   1.000000
   47       -3.840233   1.000000
   48       -3.628171   1.000000
   49       -3.292854   1.000000
   50       -3.235987   1.000000
   51       -3.146693   1.000000
   52       -2.942564   1.000000
   53       -2.877496   1.000000
   54       -2.837698   1.000000
   55       -2.746184   1.000000
   56       -2.654719   1.000000
   57       -2.633055   1.000000
   58       -2.548933   1.000000
   59       -2.296335   1.000000
   60       -2.244653   1.000000
   61       -2.151946   1.000000
   62       -2.107010   1.000000
   63       -2.041839   1.000000
   64       -1.956669   1.000000
   65       -1.832699   1.000000
   66       -1.747071   1.000000
   67       -1.644123   1.000000
   68       -1.553867   1.000000
   69       -1.470853   1.000000
   70       -1.423838   1.000000
   71       -1.307901   1.000000
   72       -1.245403   1.000000
   73       -1.133803   1.000000
   74       -1.085819   1.000000
   75       -1.018003   1.000000
   76       -0.925787   1.000000
   77       -0.883036   1.000000
   78       -0.819198   1.000000
   79       -0.790678   1.000000
   80       -0.747475   1.000000
   81       -0.708235   1.000000
   82       -0.637176   1.000000
   83       -0.592698   1.000000
   84       -0.484176   1.000000
   85       -0.439781   1.000000
   86       -0.318715   1.000000
   87       -0.216027   1.000000
   88       -0.165902   1.000000
   89       -0.095152   1.000000
   90       -0.039540   1.000000
   91        0.045081   1.000000
   92        0.084377   1.000000
   93        0.101255   1.000000
   94        0.218623   1.000000
   95        0.255950   1.000000
   96        0.283500   1.000000
   97        0.340317   1.000000
   98        0.386755   1.000000
   99        0.497669   1.000000
  100        0.535934   1.000000
  101        0.562673   1.000000
  102        0.643594   1.000000
  103        0.670211   1.000000
  104        0.756285   1.000000
  105        0.836430   1.000000
  106        0.851355   1.000000
  107        0.895372   1.000000
  108        0.936414   1.000000
  109        1.035198   1.000000
  110        1.072997   1.000000
  111        1.131634   1.000000
  112        1.200480   1.000000
  113        1.212462   1.000000
  114        1.282532   1.000000
  115        1.462776   1.000000
  116        1.532344   1.000000
  117        1.557391   1.000000
  118        1.630626   1.000000
  119        1.710791   1.000000
  120        1.759293   1.000000
  121        1.812818   1.000000
  122        1.862388   1.000000
  123        2.067291   1.000000
  124        2.164205   1.000000
  125        2.191354   1.000000
  126        2.227082   1.000000
  127        2.241650   1.000000
  128        2.290651   1.000000
  129        2.338607   1.000000
  130        2.352008   1.000000
  131        2.380744   1.000000
  132        2.410945   1.000000
  133        2.526040   1.000000
  134        2.590976   1.000000
  135        2.648470   1.000000
  136        2.678567   1.000000
  137        2.722659   1.000000
  138        2.775365   1.000000
  139        2.796692   1.000000
  140        2.850193   1.000000
  141        2.895018   1.000000
  142        2.907534   1.000000
  143        2.934619   1.000000
  144        2.998635   1.000000
  145        3.047830   1.000000
  146        3.111241   1.000000
  147        3.191938   1.000000
  148        3.273718   1.000000
  149        3.307526   1.000000
  150        3.335368   1.000000
  151        3.403389   1.000000
  152        3.431930   1.000000
  153        3.523016   1.000000
  154        3.542416   1.000000
  155        3.598649   1.000000
  156        3.650919   1.000000
  157        3.717706   1.000000
  158        3.772061   1.000000
  159        3.793443   1.000000
  160        3.883440   1.000000
  161        3.911852   1.000000
  162        3.922970   1.000000
  163        3.998272   1.000000
  164        4.119007   1.000000
  165        4.170883   1.000000
  166        4.203344   1.000000
  167        4.250093   1.000000
  168        4.333984   1.000000
  169        4.425863   1.000000
  170        4.480840   1.000000
  171        4.493284   1.000000
  172        4.520934   1.000000
  173        4.532663   1.000000
  174        4.604372   1.000000
  175        4.623931   1.000000
  176        4.732902   1.000000
  177        4.773795   1.000000
  178        4.813969   1.000000
  179        4.901493   1.000000
  180        4.914984   1.000000
  181        4.958346   1.000000
  182        4.975550   1.000000
  183        5.011748   1.000000
  184        5.067324   1.000000
  185        5.160985   1.000000
  186        5.208248   1.000000
  187        5.256329   1.000000
  188        5.330936   1.000000
  189        5.355155   1.001941
  190        5.383941   0.593654
  191        5.450217  -0.015412
  192        5.476634   0.000000
  193        6.734241   0.000000
  194        6.876867   0.000000
  195        7.008287   0.000000
  196        7.529613   0.000000
  197        7.775506   0.000000
  198        7.802902   0.000000
  199        8.374254   0.000000
  200        8.625391   0.000000
  201        8.675876   0.000000
  202        8.864833   0.000000
  203        9.108229   0.000000
  204        9.220168   0.000000
  205        9.371579   0.000000
  206        9.619094   0.000000
  207        9.646115   0.000000
  208        9.712668   0.000000
  209        9.778469   0.000000
  210        9.878403   0.000000
  211        9.905353   0.000000
  212       10.096029   0.000000
  213       10.205218   0.000000
  214       10.228800   0.000000
  215       10.479360   0.000000
  216       10.496515   0.000000
  217       10.696169   0.000000
  218       10.860837   0.000000
  219       10.912309   0.000000
  220       10.954572   0.000000
  221       11.100434   0.000000
  222       11.187633   0.000000
  223       11.313283   0.000000
  224       11.341289   0.000000
  225       11.415816   0.000000
  226       11.452745   0.000000
  227       11.503918   0.000000
  228       11.511255   0.000000
  229       11.603591   0.000000
  230       11.691133   0.000000
  231       11.802081   0.000000
  232       11.857528   0.000000
  233       11.867224   0.000000
  234       11.930182   0.000000
  235       11.944318   0.000000
  236       12.029624   0.000000
  237       12.083771   0.000000
  238       12.158875   0.000000
  239       12.182553   0.000000
  240       12.241008   0.000000
  241       12.294733   0.000000
  242       12.356934   0.000000
  243       12.587458   0.000000
  244       12.690615   0.000000
  245       12.704082   0.000000
  246       12.839654   0.000000
  247       12.888065   0.000000
  248       12.930645   0.000000
  249       12.953298   0.000000
  250       12.976036   0.000000
  251       13.120932   0.000000
  252       13.237830   0.000000
  253       13.374174   0.000000
  254       13.410617   0.000000
  255       13.588666   0.000000
  256       13.762478   0.000000
 
  0.1666667E+00  0.1666667E+00  0.3333333E+00  0.9259259E-02
    1      -11.509470   1.000000
    2      -11.269231   1.000000
    3      -11.218082   1.000000
    4      -10.025160   1.000000
    5       -9.902257   1.000000
    6       -9.525264   1.000000
    7       -9.480540   1.000000
    8       -9.419376   1.000000
    9       -9.306999   1.000000
   10       -9.230255   1.000000
   11       -9.192155   1.000000
   12       -8.848865   1.000000
   13       -8.768622   1.000000
   14       -8.625582   1.000000
   15       -8.533121   1.000000
   16       -8.221584   1.000000
   17       -8.069261   1.000000
   18       -7.896087   1.000000
   19       -7.791102   1.000000
   20       -7.530812   1.000000
   21       -7.411445   1.000000
   22       -7.395072   1.000000
   23       -7.038897   1.000000
   24       -6.942399   1.000000
   25       -6.224432   1.000000
   26       -6.158972   1.000000
   27       -6.004836   1.000000
   28       -5.969968   1.000000
   29       -5.727946   1.000000
   30       -5.694460   1.000000
   31       -5.588245   1.000000
   32       -5.561729   1.000000
   33       -5.513493   1.000000
   34       -5.370982   1.000000
   35       -5.241169   1.000000
   36       -5.054664   1.000000
   37       -5.026006   1.000000
   38       -4.936586   1.000000
   39       -4.881490   1.000000
   40       -4.683084   1.000000
   41       -4.446403   1.000000
   42       -4.388910   1.000000
   43       -4.339976   1.000000
   44       -4.109893   1.000000
   45       -3.982460   1.000000
   46       -3.962977   1.000000
   47       -3.739742   1.000000
   48       -3.529123   1.000000
   49       -3.423359   1.000000
   50       -3.360140   1.000000
   51       -3.137601   1.000000
   52       -3.009488   1.000000
   53       -2.915134   1.000000
   54       -2.854583   1.000000
   55       -2.763615   1.000000
   56       -2.637283   1.000000
   57       -2.563585   1.000000
   58       -2.504574   1.000000
   59       -2.397285   1.000000
   60       -2.349622   1.000000
   61       -2.287858   1.000000
   62       -2.055214   1.000000
   63       -1.938743   1.000000
   64       -1.791516   1.000000
   65       -1.705902   1.000000
   66       -1.568569   1.000000
   67       -1.531697   1.000000
   68       -1.378416   1.000000
   69       -1.323846   1.000000
   70       -1.232465   1.000000
   71       -1.183536   1.000000
   72       -1.132411   1.000000
   73       -1.037088   1.000000
   74       -0.962491   1.000000
   75       -0.935985   1.000000
   76       -0.894432   1.000000
   77       -0.864742   1.000000
   78       -0.829338   1.000000
   79       -0.789607   1.000000
   80       -0.728106   1.000000
   81       -0.648718   1.000000
   82       -0.556229   1.000000
   83       -0.474993   1.000000
   84       -0.445387   1.000000
   85       -0.331074   1.000000
   86       -0.305726   1.000000
   87       -0.281821   1.000000
   88       -0.231675   1.000000
   89       -0.157850   1.000000
   90       -0.105284   1.000000
   91       -0.074221   1.000000
   92       -0.014530   1.000000
   93        0.013997   1.000000
   94        0.082248   1.000000
   95        0.184162   1.000000
   96        0.209746   1.000000
   97        0.292437   1.000000
   98        0.332954   1.000000
   99        0.347503   1.000000
  100        0.400551   1.000000
  101        0.481797   1.000000
  102        0.561596   1.000000
  103        0.599920   1.000000
  104        0.731011   1.000000
  105        0.750929   1.000000
  106        0.815282   1.000000
  107        0.829146   1.000000
  108        0.894183   1.000000
  109        0.920592   1.000000
  110        0.964473   1.000000
  111        0.993879   1.000000
  112        1.094643   1.000000
  113        1.118877   1.000000
  114        1.179508   1.000000
  115        1.359402   1.000000
  116        1.498324   1.000000
  117        1.503811   1.000000
  118        1.588901   1.000000
  119        1.665306   1.000000
  120        1.737564   1.000000
  121        1.827226   1.000000
  122        1.870003   1.000000
  123        1.977704   1.000000
  124        2.084241   1.000000
  125        2.196559   1.000000
  126        2.214943   1.000000
  127        2.278101   1.000000
  128        2.291664   1.000000
  129        2.359985   1.000000
  130        2.400916   1.000000
  131        2.455393   1.000000
  132        2.492870   1.000000
  133        2.603853   1.000000
  134        2.666662   1.000000
  135        2.715872   1.000000
  136        2.758544   1.000000
  137        2.850720   1.000000
  138        2.879261   1.000000
  139        2.920659   1.000000
  140        2.970940   1.000000
  141        2.976596   1.000000
  142        2.983862   1.000000
  143        2.994381   1.000000
  144        3.036178   1.000000
  145        3.064637   1.000000
  146        3.120345   1.000000
  147        3.261230   1.000000
  148        3.289326   1.000000
  149        3.296342   1.000000
  150        3.316776   1.000000
  151        3.395506   1.000000
  152        3.416256   1.000000
  153        3.461504   1.000000
  154        3.499729   1.000000
  155        3.600519   1.000000
  156        3.660659   1.000000
  157        3.692621   1.000000
  158        3.718395   1.000000
  159        3.768588   1.000000
  160        3.839255   1.000000
  161        3.919730   1.000000
  162        3.945404   1.000000
  163        4.011073   1.000000
  164        4.198832   1.000000
  165        4.226162   1.000000
  166        4.266042   1.000000
  167        4.279940   1.000000
  168        4.381838   1.000000
  169        4.475884   1.000000
  170        4.483346   1.000000
  171        4.505648   1.000000
  172        4.556167   1.000000
  173        4.567510   1.000000
  174        4.625307   1.000000
  175        4.726736   1.000000
  176        4.785143   1.000000
  177        4.814744   1.000000
  178        4.838240   1.000000
  179        4.886143   1.000000
  180        4.953665   1.000000
  181        4.970507   1.000000
  182        4.994074   1.000000
  183        5.024612   1.000000
  184        5.076734   1.000000
  185        5.125627   1.000000
  186        5.157207   1.000000
  187        5.174425   1.000000
  188        5.276883   1.000000
  189        5.289669   1.001632
  190        5.302860   0.930537
  191        5.394268   0.407287
  192        5.440866   0.036844
  193        6.716573   0.000000
  194        6.850861   0.000000
  195        6.964104   0.000000
  196        7.581466   0.000000
  197        7.804873   0.000000
  198        7.869738   0.000000
  199        8.328400   0.000000
  200        8.712431   0.000000
  201        8.778208   0.000000
  202        8.936695   0.000000
  203        9.248007   0.000000
  204        9.321530   0.000000
  205        9.355116   0.000000
  206        9.486933   0.000000
  207        9.625464   0.000000
  208        9.739087   0.000000
  209        9.745887   0.000000
  210        9.828380   0.000000
  211        9.876005   0.000000
  212       10.010083   0.000000
  213       10.107255   0.000000
  214       10.216576   0.000000
  215       10.421505   0.000000
  216       10.576983   0.000000
  217       10.634627   0.000000
  218       10.768580   0.000000
  219       10.910827   0.000000
  220       11.010196   0.000000
  221       11.189275   0.000000
  222       11.228106   0.000000
  223       11.257483   0.000000
  224       11.380158   0.000000
  225       11.399722   0.000000
  226       11.444374   0.000000
  227       11.512824   0.000000
  228       11.561308   0.000000
  229       11.632461   0.000000
  230       11.698288   0.000000
  231       11.738632   0.000000
  232       11.766033   0.000000
  233       11.857079   0.000000
  234       11.911909   0.000000
  235       11.921828   0.000000
  236       11.965681   0.000000
  237       12.058285   0.000000
  238       12.088167   0.000000
  239       12.121211   0.000000
  240       12.197657   0.000000
  241       12.257547   0.000000
  242       12.308519   0.000000
  243       12.359965   0.000000
  244       12.576835   0.000000
  245       12.600449   0.000000
  246       12.665881   0.000000
  247       12.715949   0.000000
  248       12.818527   0.000000
  249       12.895862   0.000000
  250       13.019235   0.000000
  251       13.074785   0.000000
  252       13.186504   0.000000
  253       13.382527   0.000000
  254       13.658770   0.000000
  255       13.668398   0.000000
  256       13.726366   0.000000
 
  0.3333333E+00  0.1666667E+00  0.3333333E+00  0.9259259E-02
    1      -11.474502   1.000000
    2      -11.276694   1.000000
    3      -11.262342   1.000000
    4      -10.015265   1.000000
    5       -9.862034   1.000000
    6       -9.546531   1.000000
    7       -9.469108   1.000000
    8       -9.441492   1.000000
    9       -9.284799   1.000000
   10       -9.267138   1.000000
   11       -9.183266   1.000000
   12       -8.850612   1.000000
   13       -8.789449   1.000000
   14       -8.673275   1.000000
   15       -8.475425   1.000000
   16       -8.128271   1.000000
   17       -8.108578   1.000000
   18       -7.879441   1.000000
   19       -7.767600   1.000000
   20       -7.536223   1.000000
   21       -7.424590   1.000000
   22       -7.398143   1.000000
   23       -7.093151   1.000000
   24       -6.984026   1.000000
   25       -6.295403   1.000000
   26       -6.263740   1.000000
   27       -5.863086   1.000000
   28       -5.842921   1.000000
   29       -5.717176   1.000000
   30       -5.672222   1.000000
   31       -5.560248   1.000000
   32       -5.548034   1.000000
   33       -5.383579   1.000000
   34       -5.328722   1.000000
   35       -5.164586   1.000000
   36       -5.137474   1.000000
   37       -5.135727   1.000000
   38       -4.947927   1.000000
   39       -4.842452   1.000000
   40       -4.798353   1.000000
   41       -4.578794   1.000000
   42       -4.557665   1.000000
   43       -4.522667   1.000000
   44       -4.099014   1.000000
   45       -4.014713   1.000000
   46       -3.959704   1.000000
   47       -3.775693   1.000000
   48       -3.531810   1.000000
   49       -3.419496   1.000000
   50       -3.377999   1.000000
   51       -2.957542   1.000000
   52       -2.884174   1.000000
   53       -2.846617   1.000000
   54       -2.818551   1.000000
   55       -2.663221   1.000000
   56       -2.609920   1.000000
   57       -2.545215   1.000000
   58       -2.504820   1.000000
   59       -2.393127   1.000000
   60       -2.215583   1.000000
   61       -2.021902   1.000000
   62       -1.992963   1.000000
   63       -1.875430   1.000000
   64       -1.745275   1.000000
   65       -1.683788   1.000000
   66       -1.536732   1.000000
   67       -1.411421   1.000000
   68       -1.370036   1.000000
   69       -1.299330   1.000000
   70       -1.265511   1.000000
   71       -1.233814   1.000000
   72       -1.170291   1.000000
   73       -1.111014   1.000000
   74       -1.044632   1.000000
   75       -0.911962   1.000000
   76       -0.904644   1.000000
   77       -0.814285   1.000000
   78       -0.754030   1.000000
   79       -0.724578   1.000000
   80       -0.665442   1.000000
   81       -0.595270   1.000000
   82       -0.576636   1.000000
   83       -0.567113   1.000000
   84       -0.510732   1.000000
   85       -0.486503   1.000000
   86       -0.389873   1.000000
   87       -0.359826   1.000000
   88       -0.317215   1.000000
   89       -0.286298   1.000000
   90       -0.247076   1.000000
   91       -0.209611   1.000000
   92       -0.137899   1.000000
   93       -0.106715   1.000000
   94       -0.070636   1.000000
   95       -0.008530   1.000000
   96        0.037223   1.000000
   97        0.133428   1.000000
   98        0.209661   1.000000
   99        0.337648   1.000000
  100        0.428531   1.000000
  101        0.505947   1.000000
  102        0.618484   1.000000
  103        0.662888   1.000000
  104        0.718053   1.000000
  105        0.742046   1.000000
  106        0.807019   1.000000
  107        0.861494   1.000000
  108        0.919762   1.000000
  109        0.969995   1.000000
  110        1.029942   1.000000
  111        1.051527   1.000000
  112        1.200731   1.000000
  113        1.247060   1.000000
  114        1.286820   1.000000
  115        1.345781   1.000000
  116        1.423491   1.000000
  117        1.552945   1.000000
  118        1.611640   1.000000
  119        1.644367   1.000000
  120        1.735920   1.000000
  121        1.775169   1.000000
  122        1.832507   1.000000
  123        1.971123   1.000000
  124        2.070859   1.000000
  125        2.172597   1.000000
  126        2.244610   1.000000
  127        2.313900   1.000000
  128        2.342248   1.000000
  129        2.378200   1.000000
  130        2.450885   1.000000
  131        2.542846   1.000000
  132        2.563873   1.000000
  133        2.595337   1.000000
  134        2.609289   1.000000
  135        2.679404   1.000000
  136        2.811014   1.000000
  137        2.909638   1.000000
  138        2.934581   1.000000
  139        2.969286   1.000000
  140        3.004166   1.000000
  141        3.045686   1.000000
  142        3.108647   1.000000
  143        3.123346   1.000000
  144        3.142182   1.000000
  145        3.173154   1.000000
  146        3.199280   1.000000
  147        3.273084   1.000000
  148        3.313375   1.000000
  149        3.350024   1.000000
  150        3.394900   1.000000
  151        3.404883   1.000000
  152        3.447138   1.000000
  153        3.482629   1.000000
  154        3.539760   1.000000
  155        3.598934   1.000000
  156        3.643823   1.000000
  157        3.750241   1.000000
  158        3.777604   1.000000
  159        3.869171   1.000000
  160        3.921149   1.000000
  161        3.937962   1.000000
  162        3.991306   1.000000
  163        4.037745   1.000000
  164        4.096560   1.000000
  165        4.119856   1.000000
  166        4.200865   1.000000
  167        4.250969   1.000000
  168        4.267817   1.000000
  169        4.395696   1.000000
  170        4.419608   1.000000
  171        4.482680   1.000000
  172        4.493498   1.000000
  173        4.554703   1.000000
  174        4.593161   1.000000
  175        4.676979   1.000000
  176        4.718824   1.000000
  177        4.758439   1.000000
  178        4.841685   1.000000
  179        4.902697   1.000000
  180        4.925717   1.000000
  181        4.934182   1.000000
  182        4.976773   1.000000
  183        4.994666   1.000000
  184        5.034574   1.000000
  185        5.073233   1.000000
  186        5.110922   1.000000
  187        5.131615   1.000000
  188        5.147185   1.000000
  189        5.210543   1.010615
  190        5.275374   1.018029
  191        5.350129   0.728570
  192        5.402870   0.258949
  193        6.755151   0.000000
  194        6.857617   0.000000
  195        6.930630   0.000000
  196        7.696634   0.000000
  197        7.809604   0.000000
  198        7.913666   0.000000
  199        8.307288   0.000000
  200        8.787023   0.000000
  201        8.908844   0.000000
  202        9.015482   0.000000
  203        9.325134   0.000000
  204        9.378562   0.000000
  205        9.467168   0.000000
  206        9.537776   0.000000
  207        9.589080   0.000000
  208        9.654306   0.000000
  209        9.699066   0.000000
  210        9.822192   0.000000
  211       10.075774   0.000000
  212       10.178598   0.000000
  213       10.210770   0.000000
  214       10.244386   0.000000
  215       10.415283   0.000000
  216       10.596076   0.000000
  217       10.619742   0.000000
  218       10.756204   0.000000
  219       10.916683   0.000000
  220       11.114019   0.000000
  221       11.191445   0.000000
  222       11.203877   0.000000
  223       11.292352   0.000000
  224       11.330962   0.000000
  225       11.346754   0.000000
  226       11.387644   0.000000
  227       11.455396   0.000000
  228       11.499877   0.000000
  229       11.528071   0.000000
  230       11.587961   0.000000
  231       11.639059   0.000000
  232       11.797373   0.000000
  233       11.812148   0.000000
  234       11.833432   0.000000
  235       11.880553   0.000000
  236       11.919348   0.000000
  237       11.942775   0.000000
  238       11.987491   0.000000
  239       12.013943   0.000000
  240       12.039515   0.000000
  241       12.109776   0.000000
  242       12.292046   0.000000
  243       12.364338   0.000000
  244       12.394533   0.000000
  245       12.467105   0.000000
  246       12.525214   0.000000
  247       12.649345   0.000000
  248       12.695923   0.000000
  249       12.786877   0.000000
  250       12.920992   0.000000
  251       12.968627   0.000000
  252       13.122447   0.000000
  253       13.454354   0.000000
  254       13.587699   0.000000
  255       13.718698   0.000000
  256       13.843648   0.000000
 
  0.5000000E+00  0.1666667E+00  0.3333333E+00  0.9259259E-02
    1      -11.422976   1.000000
    2      -11.342066   1.000000
    3      -11.258238   1.000000
    4       -9.986591   1.000000
    5       -9.791634   1.000000
    6       -9.679536   1.000000
    7       -9.545485   1.000000
    8       -9.412697   1.000000
    9       -9.373404   1.000000
   10       -9.198070   1.000000
   11       -9.194001   1.000000
   12       -8.741379   1.000000
   13       -8.700956   1.000000
   14       -8.681413   1.000000
   15       -8.345570   1.000000
   16       -8.208275   1.000000
   17       -7.998628   1.000000
   18       -7.893315   1.000000
   19       -7.769965   1.000000
   20       -7.558506   1.000000
   21       -7.536252   1.000000
   22       -7.380644   1.000000
   23       -7.240438   1.000000
   24       -7.087378   1.000000
   25       -6.392347   1.000000
   26       -6.221326   1.000000
   27       -5.865519   1.000000
   28       -5.799688   1.000000
   29       -5.745315   1.000000
   30       -5.672064   1.000000
   31       -5.594285   1.000000
   32       -5.443911   1.000000
   33       -5.374966   1.000000
   34       -5.243777   1.000000
   35       -5.123257   1.000000
   36       -5.111224   1.000000
   37       -5.005190   1.000000
   38       -4.918850   1.000000
   39       -4.898702   1.000000
   40       -4.840264   1.000000
   41       -4.624273   1.000000
   42       -4.563032   1.000000
   43       -4.531169   1.000000
   44       -4.215353   1.000000
   45       -4.049981   1.000000
   46       -3.971124   1.000000
   47       -3.905808   1.000000
   48       -3.621335   1.000000
   49       -3.297766   1.000000
   50       -3.135562   1.000000
   51       -2.857126   1.000000
   52       -2.848276   1.000000
   53       -2.777847   1.000000
   54       -2.707131   1.000000
   55       -2.646109   1.000000
   56       -2.428717   1.000000
   57       -2.351519   1.000000
   58       -2.294025   1.000000
   59       -2.222325   1.000000
   60       -2.150303   1.000000
   61       -2.086854   1.000000
   62       -1.982518   1.000000
   63       -1.891893   1.000000
   64       -1.799298   1.000000
   65       -1.736901   1.000000
   66       -1.645804   1.000000
   67       -1.580376   1.000000
   68       -1.452029   1.000000
   69       -1.420427   1.000000
   70       -1.393481   1.000000
   71       -1.358082   1.000000
   72       -1.225718   1.000000
   73       -1.185443   1.000000
   74       -1.124680   1.000000
   75       -1.102306   1.000000
   76       -1.045816   1.000000
   77       -1.018760   1.000000
   78       -0.894541   1.000000
   79       -0.857749   1.000000
   80       -0.754569   1.000000
   81       -0.677861   1.000000
   82       -0.648892   1.000000
   83       -0.615356   1.000000
   84       -0.540058   1.000000
   85       -0.527055   1.000000
   86       -0.507950   1.000000
   87       -0.458188   1.000000
   88       -0.430104   1.000000
   89       -0.353770   1.000000
   90       -0.298379   1.000000
   91       -0.209540   1.000000
   92       -0.156045   1.000000
   93       -0.073025   1.000000
   94        0.020928   1.000000
   95        0.068583   1.000000
   96        0.179395   1.000000
   97        0.248703   1.000000
   98        0.319635   1.000000
   99        0.347621   1.000000
  100        0.545629   1.000000
  101        0.555719   1.000000
  102        0.634947   1.000000
  103        0.677804   1.000000
  104        0.716336   1.000000
  105        0.834641   1.000000
  106        0.884071   1.000000
  107        0.938792   1.000000
  108        1.031324   1.000000
  109        1.060235   1.000000
  110        1.077603   1.000000
  111        1.247549   1.000000
  112        1.268584   1.000000
  113        1.309671   1.000000
  114        1.371324   1.000000
  115        1.491593   1.000000
  116        1.560565   1.000000
  117        1.573557   1.000000
  118        1.642293   1.000000
  119        1.662613   1.000000
  120        1.751338   1.000000
  121        1.835850   1.000000
  122        1.920562   1.000000
  123        2.052863   1.000000
  124        2.090005   1.000000
  125        2.198503   1.000000
  126        2.221689   1.000000
  127        2.273972   1.000000
  128        2.343172   1.000000
  129        2.360867   1.000000
  130        2.388209   1.000000
  131        2.437895   1.000000
  132        2.456116   1.000000
  133        2.617659   1.000000
  134        2.643807   1.000000
  135        2.680480   1.000000
  136        2.743097   1.000000
  137        2.817190   1.000000
  138        2.853977   1.000000
  139        2.872153   1.000000
  140        3.100468   1.000000
  141        3.124473   1.000000
  142        3.142115   1.000000
  143        3.167777   1.000000
  144        3.209740   1.000000
  145        3.263614   1.000000
  146        3.285829   1.000000
  147        3.308131   1.000000
  148        3.349205   1.000000
  149        3.359052   1.000000
  150        3.417881   1.000000
  151        3.457831   1.000000
  152        3.532624   1.000000
  153        3.560984   1.000000
  154        3.603253   1.000000
  155        3.658955   1.000000
  156        3.693448   1.000000
  157        3.791180   1.000000
  158        3.829323   1.000000
  159        3.849973   1.000000
  160        3.915070   1.000000
  161        3.929710   1.000000
  162        3.972341   1.000000
  163        3.988527   1.000000
  164        4.010942   1.000000
  165        4.094484   1.000000
  166        4.137329   1.000000
  167        4.178697   1.000000
  168        4.200471   1.000000
  169        4.262411   1.000000
  170        4.329759   1.000000
  171        4.472302   1.000000
  172        4.504547   1.000000
  173        4.517269   1.000000
  174        4.529669   1.000000
  175        4.563171   1.000000
  176        4.600185   1.000000
  177        4.652722   1.000000
  178        4.739922   1.000000
  179        4.777607   1.000000
  180        4.818715   1.000000
  181        4.857431   1.000000
  182        4.910586   1.000000
  183        4.957492   1.000000
  184        5.009067   1.000000
  185        5.019908   1.000000
  186        5.084932   1.000000
  187        5.137228   1.000000
  188        5.155323   1.000000
  189        5.223993   1.010639
  190        5.303944   1.040234
  191        5.356368   0.765611
  192        5.415110   0.087935
  193        6.783138   0.000000
  194        6.920224   0.000000
  195        6.934869   0.000000
  196        7.729669   0.000000
  197        7.776577   0.000000
  198        7.921434   0.000000
  199        8.346734   0.000000
  200        8.728067   0.000000
  201        8.914220   0.000000
  202        9.040691   0.000000
  203        9.332228   0.000000
  204        9.396824   0.000000
  205        9.424497   0.000000
  206        9.564256   0.000000
  207        9.644361   0.000000
  208        9.704737   0.000000
  209        9.876345   0.000000
  210       10.002776   0.000000
  211       10.160004   0.000000
  212       10.210507   0.000000
  213       10.333456   0.000000
  214       10.371353   0.000000
  215       10.603453   0.000000
  216       10.700889   0.000000
  217       10.764828   0.000000
  218       10.875523   0.000000
  219       10.910057   0.000000
  220       10.995742   0.000000
  221       11.006244   0.000000
  222       11.170600   0.000000
  223       11.225378   0.000000
  224       11.270066   0.000000
  225       11.283827   0.000000
  226       11.366655   0.000000
  227       11.381611   0.000000
  228       11.416669   0.000000
  229       11.474281   0.000000
  230       11.534262   0.000000
  231       11.553887   0.000000
  232       11.613749   0.000000
  233       11.654786   0.000000
  234       11.712199   0.000000
  235       11.861258   0.000000
  236       11.893258   0.000000
  237       11.927073   0.000000
  238       11.990184   0.000000
  239       12.005590   0.000000
  240       12.087134   0.000000
  241       12.157736   0.000000
  242       12.219225   0.000000
  243       12.349898   0.000000
  244       12.439779   0.000000
  245       12.527201   0.000000
  246       12.613406   0.000000
  247       12.620841   0.000000
  248       12.644379   0.000000
  249       12.717751   0.000000
  250       12.800210   0.000000
  251       13.037410   0.000000
  252       13.073034   0.000000
  253       13.602122   0.000000
  254       13.693190   0.000000
  255       13.797478   0.000000
  256       13.817126   0.000000
 
 -0.3333333E+00  0.1666667E+00  0.3333333E+00  0.9259259E-02
    1      -11.437809   1.000000
    2      -11.334013   1.000000
    3      -11.245003   1.000000
    4       -9.940587   1.000000
    5       -9.814928   1.000000
    6       -9.734460   1.000000
    7       -9.629248   1.000000
    8       -9.430741   1.000000
    9       -9.330323   1.000000
   10       -9.226918   1.000000
   11       -9.167608   1.000000
   12       -8.722353   1.000000
   13       -8.649602   1.000000
   14       -8.492176   1.000000
   15       -8.343349   1.000000
   16       -8.174867   1.000000
   17       -8.009123   1.000000
   18       -7.916890   1.000000
   19       -7.820113   1.000000
   20       -7.609520   1.000000
   21       -7.545545   1.000000
   22       -7.407860   1.000000
   23       -7.288650   1.000000
   24       -7.190969   1.000000
   25       -6.403834   1.000000
   26       -6.071641   1.000000
   27       -6.002176   1.000000
   28       -5.939713   1.000000
   29       -5.921608   1.000000
   30       -5.580893   1.000000
   31       -5.501431   1.000000
   32       -5.464190   1.000000
   33       -5.361845   1.000000
   34       -5.236484   1.000000
   35       -5.094908   1.000000
   36       -5.074336   1.000000
   37       -4.939021   1.000000
   38       -4.910400   1.000000
   39       -4.814706   1.000000
   40       -4.795368   1.000000
   41       -4.544787   1.000000
   42       -4.442547   1.000000
   43       -4.301122   1.000000
   44       -4.262950   1.000000
   45       -4.145465   1.000000
   46       -4.039839   1.000000
   47       -3.989838   1.000000
   48       -3.739406   1.000000
   49       -3.123724   1.000000
   50       -2.876545   1.000000
   51       -2.835274   1.000000
   52       -2.803231   1.000000
   53       -2.712256   1.000000
   54       -2.666284   1.000000
   55       -2.619268   1.000000
   56       -2.431758   1.000000
   57       -2.355429   1.000000
   58       -2.275605   1.000000
   59       -2.151203   1.000000
   60       -2.113485   1.000000
   61       -2.043411   1.000000
   62       -2.008804   1.000000
   63       -1.975384   1.000000
   64       -1.915171   1.000000
   65       -1.882034   1.000000
   66       -1.815781   1.000000
   67       -1.709032   1.000000
   68       -1.613138   1.000000
   69       -1.561461   1.000000
   70       -1.550454   1.000000
   71       -1.503959   1.000000
   72       -1.465495   1.000000
   73       -1.391915   1.000000
   74       -1.307037   1.000000
   75       -1.257940   1.000000
   76       -1.130341   1.000000
   77       -1.014016   1.000000
   78       -0.918310   1.000000
   79       -0.903938   1.000000
   80       -0.774059   1.000000
   81       -0.752137   1.000000
   82       -0.688721   1.000000
   83       -0.640206   1.000000
   84       -0.602833   1.000000
   85       -0.483977   1.000000
   86       -0.460820   1.000000
   87       -0.428153   1.000000
   88       -0.287582   1.000000
   89       -0.254840   1.000000
   90       -0.133153   1.000000
   91       -0.090687   1.000000
   92       -0.049252   1.000000
   93        0.033206   1.000000
   94        0.126259   1.000000
   95        0.216811   1.000000
   96        0.239028   1.000000
   97        0.346592   1.000000
   98        0.426530   1.000000
   99        0.501642   1.000000
  100        0.534262   1.000000
  101        0.609215   1.000000
  102        0.691435   1.000000
  103        0.719704   1.000000
  104        0.796895   1.000000
  105        0.897238   1.000000
  106        0.917961   1.000000
  107        0.937204   1.000000
  108        0.985944   1.000000
  109        1.080960   1.000000
  110        1.196771   1.000000
  111        1.247124   1.000000
  112        1.280272   1.000000
  113        1.354470   1.000000
  114        1.450132   1.000000
  115        1.522023   1.000000
  116        1.667606   1.000000
  117        1.687790   1.000000
  118        1.714955   1.000000
  119        1.787751   1.000000
  120        1.882451   1.000000
  121        1.926750   1.000000
  122        2.006573   1.000000
  123        2.031972   1.000000
  124        2.080094   1.000000
  125        2.117206   1.000000
  126        2.174846   1.000000
  127        2.202282   1.000000
  128        2.241198   1.000000
  129        2.325698   1.000000
  130        2.351874   1.000000
  131        2.453615   1.000000
  132        2.544157   1.000000
  133        2.611298   1.000000
  134        2.667822   1.000000
  135        2.705966   1.000000
  136        2.753640   1.000000
  137        2.765394   1.000000
  138        2.788814   1.000000
  139        2.881665   1.000000
  140        2.959099   1.000000
  141        3.049083   1.000000
  142        3.106141   1.000000
  143        3.158917   1.000000
  144        3.167213   1.000000
  145        3.212901   1.000000
  146        3.262964   1.000000
  147        3.284723   1.000000
  148        3.301734   1.000000
  149        3.315339   1.000000
  150        3.339861   1.000000
  151        3.391888   1.000000
  152        3.400797   1.000000
  153        3.474418   1.000000
  154        3.590694   1.000000
  155        3.639565   1.000000
  156        3.703422   1.000000
  157        3.754589   1.000000
  158        3.789722   1.000000
  159        3.804737   1.000000
  160        3.854187   1.000000
  161        3.875084   1.000000
  162        3.888174   1.000000
  163        3.966236   1.000000
  164        4.027596   1.000000
  165        4.095716   1.000000
  166        4.143292   1.000000
  167        4.156777   1.000000
  168        4.182053   1.000000
  169        4.239527   1.000000
  170        4.290079   1.000000
  171        4.332322   1.000000
  172        4.360530   1.000000
  173        4.508692   1.000000
  174        4.527503   1.000000
  175        4.595957   1.000000
  176        4.693841   1.000000
  177        4.726192   1.000000
  178        4.772238   1.000000
  179        4.829001   1.000000
  180        4.904361   1.000000
  181        4.908960   1.000000
  182        4.959830   1.000000
  183        4.972050   1.000000
  184        5.000004   1.000000
  185        5.001307   1.000000
  186        5.085533   1.000000
  187        5.146811   1.000000
  188        5.198321   1.000000
  189        5.217979   1.010125
  190        5.354759   0.980817
  191        5.373337   0.518504
  192        5.419340   0.013901
  193        6.784278   0.000000
  194        6.929979   0.000000
  195        7.009066   0.000000
  196        7.634148   0.000000
  197        7.752246   0.000000
  198        7.887089   0.000000
  199        8.463950   0.000000
  200        8.604816   0.000000
  201        8.780333   0.000000
  202        9.006984   0.000000
  203        9.062549   0.000000
  204        9.343079   0.000000
  205        9.376184   0.000000
  206        9.645159   0.000000
  207        9.760148   0.000000
  208        9.918056   0.000000
  209        9.953593   0.000000
  210       10.073447   0.000000
  211       10.145594   0.000000
  212       10.226428   0.000000
  213       10.321684   0.000000
  214       10.507378   0.000000
  215       10.562555   0.000000
  216       10.659221   0.000000
  217       10.751796   0.000000
  218       10.846940   0.000000
  219       10.920997   0.000000
  220       10.946205   0.000000
  221       10.972219   0.000000
  222       11.070215   0.000000
  223       11.112320   0.000000
  224       11.253868   0.000000
  225       11.281067   0.000000
  226       11.364814   0.000000
  227       11.497621   0.000000
  228       11.522237   0.000000
  229       11.566569   0.000000
  230       11.584983   0.000000
  231       11.644646   0.000000
  232       11.689470   0.000000
  233       11.729107   0.000000
  234       11.783220   0.000000
  235       11.829841   0.000000
  236       11.842235   0.000000
  237       11.878721   0.000000
  238       11.949545   0.000000
  239       12.154772   0.000000
  240       12.199614   0.000000
  241       12.267647   0.000000
  242       12.319054   0.000000
  243       12.402499   0.000000
  244       12.418650   0.000000
  245       12.470873   0.000000
  246       12.612509   0.000000
  247       12.710405   0.000000
  248       12.807588   0.000000
  249       12.876210   0.000000
  250       12.940512   0.000000
  251       13.088646   0.000000
  252       13.309651   0.000000
  253       13.411149   0.000000
  254       13.462693   0.000000
  255       13.545316   0.000000
  256       13.731985   0.000000
 
 -0.1666667E+00  0.1666667E+00  0.3333333E+00  0.9259259E-02
    1      -11.487538   1.000000
    2      -11.296991   1.000000
    3      -11.215449   1.000000
    4       -9.969266   1.000000
    5       -9.816298   1.000000
    6       -9.779209   1.000000
    7       -9.587768   1.000000
    8       -9.421662   1.000000
    9       -9.315449   1.000000
   10       -9.251362   1.000000
   11       -9.137489   1.000000
   12       -8.738532   1.000000
   13       -8.599635   1.000000
   14       -8.427995   1.000000
   15       -8.417390   1.000000
   16       -8.225711   1.000000
   17       -8.058462   1.000000
   18       -7.997494   1.000000
   19       -7.728508   1.000000
   20       -7.655674   1.000000
   21       -7.481780   1.000000
   22       -7.443307   1.000000
   23       -7.258478   1.000000
   24       -7.118845   1.000000
   25       -6.315885   1.000000
   26       -6.150302   1.000000
   27       -6.062277   1.000000
   28       -5.988097   1.000000
   29       -5.835070   1.000000
   30       -5.597461   1.000000
   31       -5.529922   1.000000
   32       -5.488144   1.000000
   33       -5.445374   1.000000
   34       -5.300597   1.000000
   35       -5.222409   1.000000
   36       -5.042214   1.000000
   37       -4.922499   1.000000
   38       -4.898005   1.000000
   39       -4.763943   1.000000
   40       -4.683492   1.000000
   41       -4.353841   1.000000
   42       -4.304287   1.000000
   43       -4.220084   1.000000
   44       -4.151579   1.000000
   45       -4.113605   1.000000
   46       -4.097922   1.000000
   47       -3.882219   1.000000
   48       -3.789410   1.000000
   49       -3.067214   1.000000
   50       -3.056536   1.000000
   51       -3.026389   1.000000
   52       -2.815997   1.000000
   53       -2.762676   1.000000
   54       -2.684739   1.000000
   55       -2.619050   1.000000
   56       -2.505009   1.000000
   57       -2.443787   1.000000
   58       -2.405944   1.000000
   59       -2.323801   1.000000
   60       -2.200411   1.000000
   61       -2.165276   1.000000
   62       -2.086392   1.000000
   63       -2.020372   1.000000
   64       -1.970581   1.000000
   65       -1.939896   1.000000
   66       -1.844286   1.000000
   67       -1.784554   1.000000
   68       -1.715391   1.000000
   69       -1.537856   1.000000
   70       -1.467650   1.000000
   71       -1.427469   1.000000
   72       -1.378041   1.000000
   73       -1.280221   1.000000
   74       -1.238545   1.000000
   75       -1.228876   1.000000
   76       -1.134573   1.000000
   77       -1.023824   1.000000
   78       -0.939177   1.000000
   79       -0.841020   1.000000
   80       -0.784139   1.000000
   81       -0.709027   1.000000
   82       -0.646262   1.000000
   83       -0.602668   1.000000
   84       -0.568018   1.000000
   85       -0.475661   1.000000
   86       -0.337227   1.000000
   87       -0.290874   1.000000
   88       -0.241077   1.000000
   89       -0.117319   1.000000
   90       -0.063501   1.000000
   91       -0.039360   1.000000
   92        0.108479   1.000000
   93        0.130332   1.000000
   94        0.186561   1.000000
   95        0.268935   1.000000
   96        0.313258   1.000000
   97        0.430615   1.000000
   98        0.493870   1.000000
   99        0.518157   1.000000
  100        0.533779   1.000000
  101        0.563713   1.000000
  102        0.658003   1.000000
  103        0.714952   1.000000
  104        0.786100   1.000000
  105        0.907756   1.000000
  106        0.921318   1.000000
  107        0.963616   1.000000
  108        1.047256   1.000000
  109        1.096379   1.000000
  110        1.113485   1.000000
  111        1.180449   1.000000
  112        1.277960   1.000000
  113        1.296069   1.000000
  114        1.434011   1.000000
  115        1.527502   1.000000
  116        1.645215   1.000000
  117        1.758264   1.000000
  118        1.782198   1.000000
  119        1.814807   1.000000
  120        1.834075   1.000000
  121        1.869295   1.000000
  122        1.960211   1.000000
  123        2.015826   1.000000
  124        2.055033   1.000000
  125        2.118650   1.000000
  126        2.271273   1.000000
  127        2.291958   1.000000
  128        2.312003   1.000000
  129        2.322117   1.000000
  130        2.379237   1.000000
  131        2.407164   1.000000
  132        2.411402   1.000000
  133        2.464817   1.000000
  134        2.507448   1.000000
  135        2.647487   1.000000
  136        2.662400   1.000000
  137        2.730601   1.000000
  138        2.771793   1.000000
  139        2.837095   1.000000
  140        2.900974   1.000000
  141        2.959058   1.000000
  142        2.981138   1.000000
  143        2.993680   1.000000
  144        3.066156   1.000000
  145        3.114699   1.000000
  146        3.147345   1.000000
  147        3.164669   1.000000
  148        3.227644   1.000000
  149        3.297949   1.000000
  150        3.339787   1.000000
  151        3.385757   1.000000
  152        3.430512   1.000000
  153        3.458347   1.000000
  154        3.554340   1.000000
  155        3.585110   1.000000
  156        3.711882   1.000000
  157        3.779289   1.000000
  158        3.787172   1.000000
  159        3.834764   1.000000
  160        3.846840   1.000000
  161        3.889345   1.000000
  162        3.931142   1.000000
  163        3.939128   1.000000
  164        4.007583   1.000000
  165        4.068408   1.000000
  166        4.105896   1.000000
  167        4.167467   1.000000
  168        4.234273   1.000000
  169        4.262344   1.000000
  170        4.304031   1.000000
  171        4.440421   1.000000
  172        4.481091   1.000000
  173        4.515502   1.000000
  174        4.546607   1.000000
  175        4.700128   1.000000
  176        4.741949   1.000000
  177        4.764955   1.000000
  178        4.793700   1.000000
  179        4.834663   1.000000
  180        4.874302   1.000000
  181        4.927698   1.000000
  182        4.979858   1.000000
  183        5.003186   1.000000
  184        5.079614   1.000000
  185        5.114733   1.000000
  186        5.160712   1.000000
  187        5.229984   1.000000
  188        5.315075   1.000000
  189        5.326693   1.025035
  190        5.380883   0.720128
  191        5.386077   0.121884
  192        5.457171   0.000000
  193        6.773654   0.000000
  194        6.911341   0.000000
  195        7.031650   0.000000
  196        7.558940   0.000000
  197        7.741552   0.000000
  198        7.816894   0.000000
  199        8.436454   0.000000
  200        8.603713   0.000000
  201        8.749304   0.000000
  202        8.798097   0.000000
  203        9.012996   0.000000
  204        9.236457   0.000000
  205        9.364402   0.000000
  206        9.678554   0.000000
  207        9.709479   0.000000
  208        9.817445   0.000000
  209        9.936265   0.000000
  210       10.051574   0.000000
  211       10.075090   0.000000
  212       10.137814   0.000000
  213       10.273850   0.000000
  214       10.313358   0.000000
  215       10.489555   0.000000
  216       10.578440   0.000000
  217       10.675987   0.000000
  218       10.795517   0.000000
  219       10.967987   0.000000
  220       11.015210   0.000000
  221       11.026863   0.000000
  222       11.050513   0.000000
  223       11.193171   0.000000
  224       11.255196   0.000000
  225       11.395182   0.000000
  226       11.477833   0.000000
  227       11.559142   0.000000
  228       11.601028   0.000000
  229       11.629091   0.000000
  230       11.671396   0.000000
  231       11.710667   0.000000
  232       11.750893   0.000000
  233       11.788218   0.000000
  234       11.864444   0.000000
  235       11.927170   0.000000
  236       12.014242   0.000000
  237       12.091445   0.000000
  238       12.134166   0.000000
  239       12.167479   0.000000
  240       12.231644   0.000000
  241       12.302848   0.000000
  242       12.352857   0.000000
  243       12.388900   0.000000
  244       12.509570   0.000000
  245       12.612756   0.000000
  246       12.758808   0.000000
  247       12.797110   0.000000
  248       12.948269   0.000000
  249       13.069339   0.000000
  250       13.099625   0.000000
  251       13.178607   0.000000
  252       13.330426   0.000000
  253       13.343449   0.000000
  254       13.382566   0.000000
  255       13.429179   0.000000
  256       13.508301   0.000000
 
  0.0000000E+00  0.3333333E+00  0.3333333E+00  0.9259259E-02
    1      -11.491484   1.000000
    2      -11.310168   1.000000
    3      -11.198328   1.000000
    4       -9.959817   1.000000
    5       -9.843084   1.000000
    6       -9.704102   1.000000
    7       -9.627781   1.000000
    8       -9.448102   1.000000
    9       -9.256382   1.000000
   10       -9.196624   1.000000
   11       -9.192329   1.000000
   12       -8.687884   1.000000
   13       -8.626778   1.000000
   14       -8.574270   1.000000
   15       -8.477292   1.000000
   16       -8.253596   1.000000
   17       -8.026812   1.000000
   18       -7.971968   1.000000
   19       -7.816538   1.000000
   20       -7.566728   1.000000
   21       -7.434635   1.000000
   22       -7.405716   1.000000
   23       -7.218768   1.000000
   24       -7.081479   1.000000
   25       -6.216065   1.000000
   26       -6.158918   1.000000
   27       -6.043286   1.000000
   28       -5.987386   1.000000
   29       -5.862618   1.000000
   30       -5.720403   1.000000
   31       -5.565608   1.000000
   32       -5.504142   1.000000
   33       -5.419506   1.000000
   34       -5.330292   1.000000
   35       -5.259667   1.000000
   36       -4.974339   1.000000
   37       -4.941184   1.000000
   38       -4.869026   1.000000
   39       -4.794159   1.000000
   40       -4.692097   1.000000
   41       -4.294108   1.000000
   42       -4.248135   1.000000
   43       -4.222021   1.000000
   44       -4.165582   1.000000
   45       -4.119321   1.000000
   46       -4.025542   1.000000
   47       -3.816897   1.000000
   48       -3.683618   1.000000
   49       -3.202066   1.000000
   50       -3.150238   1.000000
   51       -3.115182   1.000000
   52       -2.952954   1.000000
   53       -2.848101   1.000000
   54       -2.817862   1.000000
   55       -2.740436   1.000000
   56       -2.660868   1.000000
   57       -2.602357   1.000000
   58       -2.459409   1.000000
   59       -2.194659   1.000000
   60       -2.179188   1.000000
   61       -2.145578   1.000000
   62       -2.078013   1.000000
   63       -2.066685   1.000000
   64       -1.960832   1.000000
   65       -1.823179   1.000000
   66       -1.752981   1.000000
   67       -1.645792   1.000000
   68       -1.622177   1.000000
   69       -1.441325   1.000000
   70       -1.420448   1.000000
   71       -1.372321   1.000000
   72       -1.245096   1.000000
   73       -1.185440   1.000000
   74       -1.117740   1.000000
   75       -1.089963   1.000000
   76       -1.055703   1.000000
   77       -0.997941   1.000000
   78       -0.926661   1.000000
   79       -0.884518   1.000000
   80       -0.821644   1.000000
   81       -0.805267   1.000000
   82       -0.702329   1.000000
   83       -0.629830   1.000000
   84       -0.484584   1.000000
   85       -0.453452   1.000000
   86       -0.305447   1.000000
   87       -0.259105   1.000000
   88       -0.176172   1.000000
   89       -0.096984   1.000000
   90       -0.010780   1.000000
   91        0.013200   1.000000
   92        0.017124   1.000000
   93        0.078049   1.000000
   94        0.206855   1.000000
   95        0.247938   1.000000
   96        0.308699   1.000000
   97        0.327864   1.000000
   98        0.407135   1.000000
   99        0.425575   1.000000
  100        0.501377   1.000000
  101        0.575836   1.000000
  102        0.611002   1.000000
  103        0.723644   1.000000
  104        0.793543   1.000000
  105        0.859761   1.000000
  106        0.895073   1.000000
  107        1.014617   1.000000
  108        1.096331   1.000000
  109        1.109160   1.000000
  110        1.131631   1.000000
  111        1.210910   1.000000
  112        1.233032   1.000000
  113        1.267823   1.000000
  114        1.370865   1.000000
  115        1.447121   1.000000
  116        1.500187   1.000000
  117        1.642876   1.000000
  118        1.690691   1.000000
  119        1.761708   1.000000
  120        1.775225   1.000000
  121        1.841418   1.000000
  122        2.051393   1.000000
  123        2.142139   1.000000
  124        2.181382   1.000000
  125        2.202036   1.000000
  126        2.306290   1.000000
  127        2.309480   1.000000
  128        2.324183   1.000000
  129        2.357037   1.000000
  130        2.377565   1.000000
  131        2.418527   1.000000
  132        2.425832   1.000000
  133        2.476875   1.000000
  134        2.556167   1.000000
  135        2.584420   1.000000
  136        2.689069   1.000000
  137        2.712849   1.000000
  138        2.728173   1.000000
  139        2.808634   1.000000
  140        2.817821   1.000000
  141        2.895626   1.000000
  142        2.934471   1.000000
  143        2.965526   1.000000
  144        3.011808   1.000000
  145        3.023006   1.000000
  146        3.070396   1.000000
  147        3.197610   1.000000
  148        3.238500   1.000000
  149        3.320140   1.000000
  150        3.322394   1.000000
  151        3.372888   1.000000
  152        3.447851   1.000000
  153        3.544445   1.000000
  154        3.618508   1.000000
  155        3.690094   1.000000
  156        3.744750   1.000000
  157        3.762840   1.000000
  158        3.793036   1.000000
  159        3.814903   1.000000
  160        3.864914   1.000000
  161        3.925956   1.000000
  162        4.006926   1.000000
  163        4.029455   1.000000
  164        4.049856   1.000000
  165        4.076928   1.000000
  166        4.093977   1.000000
  167        4.150353   1.000000
  168        4.171273   1.000000
  169        4.271534   1.000000
  170        4.291629   1.000000
  171        4.356909   1.000000
  172        4.462486   1.000000
  173        4.497611   1.000000
  174        4.512311   1.000000
  175        4.568436   1.000000
  176        4.652299   1.000000
  177        4.655482   1.000000
  178        4.796435   1.000000
  179        4.822768   1.000000
  180        4.849048   1.000000
  181        4.938262   1.000000
  182        5.036357   1.000000
  183        5.067191   1.000000
  184        5.162160   1.000000
  185        5.200767   1.000000
  186        5.226114   1.000000
  187        5.238902   1.000000
  188        5.305594   1.000000
  189        5.348847   0.970469
  190        5.403675   0.327217
  191        5.475459  -0.045819
  192        5.487567  -0.004388
  193        6.807665   0.000000
  194        6.932619   0.000000
  195        7.032768   0.000000
  196        7.525212   0.000000
  197        7.706660   0.000000
  198        7.777217   0.000000
  199        8.456696   0.000000
  200        8.678040   0.000000
  201        8.711366   0.000000
  202        9.002015   0.000000
  203        9.077306   0.000000
  204        9.335116   0.000000
  205        9.426136   0.000000
  206        9.574244   0.000000
  207        9.700692   0.000000
  208        9.819989   0.000000
  209        9.935140   0.000000
  210       10.008379   0.000000
  211       10.090073   0.000000
  212       10.143422   0.000000
  213       10.189835   0.000000
  214       10.237786   0.000000
  215       10.394384   0.000000
  216       10.494183   0.000000
  217       10.704353   0.000000
  218       10.748680   0.000000
  219       10.787121   0.000000
  220       10.883020   0.000000
  221       10.911811   0.000000
  222       11.099484   0.000000
  223       11.158845   0.000000
  224       11.227635   0.000000
  225       11.275344   0.000000
  226       11.304952   0.000000
  227       11.412531   0.000000
  228       11.436512   0.000000
  229       11.489698   0.000000
  230       11.652228   0.000000
  231       11.805312   0.000000
  232       11.894395   0.000000
  233       11.937932   0.000000
  234       11.951397   0.000000
  235       11.957166   0.000000
  236       12.005283   0.000000
  237       12.092525   0.000000
  238       12.200468   0.000000
  239       12.327669   0.000000
  240       12.345194   0.000000
  241       12.414897   0.000000
  242       12.457827   0.000000
  243       12.512314   0.000000
  244       12.605518   0.000000
  245       12.695069   0.000000
  246       12.703702   0.000000
  247       12.749018   0.000000
  248       12.852286   0.000000
  249       13.035655   0.000000
  250       13.119782   0.000000
  251       13.236844   0.000000
  252       13.411666   0.000000
  253       13.467950   0.000000
  254       13.573485   0.000000
  255       13.603560   0.000000
  256       13.692584   0.000000
 
  0.1666667E+00  0.3333333E+00  0.3333333E+00  0.9259259E-02
    1      -11.492570   1.000000
    2      -11.297146   1.000000
    3      -11.215822   1.000000
    4      -10.001750   1.000000
    5       -9.867734   1.000000
    6       -9.552422   1.000000
    7       -9.528885   1.000000
    8       -9.463035   1.000000
    9       -9.290763   1.000000
   10       -9.191516   1.000000
   11       -9.161164   1.000000
   12       -8.855528   1.000000
   13       -8.765530   1.000000
   14       -8.642639   1.000000
   15       -8.560956   1.000000
   16       -8.198229   1.000000
   17       -8.025567   1.000000
   18       -7.892035   1.000000
   19       -7.805304   1.000000
   20       -7.514751   1.000000
   21       -7.414834   1.000000
   22       -7.382401   1.000000
   23       -7.083448   1.000000
   24       -6.968355   1.000000
   25       -6.152001   1.000000
   26       -6.105852   1.000000
   27       -6.059899   1.000000
   28       -5.908663   1.000000
   29       -5.896618   1.000000
   30       -5.854338   1.000000
   31       -5.543729   1.000000
   32       -5.515033   1.000000
   33       -5.450635   1.000000
   34       -5.426375   1.000000
   35       -5.304637   1.000000
   36       -5.070407   1.000000
   37       -4.988116   1.000000
   38       -4.903623   1.000000
   39       -4.837241   1.000000
   40       -4.618424   1.000000
   41       -4.333636   1.000000
   42       -4.296289   1.000000
   43       -4.228315   1.000000
   44       -4.191015   1.000000
   45       -4.072191   1.000000
   46       -3.919192   1.000000
   47       -3.799940   1.000000
   48       -3.632513   1.000000
   49       -3.339004   1.000000
   50       -3.225975   1.000000
   51       -3.142208   1.000000
   52       -3.060020   1.000000
   53       -2.990768   1.000000
   54       -2.782190   1.000000
   55       -2.751066   1.000000
   56       -2.690424   1.000000
   57       -2.635504   1.000000
   58       -2.537200   1.000000
   59       -2.428115   1.000000
   60       -2.331889   1.000000
   61       -2.257241   1.000000
   62       -2.207660   1.000000
   63       -2.049523   1.000000
   64       -1.726354   1.000000
   65       -1.647173   1.000000
   66       -1.519164   1.000000
   67       -1.484798   1.000000
   68       -1.378888   1.000000
   69       -1.314225   1.000000
   70       -1.275602   1.000000
   71       -1.178693   1.000000
   72       -1.143548   1.000000
   73       -1.081593   1.000000
   74       -1.021356   1.000000
   75       -0.992220   1.000000
   76       -0.971948   1.000000
   77       -0.922635   1.000000
   78       -0.869350   1.000000
   79       -0.796888   1.000000
   80       -0.759043   1.000000
   81       -0.725026   1.000000
   82       -0.466792   1.000000
   83       -0.431417   1.000000
   84       -0.374867   1.000000
   85       -0.335889   1.000000
   86       -0.252378   1.000000
   87       -0.168500   1.000000
   88       -0.131775   1.000000
   89       -0.078931   1.000000
   90       -0.012069   1.000000
   91        0.053773   1.000000
   92        0.065717   1.000000
   93        0.095673   1.000000
   94        0.119191   1.000000
   95        0.168781   1.000000
   96        0.220106   1.000000
   97        0.266417   1.000000
   98        0.332705   1.000000
   99        0.390342   1.000000
  100        0.460862   1.000000
  101        0.480843   1.000000
  102        0.552253   1.000000
  103        0.584861   1.000000
  104        0.654119   1.000000
  105        0.669553   1.000000
  106        0.700343   1.000000
  107        0.726341   1.000000
  108        0.818181   1.000000
  109        0.861688   1.000000
  110        0.920039   1.000000
  111        0.942867   1.000000
  112        1.016999   1.000000
  113        1.053161   1.000000
  114        1.249521   1.000000
  115        1.286806   1.000000
  116        1.364082   1.000000
  117        1.541404   1.000000
  118        1.598055   1.000000
  119        1.676073   1.000000
  120        1.769053   1.000000
  121        1.821941   1.000000
  122        1.877527   1.000000
  123        1.970542   1.000000
  124        2.016714   1.000000
  125        2.096065   1.000000
  126        2.214019   1.000000
  127        2.256138   1.000000
  128        2.363770   1.000000
  129        2.433129   1.000000
  130        2.472717   1.000000
  131        2.530640   1.000000
  132        2.568044   1.000000
  133        2.588230   1.000000
  134        2.677256   1.000000
  135        2.730194   1.000000
  136        2.754267   1.000000
  137        2.806408   1.000000
  138        2.917502   1.000000
  139        2.943379   1.000000
  140        2.993785   1.000000
  141        3.000869   1.000000
  142        3.021121   1.000000
  143        3.046419   1.000000
  144        3.078417   1.000000
  145        3.135236   1.000000
  146        3.191180   1.000000
  147        3.232595   1.000000
  148        3.276675   1.000000
  149        3.329132   1.000000
  150        3.368236   1.000000
  151        3.405906   1.000000
  152        3.480970   1.000000
  153        3.581130   1.000000
  154        3.587263   1.000000
  155        3.596511   1.000000
  156        3.661774   1.000000
  157        3.690604   1.000000
  158        3.764987   1.000000
  159        3.839981   1.000000
  160        3.909630   1.000000
  161        3.938435   1.000000
  162        3.986609   1.000000
  163        4.059539   1.000000
  164        4.080623   1.000000
  165        4.112839   1.000000
  166        4.257560   1.000000
  167        4.309041   1.000000
  168        4.379442   1.000000
  169        4.388143   1.000000
  170        4.410034   1.000000
  171        4.490093   1.000000
  172        4.500655   1.000000
  173        4.527029   1.000000
  174        4.641990   1.000000
  175        4.649759   1.000000
  176        4.665487   1.000000
  177        4.677339   1.000000
  178        4.706495   1.000000
  179        4.754111   1.000000
  180        4.859314   1.000000
  181        4.900462   1.000000
  182        5.045799   1.000000
  183        5.086521   1.000000
  184        5.098924   1.000000
  185        5.120377   1.000000
  186        5.167238   1.000000
  187        5.190545   1.000000
  188        5.252329   1.000000
  189        5.275523   1.043667
  190        5.345150   0.774744
  191        5.398971   0.359886
  192        5.449366   0.062304
  193        6.782473   0.000000
  194        6.916260   0.000000
  195        6.989766   0.000000
  196        7.503287   0.000000
  197        7.747671   0.000000
  198        7.802307   0.000000
  199        8.477857   0.000000
  200        8.701014   0.000000
  201        8.771758   0.000000
  202        8.922586   0.000000
  203        9.149162   0.000000
  204        9.377283   0.000000
  205        9.420468   0.000000
  206        9.601262   0.000000
  207        9.650814   0.000000
  208        9.764064   0.000000
  209        9.865801   0.000000
  210        9.881688   0.000000
  211        9.990730   0.000000
  212       10.028623   0.000000
  213       10.113434   0.000000
  214       10.198713   0.000000
  215       10.457786   0.000000
  216       10.570289   0.000000
  217       10.607069   0.000000
  218       10.724043   0.000000
  219       10.866430   0.000000
  220       10.907712   0.000000
  221       11.012473   0.000000
  222       11.105514   0.000000
  223       11.259795   0.000000
  224       11.333602   0.000000
  225       11.385760   0.000000
  226       11.432787   0.000000
  227       11.519906   0.000000
  228       11.604345   0.000000
  229       11.611735   0.000000
  230       11.672691   0.000000
  231       11.689078   0.000000
  232       11.728184   0.000000
  233       11.809421   0.000000
  234       11.844636   0.000000
  235       11.913147   0.000000
  236       11.995019   0.000000
  237       12.079196   0.000000
  238       12.118725   0.000000
  239       12.176228   0.000000
  240       12.196950   0.000000
  241       12.340395   0.000000
  242       12.386492   0.000000
  243       12.440935   0.000000
  244       12.525245   0.000000
  245       12.582664   0.000000
  246       12.700044   0.000000
  247       12.745750   0.000000
  248       12.795764   0.000000
  249       12.833966   0.000000
  250       13.045565   0.000000
  251       13.158502   0.000000
  252       13.407632   0.000000
  253       13.563888   0.000000
  254       13.610399   0.000000
  255       13.641535   0.000000
  256       13.702141   0.000000
 
  0.3333333E+00  0.3333333E+00  0.3333333E+00  0.9259259E-02
    1      -11.465512   1.000000
    2      -11.303164   1.000000
    3      -11.250364   1.000000
    4      -10.021683   1.000000
    5       -9.859250   1.000000
    6       -9.507593   1.000000
    7       -9.414386   1.000000
    8       -9.399144   1.000000
    9       -9.299033   1.000000
   10       -9.221334   1.000000
   11       -9.170634   1.000000
   12       -9.006991   1.000000
   13       -8.894309   1.000000
   14       -8.686670   1.000000
   15       -8.521530   1.000000
   16       -8.156916   1.000000
   17       -8.069054   1.000000
   18       -7.845968   1.000000
   19       -7.691727   1.000000
   20       -7.568140   1.000000
   21       -7.398407   1.000000
   22       -7.348452   1.000000
   23       -7.042654   1.000000
   24       -6.930430   1.000000
   25       -6.154315   1.000000
   26       -6.112817   1.000000
   27       -5.960604   1.000000
   28       -5.912738   1.000000
   29       -5.870273   1.000000
   30       -5.809583   1.000000
   31       -5.561134   1.000000
   32       -5.523712   1.000000
   33       -5.468133   1.000000
   34       -5.433963   1.000000
   35       -5.283785   1.000000
   36       -5.210209   1.000000
   37       -5.141459   1.000000
   38       -4.934549   1.000000
   39       -4.824034   1.000000
   40       -4.670908   1.000000
   41       -4.404815   1.000000
   42       -4.349743   1.000000
   43       -4.334197   1.000000
   44       -4.233711   1.000000
   45       -4.038297   1.000000
   46       -3.939533   1.000000
   47       -3.815388   1.000000
   48       -3.594038   1.000000
   49       -3.380717   1.000000
   50       -3.224788   1.000000
   51       -3.035340   1.000000
   52       -3.026997   1.000000
   53       -2.906749   1.000000
   54       -2.874365   1.000000
   55       -2.681487   1.000000
   56       -2.642157   1.000000
   57       -2.543000   1.000000
   58       -2.530369   1.000000
   59       -2.419751   1.000000
   60       -2.346374   1.000000
   61       -2.214592   1.000000
   62       -2.076175   1.000000
   63       -2.021474   1.000000
   64       -1.644728   1.000000
   65       -1.511815   1.000000
   66       -1.464870   1.000000
   67       -1.422484   1.000000
   68       -1.361912   1.000000
   69       -1.320504   1.000000
   70       -1.284578   1.000000
   71       -1.174743   1.000000
   72       -1.084073   1.000000
   73       -1.060818   1.000000
   74       -1.046737   1.000000
   75       -1.009017   1.000000
   76       -0.881573   1.000000
   77       -0.765361   1.000000
   78       -0.735523   1.000000
   79       -0.688150   1.000000
   80       -0.653021   1.000000
   81       -0.534090   1.000000
   82       -0.515011   1.000000
   83       -0.477695   1.000000
   84       -0.440861   1.000000
   85       -0.385033   1.000000
   86       -0.329684   1.000000
   87       -0.223959   1.000000
   88       -0.167014   1.000000
   89       -0.139520   1.000000
   90       -0.091245   1.000000
   91       -0.034977   1.000000
   92        0.014132   1.000000
   93        0.090072   1.000000
   94        0.106152   1.000000
   95        0.140479   1.000000
   96        0.153303   1.000000
   97        0.221588   1.000000
   98        0.271802   1.000000
   99        0.328862   1.000000
  100        0.363641   1.000000
  101        0.425060   1.000000
  102        0.441030   1.000000
  103        0.465356   1.000000
  104        0.478844   1.000000
  105        0.571300   1.000000
  106        0.635304   1.000000
  107        0.703405   1.000000
  108        0.766638   1.000000
  109        0.840918   1.000000
  110        0.864802   1.000000
  111        0.939994   1.000000
  112        1.030696   1.000000
  113        1.080793   1.000000
  114        1.097941   1.000000
  115        1.158419   1.000000
  116        1.311763   1.000000
  117        1.452634   1.000000
  118        1.503467   1.000000
  119        1.602164   1.000000
  120        1.695066   1.000000
  121        1.777535   1.000000
  122        1.821508   1.000000
  123        1.923965   1.000000
  124        2.047856   1.000000
  125        2.181156   1.000000
  126        2.262679   1.000000
  127        2.287742   1.000000
  128        2.368859   1.000000
  129        2.433294   1.000000
  130        2.481634   1.000000
  131        2.528726   1.000000
  132        2.590387   1.000000
  133        2.682102   1.000000
  134        2.711648   1.000000
  135        2.724813   1.000000
  136        2.798928   1.000000
  137        2.918832   1.000000
  138        2.989475   1.000000
  139        2.995098   1.000000
  140        3.075715   1.000000
  141        3.141389   1.000000
  142        3.152299   1.000000
  143        3.184254   1.000000
  144        3.226942   1.000000
  145        3.236419   1.000000
  146        3.280231   1.000000
  147        3.324047   1.000000
  148        3.333406   1.000000
  149        3.402624   1.000000
  150        3.435859   1.000000
  151        3.443245   1.000000
  152        3.458170   1.000000
  153        3.569381   1.000000
  154        3.606102   1.000000
  155        3.657824   1.000000
  156        3.664515   1.000000
  157        3.708748   1.000000
  158        3.759045   1.000000
  159        3.785549   1.000000
  160        3.860697   1.000000
  161        3.960213   1.000000
  162        4.030179   1.000000
  163        4.056510   1.000000
  164        4.070494   1.000000
  165        4.208744   1.000000
  166        4.252733   1.000000
  167        4.341247   1.000000
  168        4.366354   1.000000
  169        4.399329   1.000000
  170        4.451840   1.000000
  171        4.495681   1.000000
  172        4.525445   1.000000
  173        4.552101   1.000000
  174        4.596758   1.000000
  175        4.685048   1.000000
  176        4.696333   1.000000
  177        4.737718   1.000000
  178        4.803736   1.000000
  179        4.807410   1.000000
  180        4.890047   1.000000
  181        4.925883   1.000000
  182        4.981461   1.000000
  183        4.987096   1.000000
  184        5.011877   1.000000
  185        5.045420   1.000000
  186        5.057795   1.000000
  187        5.109888   1.000000
  188        5.122020   1.000000
  189        5.137202   1.025242
  190        5.214762   1.057793
  191        5.308153   0.915009
  192        5.347642   0.665164
  193        6.793563   0.000000
  194        6.924825   0.000000
  195        6.941800   0.000000
  196        7.587737   0.000000
  197        7.768395   0.000000
  198        7.879666   0.000000
  199        8.513524   0.000000
  200        8.760178   0.000000
  201        8.830363   0.000000
  202        8.863066   0.000000
  203        9.285520   0.000000
  204        9.349448   0.000000
  205        9.562308   0.000000
  206        9.611548   0.000000
  207        9.677916   0.000000
  208        9.740199   0.000000
  209        9.808278   0.000000
  210        9.822775   0.000000
  211       10.077307   0.000000
  212       10.117013   0.000000
  213       10.184385   0.000000
  214       10.258138   0.000000
  215       10.416547   0.000000
  216       10.433969   0.000000
  217       10.506336   0.000000
  218       10.719747   0.000000
  219       10.989681   0.000000
  220       11.029752   0.000000
  221       11.140373   0.000000
  222       11.189502   0.000000
  223       11.250111   0.000000
  224       11.314090   0.000000
  225       11.357829   0.000000
  226       11.371400   0.000000
  227       11.435360   0.000000
  228       11.498195   0.000000
  229       11.609503   0.000000
  230       11.682072   0.000000
  231       11.732423   0.000000
  232       11.775521   0.000000
  233       11.783982   0.000000
  234       11.805645   0.000000
  235       11.869502   0.000000
  236       11.926969   0.000000
  237       11.934717   0.000000
  238       11.969573   0.000000
  239       11.996579   0.000000
  240       12.049767   0.000000
  241       12.100246   0.000000
  242       12.121039   0.000000
  243       12.425106   0.000000
  244       12.455788   0.000000
  245       12.482459   0.000000
  246       12.574648   0.000000
  247       12.755277   0.000000
  248       12.797987   0.000000
  249       12.850216   0.000000
  250       12.985052   0.000000
  251       13.247579   0.000000
  252       13.449034   0.000000
  253       13.463111   0.000000
  254       13.530436   0.000000
  255       13.556735   0.000000
  256       13.712139   0.000000
 
  0.5000000E+00  0.3333333E+00  0.3333333E+00  0.9259259E-02
    1      -11.416871   1.000000
    2      -11.353207   1.000000
    3      -11.257108   1.000000
    4      -10.013994   1.000000
    5       -9.835077   1.000000
    6       -9.567961   1.000000
    7       -9.456311   1.000000
    8       -9.353286   1.000000
    9       -9.309035   1.000000
   10       -9.257056   1.000000
   11       -9.182734   1.000000
   12       -8.945025   1.000000
   13       -8.869054   1.000000
   14       -8.678175   1.000000
   15       -8.397696   1.000000
   16       -8.228367   1.000000
   17       -8.018802   1.000000
   18       -7.820253   1.000000
   19       -7.684978   1.000000
   20       -7.602023   1.000000
   21       -7.438316   1.000000
   22       -7.391702   1.000000
   23       -7.113158   1.000000
   24       -6.988142   1.000000
   25       -6.230582   1.000000
   26       -6.090991   1.000000
   27       -5.917937   1.000000
   28       -5.833599   1.000000
   29       -5.817846   1.000000
   30       -5.773958   1.000000
   31       -5.696474   1.000000
   32       -5.503213   1.000000
   33       -5.428969   1.000000
   34       -5.322088   1.000000
   35       -5.282969   1.000000
   36       -5.205905   1.000000
   37       -5.155279   1.000000
   38       -4.945555   1.000000
   39       -4.802925   1.000000
   40       -4.783892   1.000000
   41       -4.465262   1.000000
   42       -4.433163   1.000000
   43       -4.371984   1.000000
   44       -4.144233   1.000000
   45       -4.113194   1.000000
   46       -4.023785   1.000000
   47       -3.896746   1.000000
   48       -3.617963   1.000000
   49       -3.236408   1.000000
   50       -3.139548   1.000000
   51       -2.941707   1.000000
   52       -2.864899   1.000000
   53       -2.758461   1.000000
   54       -2.729437   1.000000
   55       -2.657039   1.000000
   56       -2.622741   1.000000
   57       -2.523125   1.000000
   58       -2.436640   1.000000
   59       -2.329481   1.000000
   60       -2.154130   1.000000
   61       -2.110054   1.000000
   62       -1.930285   1.000000
   63       -1.824355   1.000000
   64       -1.711780   1.000000
   65       -1.640101   1.000000
   66       -1.604605   1.000000
   67       -1.588186   1.000000
   68       -1.538492   1.000000
   69       -1.461446   1.000000
   70       -1.440578   1.000000
   71       -1.269693   1.000000
   72       -1.160655   1.000000
   73       -1.133987   1.000000
   74       -1.003851   1.000000
   75       -0.985083   1.000000
   76       -0.943547   1.000000
   77       -0.899903   1.000000
   78       -0.868820   1.000000
   79       -0.820768   1.000000
   80       -0.732967   1.000000
   81       -0.683111   1.000000
   82       -0.621522   1.000000
   83       -0.588270   1.000000
   84       -0.537738   1.000000
   85       -0.494852   1.000000
   86       -0.430160   1.000000
   87       -0.345084   1.000000
   88       -0.253394   1.000000
   89       -0.189531   1.000000
   90       -0.061282   1.000000
   91       -0.005579   1.000000
   92        0.013456   1.000000
   93        0.027923   1.000000
   94        0.059102   1.000000
   95        0.082889   1.000000
   96        0.145404   1.000000
   97        0.267087   1.000000
   98        0.299060   1.000000
   99        0.316577   1.000000
  100        0.375393   1.000000
  101        0.441168   1.000000
  102        0.496438   1.000000
  103        0.564666   1.000000
  104        0.629633   1.000000
  105        0.674427   1.000000
  106        0.731656   1.000000
  107        0.745554   1.000000
  108        0.813860   1.000000
  109        0.883356   1.000000
  110        0.950314   1.000000
  111        1.059587   1.000000
  112        1.121306   1.000000
  113        1.230243   1.000000
  114        1.334548   1.000000
  115        1.373135   1.000000
  116        1.393686   1.000000
  117        1.556343   1.000000
  118        1.649543   1.000000
  119        1.680828   1.000000
  120        1.749784   1.000000
  121        1.829954   1.000000
  122        1.871781   1.000000
  123        1.915181   1.000000
  124        2.047490   1.000000
  125        2.148972   1.000000
  126        2.210518   1.000000
  127        2.314405   1.000000
  128        2.373882   1.000000
  129        2.399471   1.000000
  130        2.443242   1.000000
  131        2.503914   1.000000
  132        2.525760   1.000000
  133        2.592661   1.000000
  134        2.675707   1.000000
  135        2.784025   1.000000
  136        2.810388   1.000000
  137        2.838566   1.000000
  138        2.927844   1.000000
  139        3.000562   1.000000
  140        3.009271   1.000000
  141        3.121246   1.000000
  142        3.138417   1.000000
  143        3.181035   1.000000
  144        3.227289   1.000000
  145        3.259006   1.000000
  146        3.269878   1.000000
  147        3.303581   1.000000
  148        3.335522   1.000000
  149        3.414471   1.000000
  150        3.472068   1.000000
  151        3.568159   1.000000
  152        3.592296   1.000000
  153        3.628450   1.000000
  154        3.645432   1.000000
  155        3.686786   1.000000
  156        3.756169   1.000000
  157        3.798064   1.000000
  158        3.819950   1.000000
  159        3.873896   1.000000
  160        3.909820   1.000000
  161        3.968698   1.000000
  162        4.004178   1.000000
  163        4.036047   1.000000
  164        4.058009   1.000000
  165        4.120816   1.000000
  166        4.166435   1.000000
  167        4.217464   1.000000
  168        4.239000   1.000000
  169        4.301446   1.000000
  170        4.392351   1.000000
  171        4.424674   1.000000
  172        4.445243   1.000000
  173        4.493380   1.000000
  174        4.570874   1.000000
  175        4.606910   1.000000
  176        4.705352   1.000000
  177        4.732588   1.000000
  178        4.769050   1.000000
  179        4.798176   1.000000
  180        4.832353   1.000000
  181        4.875755   1.000000
  182        4.912042   1.000000
  183        4.914965   1.000000
  184        4.982883   1.000000
  185        5.012953   1.000000
  186        5.034016   1.000000
  187        5.078496   1.000000
  188        5.107987   1.000000
  189        5.170531   1.000000
  190        5.194384   1.018567
  191        5.289794   1.036846
  192        5.302194   0.953672
  193        6.841789   0.000000
  194        6.910219   0.000000
  195        6.975814   0.000000
  196        7.715725   0.000000
  197        7.727427   0.000000
  198        7.917156   0.000000
  199        8.526592   0.000000
  200        8.702716   0.000000
  201        8.865280   0.000000
  202        9.000529   0.000000
  203        9.243751   0.000000
  204        9.403079   0.000000
  205        9.538250   0.000000
  206        9.669832   0.000000
  207        9.715041   0.000000
  208        9.778955   0.000000
  209        9.835181   0.000000
  210       10.015313   0.000000
  211       10.034687   0.000000
  212       10.252892   0.000000
  213       10.369495   0.000000
  214       10.382820   0.000000
  215       10.457237   0.000000
  216       10.526370   0.000000
  217       10.642870   0.000000
  218       10.803411   0.000000
  219       10.892034   0.000000
  220       10.988105   0.000000
  221       11.048879   0.000000
  222       11.135465   0.000000
  223       11.148654   0.000000
  224       11.203678   0.000000
  225       11.290987   0.000000
  226       11.319427   0.000000
  227       11.369149   0.000000
  228       11.392425   0.000000
  229       11.461216   0.000000
  230       11.511478   0.000000
  231       11.542254   0.000000
  232       11.592839   0.000000
  233       11.713497   0.000000
  234       11.802252   0.000000
  235       11.888434   0.000000
  236       11.922114   0.000000
  237       11.947863   0.000000
  238       11.990675   0.000000
  239       12.046790   0.000000
  240       12.100518   0.000000
  241       12.116143   0.000000
  242       12.178695   0.000000
  243       12.247351   0.000000
  244       12.338940   0.000000
  245       12.448823   0.000000
  246       12.656839   0.000000
  247       12.715109   0.000000
  248       12.778538   0.000000
  249       12.978925   0.000000
  250       13.085327   0.000000
  251       13.348610   0.000000
  252       13.479723   0.000000
  253       13.518976   0.000000
  254       13.538231   0.000000
  255       13.614437   0.000000
  256       13.704290   0.000000
 
 -0.3333333E+00  0.3333333E+00  0.3333333E+00  0.9259259E-02
    1      -11.414616   1.000000
    2      -11.363539   1.000000
    3      -11.244299   1.000000
    4       -9.975603   1.000000
    5       -9.804948   1.000000
    6       -9.687483   1.000000
    7       -9.591971   1.000000
    8       -9.381774   1.000000
    9       -9.285368   1.000000
   10       -9.256445   1.000000
   11       -9.186802   1.000000
   12       -8.774871   1.000000
   13       -8.707485   1.000000
   14       -8.639778   1.000000
   15       -8.330314   1.000000
   16       -8.246248   1.000000
   17       -7.971585   1.000000
   18       -7.880930   1.000000
   19       -7.760059   1.000000
   20       -7.605425   1.000000
   21       -7.563606   1.000000
   22       -7.353856   1.000000
   23       -7.244343   1.000000
   24       -7.099903   1.000000
   25       -6.243286   1.000000
   26       -6.050997   1.000000
   27       -5.982822   1.000000
   28       -5.935825   1.000000
   29       -5.871580   1.000000
   30       -5.730516   1.000000
   31       -5.645800   1.000000
   32       -5.617669   1.000000
   33       -5.306522   1.000000
   34       -5.205092   1.000000
   35       -5.133921   1.000000
   36       -5.042174   1.000000
   37       -5.020902   1.000000
   38       -4.924325   1.000000
   39       -4.895989   1.000000
   40       -4.842312   1.000000
   41       -4.510479   1.000000
   42       -4.388709   1.000000
   43       -4.287694   1.000000
   44       -4.242437   1.000000
   45       -4.111060   1.000000
   46       -4.047311   1.000000
   47       -3.971648   1.000000
   48       -3.710486   1.000000
   49       -3.030359   1.000000
   50       -2.955460   1.000000
   51       -2.880482   1.000000
   52       -2.813709   1.000000
   53       -2.739642   1.000000
   54       -2.708467   1.000000
   55       -2.518416   1.000000
   56       -2.430534   1.000000
   57       -2.390439   1.000000
   58       -2.334547   1.000000
   59       -2.217869   1.000000
   60       -2.136160   1.000000
   61       -2.031630   1.000000
   62       -1.973023   1.000000
   63       -1.951551   1.000000
   64       -1.885421   1.000000
   65       -1.803920   1.000000
   66       -1.773986   1.000000
   67       -1.716617   1.000000
   68       -1.691884   1.000000
   69       -1.577030   1.000000
   70       -1.511728   1.000000
   71       -1.479674   1.000000
   72       -1.339461   1.000000
   73       -1.229017   1.000000
   74       -1.199233   1.000000
   75       -1.150610   1.000000
   76       -1.111381   1.000000
   77       -1.037336   1.000000
   78       -0.994061   1.000000
   79       -0.947819   1.000000
   80       -0.822016   1.000000
   81       -0.785213   1.000000
   82       -0.710839   1.000000
   83       -0.631744   1.000000
   84       -0.539405   1.000000
   85       -0.477323   1.000000
   86       -0.415786   1.000000
   87       -0.408463   1.000000
   88       -0.359840   1.000000
   89       -0.290639   1.000000
   90       -0.196034   1.000000
   91       -0.080141   1.000000
   92        0.001147   1.000000
   93        0.107868   1.000000
   94        0.147761   1.000000
   95        0.200557   1.000000
   96        0.234202   1.000000
   97        0.283940   1.000000
   98        0.297958   1.000000
   99        0.352560   1.000000
  100        0.506600   1.000000
  101        0.618281   1.000000
  102        0.666919   1.000000
  103        0.724764   1.000000
  104        0.798255   1.000000
  105        0.881340   1.000000
  106        0.934791   1.000000
  107        0.959653   1.000000
  108        1.046921   1.000000
  109        1.099671   1.000000
  110        1.148733   1.000000
  111        1.208900   1.000000
  112        1.279220   1.000000
  113        1.373646   1.000000
  114        1.394038   1.000000
  115        1.449106   1.000000
  116        1.531841   1.000000
  117        1.602722   1.000000
  118        1.655744   1.000000
  119        1.782056   1.000000
  120        1.821162   1.000000
  121        1.929875   1.000000
  122        2.013404   1.000000
  123        2.094595   1.000000
  124        2.143009   1.000000
  125        2.163068   1.000000
  126        2.182412   1.000000
  127        2.200283   1.000000
  128        2.245739   1.000000
  129        2.353145   1.000000
  130        2.424875   1.000000
  131        2.479528   1.000000
  132        2.503853   1.000000
  133        2.546643   1.000000
  134        2.572553   1.000000
  135        2.702348   1.000000
  136        2.823524   1.000000
  137        2.891850   1.000000
  138        2.895533   1.000000
  139        2.934552   1.000000
  140        2.969145   1.000000
  141        3.013215   1.000000
  142        3.076651   1.000000
  143        3.118568   1.000000
  144        3.149214   1.000000
  145        3.178347   1.000000
  146        3.202611   1.000000
  147        3.252448   1.000000
  148        3.331703   1.000000
  149        3.414210   1.000000
  150        3.461565   1.000000
  151        3.510743   1.000000
  152        3.548384   1.000000
  153        3.571833   1.000000
  154        3.598366   1.000000
  155        3.630659   1.000000
  156        3.663527   1.000000
  157        3.735372   1.000000
  158        3.780687   1.000000
  159        3.798751   1.000000
  160        3.843177   1.000000
  161        3.858501   1.000000
  162        3.889899   1.000000
  163        3.926327   1.000000
  164        3.989079   1.000000
  165        4.045240   1.000000
  166        4.062354   1.000000
  167        4.139984   1.000000
  168        4.236179   1.000000
  169        4.255727   1.000000
  170        4.298347   1.000000
  171        4.373647   1.000000
  172        4.398649   1.000000
  173        4.429657   1.000000
  174        4.545298   1.000000
  175        4.598067   1.000000
  176        4.675146   1.000000
  177        4.709160   1.000000
  178        4.720079   1.000000
  179        4.807620   1.000000
  180        4.875145   1.000000
  181        4.965980   1.000000
  182        4.967778   1.000000
  183        4.984734   1.000000
  184        5.002499   1.000000
  185        5.044146   1.000000
  186        5.131810   1.000000
  187        5.167431   1.000000
  188        5.193142   1.000000
  189        5.206459   1.000000
  190        5.225788   1.005253
  191        5.296315   1.101716
  192        5.329147   0.740107
  193        6.844550   0.000000
  194        6.949260   0.000000
  195        7.028994   0.000000
  196        7.643466   0.000000
  197        7.744969   0.000000
  198        7.911983   0.000000
  199        8.553572   0.000000
  200        8.644666   0.000000
  201        8.882574   0.000000
  202        9.016456   0.000000
  203        9.111822   0.000000
  204        9.443857   0.000000
  205        9.531332   0.000000
  206        9.690573   0.000000
  207        9.705824   0.000000
  208        9.869791   0.000000
  209        9.924864   0.000000
  210        9.995678   0.000000
  211       10.103273   0.000000
  212       10.398048   0.000000
  213       10.474657   0.000000
  214       10.523700   0.000000
  215       10.556160   0.000000
  216       10.616033   0.000000
  217       10.644793   0.000000
  218       10.698194   0.000000
  219       10.834940   0.000000
  220       10.850508   0.000000
  221       10.902590   0.000000
  222       10.964941   0.000000
  223       11.050128   0.000000
  224       11.116981   0.000000
  225       11.231166   0.000000
  226       11.251430   0.000000
  227       11.351071   0.000000
  228       11.438363   0.000000
  229       11.488393   0.000000
  230       11.529832   0.000000
  231       11.530515   0.000000
  232       11.700075   0.000000
  233       11.773717   0.000000
  234       11.836981   0.000000
  235       11.862758   0.000000
  236       11.908370   0.000000
  237       11.914325   0.000000
  238       11.946414   0.000000
  239       12.104921   0.000000
  240       12.167548   0.000000
  241       12.216361   0.000000
  242       12.330710   0.000000
  243       12.353909   0.000000
  244       12.411754   0.000000
  245       12.477690   0.000000
  246       12.611158   0.000000
  247       12.782493   0.000000
  248       12.867478   0.000000
  249       13.112512   0.000000
  250       13.231829   0.000000
  251       13.385517   0.000000
  252       13.500401   0.000000
  253       13.574768   0.000000
  254       13.598379   0.000000
  255       13.634253   0.000000
  256       13.682497   0.000000
 
 -0.1666667E+00  0.3333333E+00  0.3333333E+00  0.9259259E-02
    1      -11.463458   1.000000
    2      -11.329624   1.000000
    3      -11.215702   1.000000
    4       -9.931673   1.000000
    5       -9.790787   1.000000
    6       -9.770169   1.000000
    7       -9.683524   1.000000
    8       -9.415576   1.000000
    9       -9.239736   1.000000
   10       -9.229343   1.000000
   11       -9.210934   1.000000
   12       -8.653978   1.000000
   13       -8.608857   1.000000
   14       -8.560794   1.000000
   15       -8.398542   1.000000
   16       -8.188981   1.000000
   17       -8.084194   1.000000
   18       -7.925563   1.000000
   19       -7.797233   1.000000
   20       -7.650958   1.000000
   21       -7.489033   1.000000
   22       -7.356160   1.000000
   23       -7.296147   1.000000
   24       -7.174043   1.000000
   25       -6.195079   1.000000
   26       -6.165836   1.000000
   27       -6.099351   1.000000
   28       -5.940994   1.000000
   29       -5.766738   1.000000
   30       -5.763100   1.000000
   31       -5.636122   1.000000
   32       -5.568162   1.000000
   33       -5.327962   1.000000
   34       -5.201511   1.000000
   35       -5.138372   1.000000
   36       -4.997353   1.000000
   37       -4.932528   1.000000
   38       -4.844451   1.000000
   39       -4.811691   1.000000
   40       -4.791890   1.000000
   41       -4.459648   1.000000
   42       -4.317608   1.000000
   43       -4.290561   1.000000
   44       -4.222778   1.000000
   45       -4.088635   1.000000
   46       -4.044328   1.000000
   47       -3.888906   1.000000
   48       -3.761681   1.000000
   49       -3.042596   1.000000
   50       -3.020120   1.000000
   51       -2.919921   1.000000
   52       -2.888903   1.000000
   53       -2.752044   1.000000
   54       -2.683309   1.000000
   55       -2.608441   1.000000
   56       -2.492232   1.000000
   57       -2.333018   1.000000
   58       -2.244187   1.000000
   59       -2.204740   1.000000
   60       -2.171591   1.000000
   61       -2.126317   1.000000
   62       -2.083329   1.000000
   63       -2.031690   1.000000
   64       -1.954599   1.000000
   65       -1.946434   1.000000
   66       -1.797670   1.000000
   67       -1.728339   1.000000
   68       -1.648479   1.000000
   69       -1.579754   1.000000
   70       -1.520598   1.000000
   71       -1.474495   1.000000
   72       -1.463210   1.000000
   73       -1.332092   1.000000
   74       -1.246382   1.000000
   75       -1.238518   1.000000
   76       -1.203631   1.000000
   77       -1.082935   1.000000
   78       -0.944892   1.000000
   79       -0.882455   1.000000
   80       -0.853790   1.000000
   81       -0.846962   1.000000
   82       -0.719171   1.000000
   83       -0.675529   1.000000
   84       -0.553188   1.000000
   85       -0.512330   1.000000
   86       -0.453598   1.000000
   87       -0.390332   1.000000
   88       -0.340273   1.000000
   89       -0.200816   1.000000
   90       -0.116392   1.000000
   91       -0.011081   1.000000
   92        0.027098   1.000000
   93        0.153849   1.000000
   94        0.200003   1.000000
   95        0.253632   1.000000
   96        0.299432   1.000000
   97        0.349957   1.000000
   98        0.411117   1.000000
   99        0.515619   1.000000
  100        0.603705   1.000000
  101        0.673686   1.000000
  102        0.724054   1.000000
  103        0.732696   1.000000
  104        0.759285   1.000000
  105        0.840155   1.000000
  106        0.929993   1.000000
  107        1.088928   1.000000
  108        1.167848   1.000000
  109        1.208391   1.000000
  110        1.247888   1.000000
  111        1.287886   1.000000
  112        1.377936   1.000000
  113        1.462842   1.000000
  114        1.476080   1.000000
  115        1.558719   1.000000
  116        1.605414   1.000000
  117        1.747965   1.000000
  118        1.805242   1.000000
  119        1.813686   1.000000
  120        1.882050   1.000000
  121        1.883585   1.000000
  122        1.982636   1.000000
  123        2.041632   1.000000
  124        2.085358   1.000000
  125        2.163537   1.000000
  126        2.180483   1.000000
  127        2.224735   1.000000
  128        2.303897   1.000000
  129        2.357467   1.000000
  130        2.428049   1.000000
  131        2.458985   1.000000
  132        2.516452   1.000000
  133        2.549076   1.000000
  134        2.590950   1.000000
  135        2.646098   1.000000
  136        2.667118   1.000000
  137        2.707380   1.000000
  138        2.757202   1.000000
  139        2.810162   1.000000
  140        2.831314   1.000000
  141        2.891814   1.000000
  142        2.971191   1.000000
  143        3.089048   1.000000
  144        3.123339   1.000000
  145        3.195913   1.000000
  146        3.206840   1.000000
  147        3.215938   1.000000
  148        3.246333   1.000000
  149        3.294823   1.000000
  150        3.307056   1.000000
  151        3.346475   1.000000
  152        3.422078   1.000000
  153        3.446597   1.000000
  154        3.472537   1.000000
  155        3.558389   1.000000
  156        3.661703   1.000000
  157        3.702537   1.000000
  158        3.722526   1.000000
  159        3.806032   1.000000
  160        3.896515   1.000000
  161        3.907619   1.000000
  162        3.927488   1.000000
  163        3.954860   1.000000
  164        4.008307   1.000000
  165        4.047618   1.000000
  166        4.063283   1.000000
  167        4.132346   1.000000
  168        4.164965   1.000000
  169        4.221754   1.000000
  170        4.222312   1.000000
  171        4.310204   1.000000
  172        4.331859   1.000000
  173        4.446764   1.000000
  174        4.515646   1.000000
  175        4.608250   1.000000
  176        4.663461   1.000000
  177        4.699218   1.000000
  178        4.789182   1.000000
  179        4.848923   1.000000
  180        4.912796   1.000000
  181        4.967096   1.000000
  182        4.987198   1.000000
  183        5.038603   1.000000
  184        5.125851   1.000000
  185        5.189016   1.000000
  186        5.210266   1.000000
  187        5.217511   1.000000
  188        5.234725   1.000000
  189        5.311521   1.028696
  190        5.328115   1.054890
  191        5.376245   0.390451
  192        5.454022  -0.015506
  193        6.834095   0.000000
  194        6.955950   0.000000
  195        7.049650   0.000000
  196        7.590094   0.000000
  197        7.692724   0.000000
  198        7.848580   0.000000
  199        8.509648   0.000000
  200        8.648212   0.000000
  201        8.791179   0.000000
  202        8.950088   0.000000
  203        9.129175   0.000000
  204        9.383898   0.000000
  205        9.445993   0.000000
  206        9.656704   0.000000
  207        9.754880   0.000000
  208        9.821031   0.000000
  209        9.966552   0.000000
  210       10.088143   0.000000
  211       10.211878   0.000000
  212       10.258571   0.000000
  213       10.337867   0.000000
  214       10.408818   0.000000
  215       10.444829   0.000000
  216       10.524287   0.000000
  217       10.639063   0.000000
  218       10.675192   0.000000
  219       10.713103   0.000000
  220       10.825589   0.000000
  221       10.923200   0.000000
  222       10.970698   0.000000
  223       11.048172   0.000000
  224       11.100122   0.000000
  225       11.317445   0.000000
  226       11.370356   0.000000
  227       11.388033   0.000000
  228       11.462315   0.000000
  229       11.498902   0.000000
  230       11.535770   0.000000
  231       11.723265   0.000000
  232       11.780989   0.000000
  233       11.845946   0.000000
  234       11.913321   0.000000
  235       11.939774   0.000000
  236       12.023748   0.000000
  237       12.046190   0.000000
  238       12.155268   0.000000
  239       12.206071   0.000000
  240       12.252718   0.000000
  241       12.312500   0.000000
  242       12.407520   0.000000
  243       12.454794   0.000000
  244       12.478281   0.000000
  245       12.572150   0.000000
  246       12.684996   0.000000
  247       12.780217   0.000000
  248       13.088149   0.000000
  249       13.130195   0.000000
  250       13.342705   0.000000
  251       13.400434   0.000000
  252       13.433910   0.000000
  253       13.451298   0.000000
  254       13.479486   0.000000
  255       13.611456   0.000000
  256       13.645791   0.000000
 
  0.0000000E+00  0.5000000E+00  0.3333333E+00  0.9259259E-02
    1      -11.472139   1.000000
    2      -11.331990   1.000000
    3      -11.199089   1.000000
    4       -9.912425   1.000000
    5       -9.856478   1.000000
    6       -9.757972   1.000000
    7       -9.658681   1.000000
    8       -9.391883   1.000000
    9       -9.320311   1.000000
   10       -9.240974   1.000000
   11       -9.167332   1.000000
   12       -8.631468   1.000000
   13       -8.607931   1.000000
   14       -8.511943   1.000000
   15       -8.360908   1.000000
   16       -8.167452   1.000000
   17       -8.147017   1.000000
   18       -7.949208   1.000000
   19       -7.769910   1.000000
   20       -7.713419   1.000000
   21       -7.476248   1.000000
   22       -7.367105   1.000000
   23       -7.300554   1.000000
   24       -7.175777   1.000000
   25       -6.251308   1.000000
   26       -6.081783   1.000000
   27       -6.069327   1.000000
   28       -5.934068   1.000000
   29       -5.897498   1.000000
   30       -5.826989   1.000000
   31       -5.599180   1.000000
   32       -5.469448   1.000000
   33       -5.319451   1.000000
   34       -5.240077   1.000000
   35       -5.109420   1.000000
   36       -4.963265   1.000000
   37       -4.919601   1.000000
   38       -4.878876   1.000000
   39       -4.828732   1.000000
   40       -4.704618   1.000000
   41       -4.491781   1.000000
   42       -4.343687   1.000000
   43       -4.215061   1.000000
   44       -4.200461   1.000000
   45       -4.077666   1.000000
   46       -4.032865   1.000000
   47       -3.889011   1.000000
   48       -3.807939   1.000000
   49       -3.124143   1.000000
   50       -3.005524   1.000000
   51       -2.949164   1.000000
   52       -2.858584   1.000000
   53       -2.777652   1.000000
   54       -2.650328   1.000000
   55       -2.602383   1.000000
   56       -2.454520   1.000000
   57       -2.422656   1.000000
   58       -2.352814   1.000000
   59       -2.209829   1.000000
   60       -2.156834   1.000000
   61       -2.122410   1.000000
   62       -2.078016   1.000000
   63       -2.010204   1.000000
   64       -1.913243   1.000000
   65       -1.894808   1.000000
   66       -1.834795   1.000000
   67       -1.793617   1.000000
   68       -1.650490   1.000000
   69       -1.461196   1.000000
   70       -1.387004   1.000000
   71       -1.373292   1.000000
   72       -1.335154   1.000000
   73       -1.307203   1.000000
   74       -1.283238   1.000000
   75       -1.235776   1.000000
   76       -1.175013   1.000000
   77       -1.127952   1.000000
   78       -1.120387   1.000000
   79       -1.059140   1.000000
   80       -0.987963   1.000000
   81       -0.855049   1.000000
   82       -0.748948   1.000000
   83       -0.644937   1.000000
   84       -0.589926   1.000000
   85       -0.576078   1.000000
   86       -0.462016   1.000000
   87       -0.440182   1.000000
   88       -0.339673   1.000000
   89       -0.263977   1.000000
   90       -0.153864   1.000000
   91       -0.105108   1.000000
   92        0.115883   1.000000
   93        0.204192   1.000000
   94        0.206357   1.000000
   95        0.287989   1.000000
   96        0.340087   1.000000
   97        0.411174   1.000000
   98        0.448100   1.000000
   99        0.552344   1.000000
  100        0.607291   1.000000
  101        0.668328   1.000000
  102        0.704339   1.000000
  103        0.825062   1.000000
  104        0.835726   1.000000
  105        0.881754   1.000000
  106        0.975902   1.000000
  107        1.033111   1.000000
  108        1.131227   1.000000
  109        1.150658   1.000000
  110        1.288079   1.000000
  111        1.344427   1.000000
  112        1.371524   1.000000
  113        1.517629   1.000000
  114        1.534061   1.000000
  115        1.575664   1.000000
  116        1.587764   1.000000
  117        1.632978   1.000000
  118        1.676159   1.000000
  119        1.809102   1.000000
  120        1.839045   1.000000
  121        1.950098   1.000000
  122        2.027747   1.000000
  123        2.093192   1.000000
  124        2.179970   1.000000
  125        2.204207   1.000000
  126        2.256311   1.000000
  127        2.316639   1.000000
  128        2.365230   1.000000
  129        2.380909   1.000000
  130        2.419076   1.000000
  131        2.477889   1.000000
  132        2.518444   1.000000
  133        2.560303   1.000000
  134        2.607239   1.000000
  135        2.610342   1.000000
  136        2.631784   1.000000
  137        2.727218   1.000000
  138        2.744172   1.000000
  139        2.794014   1.000000
  140        2.857320   1.000000
  141        2.885659   1.000000
  142        2.896635   1.000000
  143        2.995086   1.000000
  144        3.047811   1.000000
  145        3.222628   1.000000
  146        3.229130   1.000000
  147        3.259452   1.000000
  148        3.281475   1.000000
  149        3.353903   1.000000
  150        3.381963   1.000000
  151        3.428549   1.000000
  152        3.448006   1.000000
  153        3.472833   1.000000
  154        3.485438   1.000000
  155        3.558224   1.000000
  156        3.630983   1.000000
  157        3.640992   1.000000
  158        3.670835   1.000000
  159        3.727701   1.000000
  160        3.753431   1.000000
  161        3.808232   1.000000
  162        3.910886   1.000000
  163        3.935980   1.000000
  164        3.993316   1.000000
  165        4.024173   1.000000
  166        4.036108   1.000000
  167        4.098403   1.000000
  168        4.131747   1.000000
  169        4.176193   1.000000
  170        4.236947   1.000000
  171        4.305891   1.000000
  172        4.361148   1.000000
  173        4.468502   1.000000
  174        4.537439   1.000000
  175        4.572485   1.000000
  176        4.595466   1.000000
  177        4.648630   1.000000
  178        4.753699   1.000000
  179        4.807287   1.000000
  180        4.833937   1.000000
  181        4.869368   1.000000
  182        4.942437   1.000000
  183        5.027863   1.000000
  184        5.133690   1.000000
  185        5.181973   1.000000
  186        5.217707   1.000000
  187        5.289292   1.000000
  188        5.326690   1.002108
  189        5.341801   0.943534
  190        5.444907  -0.000354
  191        5.480586  -0.038089
  192        5.499277  -0.000665
  193        6.840751   0.000000
  194        6.966779   0.000000
  195        7.072335   0.000000
  196        7.603494   0.000000
  197        7.711492   0.000000
  198        7.814002   0.000000
  199        8.575586   0.000000
  200        8.681952   0.000000
  201        8.697174   0.000000
  202        8.999306   0.000000
  203        9.193714   0.000000
  204        9.389681   0.000000
  205        9.485203   0.000000
  206        9.611120   0.000000
  207        9.783311   0.000000
  208        9.818711   0.000000
  209        9.845923   0.000000
  210       10.067255   0.000000
  211       10.195601   0.000000
  212       10.240113   0.000000
  213       10.348159   0.000000
  214       10.417113   0.000000
  215       10.463561   0.000000
  216       10.497473   0.000000
  217       10.506535   0.000000
  218       10.542205   0.000000
  219       10.743057   0.000000
  220       10.766735   0.000000
  221       10.834076   0.000000
  222       10.971751   0.000000
  223       10.983893   0.000000
  224       11.075705   0.000000
  225       11.128528   0.000000
  226       11.294924   0.000000
  227       11.347029   0.000000
  228       11.456585   0.000000
  229       11.583664   0.000000
  230       11.634782   0.000000
  231       11.672996   0.000000
  232       11.763310   0.000000
  233       11.861336   0.000000
  234       12.030410   0.000000
  235       12.051159   0.000000
  236       12.077890   0.000000
  237       12.146448   0.000000
  238       12.247022   0.000000
  239       12.322538   0.000000
  240       12.429194   0.000000
  241       12.469996   0.000000
  242       12.527794   0.000000
  243       12.544975   0.000000
  244       12.578108   0.000000
  245       12.620692   0.000000
  246       12.697748   0.000000
  247       12.703936   0.000000
  248       12.812673   0.000000
  249       13.104547   0.000000
  250       13.282073   0.000000
  251       13.441949   0.000000
  252       13.491024   0.000000
  253       13.547828   0.000000
  254       13.577183   0.000000
  255       13.717250   0.000000
  256       13.793388   0.000000
 
  0.1666667E+00  0.5000000E+00  0.3333333E+00  0.9259259E-02
    1      -11.465910   1.000000
    2      -11.330046   1.000000
    3      -11.214435   1.000000
    4       -9.957889   1.000000
    5       -9.803978   1.000000
    6       -9.734820   1.000000
    7       -9.584432   1.000000
    8       -9.410454   1.000000
    9       -9.299694   1.000000
   10       -9.272400   1.000000
   11       -9.172807   1.000000
   12       -8.700130   1.000000
   13       -8.637742   1.000000
   14       -8.612899   1.000000
   15       -8.463483   1.000000
   16       -8.181307   1.000000
   17       -7.999167   1.000000
   18       -7.935294   1.000000
   19       -7.828609   1.000000
   20       -7.552549   1.000000
   21       -7.513433   1.000000
   22       -7.379698   1.000000
   23       -7.239026   1.000000
   24       -7.069958   1.000000
   25       -6.180949   1.000000
   26       -6.126596   1.000000
   27       -6.047534   1.000000
   28       -6.012914   1.000000
   29       -5.919957   1.000000
   30       -5.794577   1.000000
   31       -5.506047   1.000000
   32       -5.433777   1.000000
   33       -5.375247   1.000000
   34       -5.317524   1.000000
   35       -5.224271   1.000000
   36       -5.075491   1.000000
   37       -5.012173   1.000000
   38       -4.895370   1.000000
   39       -4.708911   1.000000
   40       -4.705042   1.000000
   41       -4.374064   1.000000
   42       -4.361494   1.000000
   43       -4.241693   1.000000
   44       -4.150619   1.000000
   45       -4.092048   1.000000
   46       -4.024767   1.000000
   47       -3.846552   1.000000
   48       -3.790163   1.000000
   49       -3.114760   1.000000
   50       -3.093770   1.000000
   51       -3.030284   1.000000
   52       -2.932748   1.000000
   53       -2.830601   1.000000
   54       -2.778762   1.000000
   55       -2.729863   1.000000
   56       -2.615952   1.000000
   57       -2.555355   1.000000
   58       -2.395914   1.000000
   59       -2.353535   1.000000
   60       -2.243280   1.000000
   61       -2.112162   1.000000
   62       -2.076920   1.000000
   63       -2.018137   1.000000
   64       -1.920746   1.000000
   65       -1.745871   1.000000
   66       -1.663786   1.000000
   67       -1.582311   1.000000
   68       -1.552578   1.000000
   69       -1.532969   1.000000
   70       -1.430356   1.000000
   71       -1.387874   1.000000
   72       -1.343247   1.000000
   73       -1.256491   1.000000
   74       -1.136727   1.000000
   75       -1.112041   1.000000
   76       -1.035459   1.000000
   77       -0.967256   1.000000
   78       -0.819663   1.000000
   79       -0.787337   1.000000
   80       -0.763519   1.000000
   81       -0.607338   1.000000
   82       -0.534328   1.000000
   83       -0.497136   1.000000
   84       -0.430451   1.000000
   85       -0.406526   1.000000
   86       -0.338608   1.000000
   87       -0.323798   1.000000
   88       -0.287840   1.000000
   89       -0.196512   1.000000
   90       -0.110494   1.000000
   91       -0.061754   1.000000
   92       -0.004387   1.000000
   93        0.072730   1.000000
   94        0.140088   1.000000
   95        0.161214   1.000000
   96        0.215059   1.000000
   97        0.306302   1.000000
   98        0.395995   1.000000
   99        0.433661   1.000000
  100        0.449500   1.000000
  101        0.528199   1.000000
  102        0.580543   1.000000
  103        0.650541   1.000000
  104        0.736530   1.000000
  105        0.765231   1.000000
  106        0.776240   1.000000
  107        0.849306   1.000000
  108        1.005406   1.000000
  109        1.028509   1.000000
  110        1.065862   1.000000
  111        1.104138   1.000000
  112        1.123240   1.000000
  113        1.254040   1.000000
  114        1.287631   1.000000
  115        1.376357   1.000000
  116        1.480601   1.000000
  117        1.546911   1.000000
  118        1.692198   1.000000
  119        1.799533   1.000000
  120        1.833501   1.000000
  121        1.905184   1.000000
  122        1.960301   1.000000
  123        1.988441   1.000000
  124        2.136147   1.000000
  125        2.206484   1.000000
  126        2.243796   1.000000
  127        2.265330   1.000000
  128        2.296137   1.000000
  129        2.442002   1.000000
  130        2.488129   1.000000
  131        2.548779   1.000000
  132        2.633040   1.000000
  133        2.652436   1.000000
  134        2.673844   1.000000
  135        2.719192   1.000000
  136        2.739798   1.000000
  137        2.772270   1.000000
  138        2.843597   1.000000
  139        2.947561   1.000000
  140        2.980282   1.000000
  141        3.011559   1.000000
  142        3.044340   1.000000
  143        3.080013   1.000000
  144        3.115556   1.000000
  145        3.149975   1.000000
  146        3.180807   1.000000
  147        3.234639   1.000000
  148        3.347361   1.000000
  149        3.408422   1.000000
  150        3.410930   1.000000
  151        3.448072   1.000000
  152        3.481140   1.000000
  153        3.527027   1.000000
  154        3.617805   1.000000
  155        3.644236   1.000000
  156        3.669898   1.000000
  157        3.748652   1.000000
  158        3.764766   1.000000
  159        3.810475   1.000000
  160        3.880030   1.000000
  161        3.908282   1.000000
  162        3.946187   1.000000
  163        3.974950   1.000000
  164        3.987362   1.000000
  165        4.082881   1.000000
  166        4.100638   1.000000
  167        4.129541   1.000000
  168        4.136255   1.000000
  169        4.253721   1.000000
  170        4.333148   1.000000
  171        4.363894   1.000000
  172        4.415569   1.000000
  173        4.513847   1.000000
  174        4.528235   1.000000
  175        4.544451   1.000000
  176        4.570006   1.000000
  177        4.630136   1.000000
  178        4.681834   1.000000
  179        4.716276   1.000000
  180        4.770540   1.000000
  181        4.877583   1.000000
  182        4.982328   1.000000
  183        4.995733   1.000000
  184        5.065884   1.000000
  185        5.116352   1.000000
  186        5.194301   1.000000
  187        5.229966   1.000000
  188        5.238986   1.004671
  189        5.351086   0.832855
  190        5.384563   0.495730
  191        5.461472   0.028326
  192        5.495594  -0.030177
  193        6.832129   0.000000
  194        6.957027   0.000000
  195        7.030052   0.000000
  196        7.553720   0.000000
  197        7.707285   0.000000
  198        7.789002   0.000000
  199        8.658236   0.000000
  200        8.679520   0.000000
  201        8.740185   0.000000
  202        8.956056   0.000000
  203        9.105363   0.000000
  204        9.316095   0.000000
  205        9.453230   0.000000
  206        9.616164   0.000000
  207        9.757420   0.000000
  208        9.815803   0.000000
  209        9.903204   0.000000
  210       10.035417   0.000000
  211       10.058452   0.000000
  212       10.227634   0.000000
  213       10.293091   0.000000
  214       10.399046   0.000000
  215       10.458544   0.000000
  216       10.517182   0.000000
  217       10.551175   0.000000
  218       10.618925   0.000000
  219       10.754867   0.000000
  220       10.848408   0.000000
  221       10.894496   0.000000
  222       10.960367   0.000000
  223       11.131778   0.000000
  224       11.215121   0.000000
  225       11.308518   0.000000
  226       11.397703   0.000000
  227       11.399657   0.000000
  228       11.471699   0.000000
  229       11.556665   0.000000
  230       11.598139   0.000000
  231       11.648575   0.000000
  232       11.706680   0.000000
  233       11.815742   0.000000
  234       11.858683   0.000000
  235       11.918339   0.000000
  236       12.127984   0.000000
  237       12.169252   0.000000
  238       12.203784   0.000000
  239       12.268699   0.000000
  240       12.289544   0.000000
  241       12.334392   0.000000
  242       12.377427   0.000000
  243       12.444507   0.000000
  244       12.456648   0.000000
  245       12.580008   0.000000
  246       12.647351   0.000000
  247       12.791221   0.000000
  248       12.818907   0.000000
  249       13.103440   0.000000
  250       13.268774   0.000000
  251       13.445531   0.000000
  252       13.475787   0.000000
  253       13.496835   0.000000
  254       13.599397   0.000000
  255       13.649549   0.000000
  256       13.664199   0.000000
 
  0.3333333E+00  0.5000000E+00  0.3333333E+00  0.9259259E-02
    1      -11.439266   1.000000
    2      -11.338377   1.000000
    3      -11.244601   1.000000
    4       -9.998536   1.000000
    5       -9.837224   1.000000
    6       -9.575780   1.000000
    7       -9.464460   1.000000
    8       -9.439849   1.000000
    9       -9.308492   1.000000
   10       -9.277605   1.000000
   11       -9.176383   1.000000
   12       -8.875433   1.000000
   13       -8.804392   1.000000
   14       -8.621887   1.000000
   15       -8.468578   1.000000
   16       -8.169942   1.000000
   17       -8.045696   1.000000
   18       -7.846033   1.000000
   19       -7.704831   1.000000
   20       -7.585890   1.000000
   21       -7.429914   1.000000
   22       -7.414867   1.000000
   23       -7.129550   1.000000
   24       -6.999273   1.000000
   25       -6.130307   1.000000
   26       -6.096036   1.000000
   27       -6.042844   1.000000
   28       -6.003610   1.000000
   29       -5.960100   1.000000
   30       -5.702172   1.000000
   31       -5.502288   1.000000
   32       -5.497984   1.000000
   33       -5.458930   1.000000
   34       -5.359842   1.000000
   35       -5.263419   1.000000
   36       -5.227219   1.000000
   37       -5.009815   1.000000
   38       -4.977988   1.000000
   39       -4.807451   1.000000
   40       -4.653459   1.000000
   41       -4.488911   1.000000
   42       -4.328614   1.000000
   43       -4.269027   1.000000
   44       -4.159729   1.000000
   45       -4.061664   1.000000
   46       -4.027986   1.000000
   47       -3.801405   1.000000
   48       -3.737325   1.000000
   49       -3.131319   1.000000
   50       -3.112447   1.000000
   51       -3.018462   1.000000
   52       -2.980239   1.000000
   53       -2.977590   1.000000
   54       -2.891477   1.000000
   55       -2.768659   1.000000
   56       -2.539800   1.000000
   57       -2.397479   1.000000
   58       -2.337330   1.000000
   59       -2.301537   1.000000
   60       -2.243864   1.000000
   61       -2.194878   1.000000
   62       -2.144025   1.000000
   63       -2.134884   1.000000
   64       -1.865933   1.000000
   65       -1.565338   1.000000
   66       -1.509287   1.000000
   67       -1.493640   1.000000
   68       -1.454340   1.000000
   69       -1.415872   1.000000
   70       -1.349111   1.000000
   71       -1.283915   1.000000
   72       -1.246622   1.000000
   73       -1.086000   1.000000
   74       -1.061900   1.000000
   75       -1.010197   1.000000
   76       -0.955140   1.000000
   77       -0.847841   1.000000
   78       -0.806239   1.000000
   79       -0.775227   1.000000
   80       -0.696649   1.000000
   81       -0.547484   1.000000
   82       -0.483690   1.000000
   83       -0.406714   1.000000
   84       -0.371872   1.000000
   85       -0.350343   1.000000
   86       -0.319085   1.000000
   87       -0.258563   1.000000
   88       -0.230038   1.000000
   89       -0.198937   1.000000
   90       -0.196936   1.000000
   91       -0.171201   1.000000
   92       -0.016032   1.000000
   93        0.033315   1.000000
   94        0.098165   1.000000
   95        0.118878   1.000000
   96        0.190698   1.000000
   97        0.235942   1.000000
   98        0.250275   1.000000
   99        0.354530   1.000000
  100        0.388347   1.000000
  101        0.474137   1.000000
  102        0.519063   1.000000
  103        0.533643   1.000000
  104        0.580075   1.000000
  105        0.648238   1.000000
  106        0.729704   1.000000
  107        0.783059   1.000000
  108        0.818578   1.000000
  109        0.861957   1.000000
  110        0.892949   1.000000
  111        0.926149   1.000000
  112        0.953451   1.000000
  113        1.055454   1.000000
  114        1.188918   1.000000
  115        1.335280   1.000000
  116        1.422090   1.000000
  117        1.525752   1.000000
  118        1.556519   1.000000
  119        1.570683   1.000000
  120        1.723146   1.000000
  121        1.849355   1.000000
  122        1.917001   1.000000
  123        1.953939   1.000000
  124        2.027740   1.000000
  125        2.075192   1.000000
  126        2.189365   1.000000
  127        2.252365   1.000000
  128        2.301435   1.000000
  129        2.385585   1.000000
  130        2.456232   1.000000
  131        2.547764   1.000000
  132        2.773769   1.000000
  133        2.821926   1.000000
  134        2.838347   1.000000
  135        2.870739   1.000000
  136        2.894708   1.000000
  137        2.942226   1.000000
  138        3.013890   1.000000
  139        3.104566   1.000000
  140        3.117177   1.000000
  141        3.130814   1.000000
  142        3.169449   1.000000
  143        3.197427   1.000000
  144        3.202811   1.000000
  145        3.235193   1.000000
  146        3.273738   1.000000
  147        3.307515   1.000000
  148        3.348204   1.000000
  149        3.370615   1.000000
  150        3.404638   1.000000
  151        3.489056   1.000000
  152        3.518742   1.000000
  153        3.578156   1.000000
  154        3.624858   1.000000
  155        3.654117   1.000000
  156        3.738592   1.000000
  157        3.793556   1.000000
  158        3.818699   1.000000
  159        3.837962   1.000000
  160        3.857218   1.000000
  161        3.891420   1.000000
  162        3.941953   1.000000
  163        4.046264   1.000000
  164        4.098078   1.000000
  165        4.141867   1.000000
  166        4.159232   1.000000
  167        4.244858   1.000000
  168        4.299433   1.000000
  169        4.343182   1.000000
  170        4.350759   1.000000
  171        4.380530   1.000000
  172        4.445034   1.000000
  173        4.502044   1.000000
  174        4.555285   1.000000
  175        4.579058   1.000000
  176        4.609881   1.000000
  177        4.642777   1.000000
  178        4.712581   1.000000
  179        4.734993   1.000000
  180        4.757938   1.000000
  181        4.811392   1.000000
  182        4.863690   1.000000
  183        4.963663   1.000000
  184        4.997371   1.000000
  185        5.025765   1.000000
  186        5.063598   1.000000
  187        5.118773   1.000000
  188        5.156932   1.000000
  189        5.178671   1.074710
  190        5.307455   0.943162
  191        5.337935   0.748521
  192        5.407249   0.300159
  193        6.844845   0.000000
  194        6.926841   0.000000
  195        7.000178   0.000000
  196        7.561475   0.000000
  197        7.712265   0.000000
  198        7.851250   0.000000
  199        8.689722   0.000000
  200        8.748690   0.000000
  201        8.862026   0.000000
  202        8.880698   0.000000
  203        9.062234   0.000000
  204        9.313369   0.000000
  205        9.473799   0.000000
  206        9.671746   0.000000
  207        9.768972   0.000000
  208        9.910026   0.000000
  209       10.007411   0.000000
  210       10.085179   0.000000
  211       10.115172   0.000000
  212       10.140063   0.000000
  213       10.203211   0.000000
  214       10.245472   0.000000
  215       10.306384   0.000000
  216       10.472473   0.000000
  217       10.631681   0.000000
  218       10.723512   0.000000
  219       10.870304   0.000000
  220       10.970143   0.000000
  221       11.004326   0.000000
  222       11.147208   0.000000
  223       11.186623   0.000000
  224       11.222247   0.000000
  225       11.313172   0.000000
  226       11.382822   0.000000
  227       11.435424   0.000000
  228       11.504982   0.000000
  229       11.529872   0.000000
  230       11.582854   0.000000
  231       11.660998   0.000000
  232       11.730126   0.000000
  233       11.814212   0.000000
  234       11.844555   0.000000
  235       11.848625   0.000000
  236       11.893224   0.000000
  237       11.942174   0.000000
  238       11.952973   0.000000
  239       12.035958   0.000000
  240       12.097425   0.000000
  241       12.130632   0.000000
  242       12.187121   0.000000
  243       12.232411   0.000000
  244       12.372143   0.000000
  245       12.653935   0.000000
  246       12.690554   0.000000
  247       12.744491   0.000000
  248       12.804569   0.000000
  249       13.168289   0.000000
  250       13.318391   0.000000
  251       13.380007   0.000000
  252       13.423294   0.000000
  253       13.521080   0.000000
  254       13.583557   0.000000
  255       13.599106   0.000000
  256       13.639495   0.000000
 
  0.5000000E+00  0.5000000E+00  0.3333333E+00  0.9259259E-02
    1      -11.403971   1.000000
    2      -11.366795   1.000000
    3      -11.256210   1.000000
    4      -10.013396   1.000000
    5       -9.866287   1.000000
    6       -9.509656   1.000000
    7       -9.418048   1.000000
    8       -9.386476   1.000000
    9       -9.320918   1.000000
   10       -9.266457   1.000000
   11       -9.205366   1.000000
   12       -8.979047   1.000000
   13       -8.882468   1.000000
   14       -8.594858   1.000000
   15       -8.386548   1.000000
   16       -8.222818   1.000000
   17       -8.056568   1.000000
   18       -7.813182   1.000000
   19       -7.645648   1.000000
   20       -7.630489   1.000000
   21       -7.444826   1.000000
   22       -7.395669   1.000000
   23       -7.106384   1.000000
   24       -6.998322   1.000000
   25       -6.116803   1.000000
   26       -6.086324   1.000000
   27       -6.008438   1.000000
   28       -5.936066   1.000000
   29       -5.904955   1.000000
   30       -5.721601   1.000000
   31       -5.601432   1.000000
   32       -5.584974   1.000000
   33       -5.386982   1.000000
   34       -5.361693   1.000000
   35       -5.258629   1.000000
   36       -5.237899   1.000000
   37       -5.174137   1.000000
   38       -4.883165   1.000000
   39       -4.844283   1.000000
   40       -4.836488   1.000000
   41       -4.393515   1.000000
   42       -4.362817   1.000000
   43       -4.273365   1.000000
   44       -4.184603   1.000000
   45       -4.129501   1.000000
   46       -4.052666   1.000000
   47       -3.789938   1.000000
   48       -3.734170   1.000000
   49       -3.170990   1.000000
   50       -3.064371   1.000000
   51       -2.988082   1.000000
   52       -2.871392   1.000000
   53       -2.806231   1.000000
   54       -2.762186   1.000000
   55       -2.708400   1.000000
   56       -2.577443   1.000000
   57       -2.465166   1.000000
   58       -2.440796   1.000000
   59       -2.259978   1.000000
   60       -2.166657   1.000000
   61       -2.038216   1.000000
   62       -1.986105   1.000000
   63       -1.904575   1.000000
   64       -1.773807   1.000000
   65       -1.652205   1.000000
   66       -1.543249   1.000000
   67       -1.505921   1.000000
   68       -1.443614   1.000000
   69       -1.419043   1.000000
   70       -1.356063   1.000000
   71       -1.280171   1.000000
   72       -1.249865   1.000000
   73       -1.195645   1.000000
   74       -1.146027   1.000000
   75       -1.088399   1.000000
   76       -0.974489   1.000000
   77       -0.934846   1.000000
   78       -0.891346   1.000000
   79       -0.795819   1.000000
   80       -0.666412   1.000000
   81       -0.632404   1.000000
   82       -0.603713   1.000000
   83       -0.544514   1.000000
   84       -0.526292   1.000000
   85       -0.445692   1.000000
   86       -0.365250   1.000000
   87       -0.352108   1.000000
   88       -0.319064   1.000000
   89       -0.243261   1.000000
   90       -0.115994   1.000000
   91       -0.078612   1.000000
   92       -0.034850   1.000000
   93        0.010505   1.000000
   94        0.061335   1.000000
   95        0.104520   1.000000
   96        0.131590   1.000000
   97        0.162014   1.000000
   98        0.284621   1.000000
   99        0.296114   1.000000
  100        0.357701   1.000000
  101        0.456142   1.000000
  102        0.548883   1.000000
  103        0.600959   1.000000
  104        0.683333   1.000000
  105        0.691775   1.000000
  106        0.741413   1.000000
  107        0.827045   1.000000
  108        0.850939   1.000000
  109        0.870619   1.000000
  110        0.933418   1.000000
  111        0.980165   1.000000
  112        1.047331   1.000000
  113        1.102033   1.000000
  114        1.221860   1.000000
  115        1.348581   1.000000
  116        1.436020   1.000000
  117        1.551967   1.000000
  118        1.628179   1.000000
  119        1.700344   1.000000
  120        1.726788   1.000000
  121        1.897051   1.000000
  122        1.955253   1.000000
  123        1.981716   1.000000
  124        2.076341   1.000000
  125        2.125308   1.000000
  126        2.224483   1.000000
  127        2.226482   1.000000
  128        2.268813   1.000000
  129        2.325917   1.000000
  130        2.542175   1.000000
  131        2.580695   1.000000
  132        2.638091   1.000000
  133        2.714329   1.000000
  134        2.764582   1.000000
  135        2.835625   1.000000
  136        2.925652   1.000000
  137        2.984538   1.000000
  138        2.997736   1.000000
  139        3.035087   1.000000
  140        3.044661   1.000000
  141        3.089897   1.000000
  142        3.114454   1.000000
  143        3.128757   1.000000
  144        3.178989   1.000000
  145        3.280381   1.000000
  146        3.304280   1.000000
  147        3.315557   1.000000
  148        3.384257   1.000000
  149        3.475710   1.000000
  150        3.484095   1.000000
  151        3.529983   1.000000
  152        3.555442   1.000000
  153        3.609345   1.000000
  154        3.657840   1.000000
  155        3.736062   1.000000
  156        3.776413   1.000000
  157        3.784013   1.000000
  158        3.805775   1.000000
  159        3.845340   1.000000
  160        3.877431   1.000000
  161        3.959568   1.000000
  162        4.011365   1.000000
  163        4.059130   1.000000
  164        4.071681   1.000000
  165        4.119433   1.000000
  166        4.137717   1.000000
  167        4.224730   1.000000
  168        4.278164   1.000000
  169        4.345553   1.000000
  170        4.379757   1.000000
  171        4.394250   1.000000
  172        4.451850   1.000000
  173        4.492033   1.000000
  174        4.507177   1.000000
  175        4.569300   1.000000
  176        4.625508   1.000000
  177        4.701181   1.000000
  178        4.736864   1.000000
  179        4.768652   1.000000
  180        4.825846   1.000000
  181        4.862878   1.000000
  182        4.865600   1.000000
  183        4.901327   1.000000
  184        4.932126   1.000000
  185        4.942823   1.000000
  186        4.983744   1.000000
  187        5.035299   1.000000
  188        5.108322   1.000000
  189        5.121212   1.000874
  190        5.206744   1.021251
  191        5.272648   1.052164
  192        5.295509   0.928632
  193        6.870231   0.000000
  194        6.894124   0.000000
  195        7.023987   0.000000
  196        7.662690   0.000000
  197        7.705999   0.000000
  198        7.913557   0.000000
  199        8.664450   0.000000
  200        8.756029   0.000000
  201        8.802416   0.000000
  202        9.012383   0.000000
  203        9.060162   0.000000
  204        9.401169   0.000000
  205        9.535484   0.000000
  206        9.690089   0.000000
  207        9.871122   0.000000
  208        9.927752   0.000000
  209        9.985559   0.000000
  210       10.065561   0.000000
  211       10.093011   0.000000
  212       10.113753   0.000000
  213       10.327395   0.000000
  214       10.360437   0.000000
  215       10.472087   0.000000
  216       10.520283   0.000000
  217       10.680374   0.000000
  218       10.782028   0.000000
  219       10.918227   0.000000
  220       10.937459   0.000000
  221       10.958874   0.000000
  222       11.006947   0.000000
  223       11.102872   0.000000
  224       11.171794   0.000000
  225       11.256600   0.000000
  226       11.329154   0.000000
  227       11.357751   0.000000
  228       11.397372   0.000000
  229       11.456090   0.000000
  230       11.503008   0.000000
  231       11.561092   0.000000
  232       11.696414   0.000000
  233       11.768239   0.000000
  234       11.802071   0.000000
  235       11.851533   0.000000
  236       11.865586   0.000000
  237       11.947838   0.000000
  238       11.957141   0.000000
  239       12.040343   0.000000
  240       12.086010   0.000000
  241       12.087678   0.000000
  242       12.179571   0.000000
  243       12.197334   0.000000
  244       12.279401   0.000000
  245       12.488073   0.000000
  246       12.520977   0.000000
  247       12.796579   0.000000
  248       12.853870   0.000000
  249       13.274071   0.000000
  250       13.362903   0.000000
  251       13.388308   0.000000
  252       13.477001   0.000000
  253       13.528999   0.000000
  254       13.557070   0.000000
  255       13.635929   0.000000
  256       13.670469   0.000000
 
 -0.3333333E+00  0.5000000E+00  0.3333333E+00  0.9259259E-02
    1      -11.426862   1.000000
    2      -11.347735   1.000000
    3      -11.246062   1.000000
    4       -9.999993   1.000000
    5       -9.876344   1.000000
    6       -9.597232   1.000000
    7       -9.490865   1.000000
    8       -9.377073   1.000000
    9       -9.304430   1.000000
   10       -9.249347   1.000000
   11       -9.213867   1.000000
   12       -8.883710   1.000000
   13       -8.791304   1.000000
   14       -8.547952   1.000000
   15       -8.291292   1.000000
   16       -8.270654   1.000000
   17       -8.066832   1.000000
   18       -7.838909   1.000000
   19       -7.705847   1.000000
   20       -7.624791   1.000000
   21       -7.534751   1.000000
   22       -7.404677   1.000000
   23       -7.152667   1.000000
   24       -7.060662   1.000000
   25       -6.128537   1.000000
   26       -6.100599   1.000000
   27       -5.904212   1.000000
   28       -5.843919   1.000000
   29       -5.831956   1.000000
   30       -5.805181   1.000000
   31       -5.777975   1.000000
   32       -5.765972   1.000000
   33       -5.370090   1.000000
   34       -5.232992   1.000000
   35       -5.143564   1.000000
   36       -5.092336   1.000000
   37       -5.044754   1.000000
   38       -4.917265   1.000000
   39       -4.893417   1.000000
   40       -4.804344   1.000000
   41       -4.446548   1.000000
   42       -4.398574   1.000000
   43       -4.292284   1.000000
   44       -4.231100   1.000000
   45       -4.174509   1.000000
   46       -4.041458   1.000000
   47       -3.838206   1.000000
   48       -3.770885   1.000000
   49       -3.038844   1.000000
   50       -2.935728   1.000000
   51       -2.865665   1.000000
   52       -2.820475   1.000000
   53       -2.729472   1.000000
   54       -2.626323   1.000000
   55       -2.565189   1.000000
   56       -2.444822   1.000000
   57       -2.410302   1.000000
   58       -2.328460   1.000000
   59       -2.274205   1.000000
   60       -2.248673   1.000000
   61       -1.932935   1.000000
   62       -1.898076   1.000000
   63       -1.832913   1.000000
   64       -1.801171   1.000000
   65       -1.746386   1.000000
   66       -1.713805   1.000000
   67       -1.646229   1.000000
   68       -1.603321   1.000000
   69       -1.552683   1.000000
   70       -1.477503   1.000000
   71       -1.413059   1.000000
   72       -1.392687   1.000000
   73       -1.345340   1.000000
   74       -1.313237   1.000000
   75       -1.244021   1.000000
   76       -1.228071   1.000000
   77       -1.118712   1.000000
   78       -0.912613   1.000000
   79       -0.781232   1.000000
   80       -0.761680   1.000000
   81       -0.744202   1.000000
   82       -0.647944   1.000000
   83       -0.646630   1.000000
   84       -0.583082   1.000000
   85       -0.525012   1.000000
   86       -0.500847   1.000000
   87       -0.400816   1.000000
   88       -0.322048   1.000000
   89       -0.247580   1.000000
   90       -0.192663   1.000000
   91       -0.151010   1.000000
   92       -0.100314   1.000000
   93       -0.039754   1.000000
   94        0.003591   1.000000
   95        0.100935   1.000000
   96        0.203944   1.000000
   97        0.265881   1.000000
   98        0.274158   1.000000
   99        0.352432   1.000000
  100        0.489523   1.000000
  101        0.553720   1.000000
  102        0.678021   1.000000
  103        0.762186   1.000000
  104        0.832404   1.000000
  105        0.852739   1.000000
  106        0.900948   1.000000
  107        1.012351   1.000000
  108        1.072604   1.000000
  109        1.115081   1.000000
  110        1.162421   1.000000
  111        1.220198   1.000000
  112        1.243016   1.000000
  113        1.334591   1.000000
  114        1.367055   1.000000
  115        1.445397   1.000000
  116        1.499485   1.000000
  117        1.616236   1.000000
  118        1.674804   1.000000
  119        1.787749   1.000000
  120        1.861424   1.000000
  121        1.986426   1.000000
  122        2.087007   1.000000
  123        2.111689   1.000000
  124        2.127055   1.000000
  125        2.166780   1.000000
  126        2.176038   1.000000
  127        2.247287   1.000000
  128        2.259006   1.000000
  129        2.387892   1.000000
  130        2.451206   1.000000
  131        2.498883   1.000000
  132        2.508215   1.000000
  133        2.583812   1.000000
  134        2.668355   1.000000
  135        2.717211   1.000000
  136        2.772748   1.000000
  137        2.832207   1.000000
  138        2.913267   1.000000
  139        2.918180   1.000000
  140        2.938743   1.000000
  141        3.054069   1.000000
  142        3.077413   1.000000
  143        3.138172   1.000000
  144        3.171839   1.000000
  145        3.214917   1.000000
  146        3.278371   1.000000
  147        3.369582   1.000000
  148        3.393023   1.000000
  149        3.413507   1.000000
  150        3.487190   1.000000
  151        3.499825   1.000000
  152        3.537337   1.000000
  153        3.561772   1.000000
  154        3.630666   1.000000
  155        3.636528   1.000000
  156        3.678767   1.000000
  157        3.717814   1.000000
  158        3.736581   1.000000
  159        3.757612   1.000000
  160        3.792723   1.000000
  161        3.840513   1.000000
  162        3.890736   1.000000
  163        3.916442   1.000000
  164        3.939798   1.000000
  165        4.009426   1.000000
  166        4.105976   1.000000
  167        4.134525   1.000000
  168        4.171878   1.000000
  169        4.201245   1.000000
  170        4.337301   1.000000
  171        4.451723   1.000000
  172        4.494838   1.000000
  173        4.560503   1.000000
  174        4.577087   1.000000
  175        4.639647   1.000000
  176        4.682092   1.000000
  177        4.732179   1.000000
  178        4.738801   1.000000
  179        4.770914   1.000000
  180        4.833552   1.000000
  181        4.849178   1.000000
  182        4.899342   1.000000
  183        4.945796   1.000000
  184        4.963177   1.000000
  185        5.047183   1.000000
  186        5.073293   1.000000
  187        5.101821   1.000000
  188        5.134729   1.000000
  189        5.200293   1.000000
  190        5.207964   1.000000
  191        5.241926   1.095219
  192        5.303672   0.885676
  193        6.856615   0.000000
  194        6.949937   0.000000
  195        7.061958   0.000000
  196        7.663070   0.000000
  197        7.768957   0.000000
  198        7.924855   0.000000
  199        8.600668   0.000000
  200        8.717629   0.000000
  201        8.885329   0.000000
  202        8.928873   0.000000
  203        9.123743   0.000000
  204        9.514146   0.000000
  205        9.635453   0.000000
  206        9.785913   0.000000
  207        9.832358   0.000000
  208        9.863072   0.000000
  209        9.931624   0.000000
  210        9.985631   0.000000
  211       10.011104   0.000000
  212       10.021232   0.000000
  213       10.473684   0.000000
  214       10.535324   0.000000
  215       10.665209   0.000000
  216       10.698240   0.000000
  217       10.723202   0.000000
  218       10.793280   0.000000
  219       10.822368   0.000000
  220       10.882984   0.000000
  221       10.905947   0.000000
  222       10.954663   0.000000
  223       10.978623   0.000000
  224       10.983533   0.000000
  225       11.110536   0.000000
  226       11.153639   0.000000
  227       11.239239   0.000000
  228       11.308973   0.000000
  229       11.453800   0.000000
  230       11.465075   0.000000
  231       11.474535   0.000000
  232       11.760707   0.000000
  233       11.823276   0.000000
  234       11.901300   0.000000
  235       11.953703   0.000000
  236       11.957751   0.000000
  237       12.060574   0.000000
  238       12.089111   0.000000
  239       12.168312   0.000000
  240       12.190739   0.000000
  241       12.197206   0.000000
  242       12.235774   0.000000
  243       12.260314   0.000000
  244       12.311951   0.000000
  245       12.372274   0.000000
  246       12.390212   0.000000
  247       12.812552   0.000000
  248       12.823266   0.000000
  249       13.287949   0.000000
  250       13.306269   0.000000
  251       13.495468   0.000000
  252       13.564548   0.000000
  253       13.607892   0.000000
  254       13.617406   0.000000
  255       13.708465   0.000000
  256       13.786851   0.000000
 
 -0.1666667E+00  0.5000000E+00  0.3333333E+00  0.9259259E-02
    1      -11.458111   1.000000
    2      -11.333908   1.000000
    3      -11.216767   1.000000
    4       -9.957705   1.000000
    5       -9.868758   1.000000
    6       -9.692840   1.000000
    7       -9.621565   1.000000
    8       -9.385103   1.000000
    9       -9.320147   1.000000
   10       -9.223002   1.000000
   11       -9.188118   1.000000
   12       -8.727644   1.000000
   13       -8.634518   1.000000
   14       -8.502694   1.000000
   15       -8.324554   1.000000
   16       -8.277070   1.000000
   17       -7.985332   1.000000
   18       -7.946626   1.000000
   19       -7.802771   1.000000
   20       -7.651859   1.000000
   21       -7.555042   1.000000
   22       -7.396883   1.000000
   23       -7.213288   1.000000
   24       -7.175029   1.000000
   25       -6.210912   1.000000
   26       -6.071260   1.000000
   27       -5.980495   1.000000
   28       -5.949680   1.000000
   29       -5.867776   1.000000
   30       -5.785124   1.000000
   31       -5.716207   1.000000
   32       -5.638200   1.000000
   33       -5.304350   1.000000
   34       -5.201016   1.000000
   35       -5.051339   1.000000
   36       -4.984690   1.000000
   37       -4.924880   1.000000
   38       -4.878859   1.000000
   39       -4.844298   1.000000
   40       -4.783539   1.000000
   41       -4.497925   1.000000
   42       -4.401554   1.000000
   43       -4.335363   1.000000
   44       -4.286558   1.000000
   45       -4.067960   1.000000
   46       -4.007083   1.000000
   47       -3.906242   1.000000
   48       -3.798712   1.000000
   49       -3.037688   1.000000
   50       -2.993384   1.000000
   51       -2.851435   1.000000
   52       -2.697635   1.000000
   53       -2.622707   1.000000
   54       -2.567411   1.000000
   55       -2.487883   1.000000
   56       -2.470409   1.000000
   57       -2.382582   1.000000
   58       -2.259283   1.000000
   59       -2.190573   1.000000
   60       -2.145799   1.000000
   61       -2.061774   1.000000
   62       -2.046270   1.000000
   63       -2.004728   1.000000
   64       -1.981544   1.000000
   65       -1.876691   1.000000
   66       -1.783777   1.000000
   67       -1.736212   1.000000
   68       -1.648568   1.000000
   69       -1.559614   1.000000
   70       -1.482267   1.000000
   71       -1.459167   1.000000
   72       -1.347583   1.000000
   73       -1.321912   1.000000
   74       -1.278442   1.000000
   75       -1.254533   1.000000
   76       -1.236301   1.000000
   77       -1.183287   1.000000
   78       -1.179798   1.000000
   79       -1.065076   1.000000
   80       -1.012700   1.000000
   81       -0.888519   1.000000
   82       -0.841382   1.000000
   83       -0.772398   1.000000
   84       -0.645561   1.000000
   85       -0.544848   1.000000
   86       -0.496009   1.000000
   87       -0.394578   1.000000
   88       -0.352835   1.000000
   89       -0.319766   1.000000
   90       -0.189297   1.000000
   91       -0.178798   1.000000
   92       -0.018192   1.000000
   93        0.017862   1.000000
   94        0.123936   1.000000
   95        0.215073   1.000000
   96        0.321234   1.000000
   97        0.411776   1.000000
   98        0.526428   1.000000
   99        0.577614   1.000000
  100        0.641018   1.000000
  101        0.705118   1.000000
  102        0.760435   1.000000
  103        0.869990   1.000000
  104        0.909359   1.000000
  105        0.999010   1.000000
  106        1.041877   1.000000
  107        1.119787   1.000000
  108        1.192302   1.000000
  109        1.236095   1.000000
  110        1.329943   1.000000
  111        1.360381   1.000000
  112        1.422435   1.000000
  113        1.449487   1.000000
  114        1.477518   1.000000
  115        1.507189   1.000000
  116        1.576782   1.000000
  117        1.616819   1.000000
  118        1.736414   1.000000
  119        1.788207   1.000000
  120        1.833331   1.000000
  121        2.000049   1.000000
  122        2.036585   1.000000
  123        2.077726   1.000000
  124        2.144386   1.000000
  125        2.181787   1.000000
  126        2.230893   1.000000
  127        2.304861   1.000000
  128        2.328864   1.000000
  129        2.367462   1.000000
  130        2.424953   1.000000
  131        2.476032   1.000000
  132        2.485755   1.000000
  133        2.536525   1.000000
  134        2.636036   1.000000
  135        2.707272   1.000000
  136        2.722049   1.000000
  137        2.783427   1.000000
  138        2.803147   1.000000
  139        2.873556   1.000000
  140        2.906889   1.000000
  141        2.945697   1.000000
  142        2.952101   1.000000
  143        3.054546   1.000000
  144        3.095072   1.000000
  145        3.136327   1.000000
  146        3.220904   1.000000
  147        3.242306   1.000000
  148        3.276055   1.000000
  149        3.357311   1.000000
  150        3.382712   1.000000
  151        3.415946   1.000000
  152        3.462956   1.000000
  153        3.484921   1.000000
  154        3.521964   1.000000
  155        3.577733   1.000000
  156        3.629421   1.000000
  157        3.647241   1.000000
  158        3.664827   1.000000
  159        3.695700   1.000000
  160        3.718805   1.000000
  161        3.767176   1.000000
  162        3.800778   1.000000
  163        3.808467   1.000000
  164        3.948513   1.000000
  165        3.979776   1.000000
  166        4.057385   1.000000
  167        4.132850   1.000000
  168        4.159876   1.000000
  169        4.235394   1.000000
  170        4.248524   1.000000
  171        4.317715   1.000000
  172        4.372532   1.000000
  173        4.481657   1.000000
  174        4.572381   1.000000
  175        4.605971   1.000000
  176        4.676674   1.000000
  177        4.678416   1.000000
  178        4.750507   1.000000
  179        4.793140   1.000000
  180        4.862763   1.000000
  181        4.906071   1.000000
  182        4.961120   1.000000
  183        5.011308   1.000000
  184        5.100131   1.000000
  185        5.123364   1.000000
  186        5.173321   1.000000
  187        5.236187   1.000000
  188        5.270168   1.000000
  189        5.297969   1.020948
  190        5.320564   1.016235
  191        5.334204   0.793732
  192        5.437336   0.018243
  193        6.855216   0.000000
  194        6.973395   0.000000
  195        7.084383   0.000000
  196        7.627099   0.000000
  197        7.767951   0.000000
  198        7.883943   0.000000
  199        8.572460   0.000000
  200        8.691886   0.000000
  201        8.769128   0.000000
  202        8.986047   0.000000
  203        9.182964   0.000000
  204        9.547170   0.000000
  205        9.597694   0.000000
  206        9.660262   0.000000
  207        9.747954   0.000000
  208        9.870088   0.000000
  209        9.913239   0.000000
  210        9.990222   0.000000
  211       10.186154   0.000000
  212       10.197775   0.000000
  213       10.283548   0.000000
  214       10.352953   0.000000
  215       10.425691   0.000000
  216       10.602535   0.000000
  217       10.612232   0.000000
  218       10.672542   0.000000
  219       10.817250   0.000000
  220       10.831195   0.000000
  221       10.893017   0.000000
  222       10.926442   0.000000
  223       10.957244   0.000000
  224       11.100942   0.000000
  225       11.144049   0.000000
  226       11.225056   0.000000
  227       11.268193   0.000000
  228       11.417585   0.000000
  229       11.440098   0.000000
  230       11.539597   0.000000
  231       11.770304   0.000000
  232       11.804567   0.000000
  233       11.825128   0.000000
  234       11.865127   0.000000
  235       12.004100   0.000000
  236       12.017409   0.000000
  237       12.029585   0.000000
  238       12.167251   0.000000
  239       12.236703   0.000000
  240       12.318008   0.000000
  241       12.348501   0.000000
  242       12.405305   0.000000
  243       12.471317   0.000000
  244       12.508857   0.000000
  245       12.563595   0.000000
  246       12.643308   0.000000
  247       12.737627   0.000000
  248       12.748044   0.000000
  249       13.219886   0.000000
  250       13.282170   0.000000
  251       13.481979   0.000000
  252       13.581955   0.000000
  253       13.673653   0.000000
  254       13.741782   0.000000
  255       13.826084   0.000000
  256       13.838814   0.000000
 
  0.0000000E+00 -0.3333333E+00  0.3333333E+00  0.9259259E-02
    1      -11.483421   1.000000
    2      -11.314668   1.000000
    3      -11.198160   1.000000
    4       -9.984654   1.000000
    5       -9.849577   1.000000
    6       -9.741642   1.000000
    7       -9.597576   1.000000
    8       -9.438006   1.000000
    9       -9.270125   1.000000
   10       -9.241134   1.000000
   11       -9.222608   1.000000
   12       -8.683760   1.000000
   13       -8.569006   1.000000
   14       -8.390138   1.000000
   15       -8.315870   1.000000
   16       -8.249282   1.000000
   17       -8.029312   1.000000
   18       -7.992801   1.000000
   19       -7.835798   1.000000
   20       -7.667047   1.000000
   21       -7.553680   1.000000
   22       -7.466188   1.000000
   23       -7.294627   1.000000
   24       -7.128515   1.000000
   25       -6.241022   1.000000
   26       -6.191876   1.000000
   27       -5.969591   1.000000
   28       -5.925346   1.000000
   29       -5.873651   1.000000
   30       -5.770922   1.000000
   31       -5.659104   1.000000
   32       -5.432164   1.000000
   33       -5.340881   1.000000
   34       -5.236096   1.000000
   35       -5.070208   1.000000
   36       -4.989015   1.000000
   37       -4.946959   1.000000
   38       -4.862776   1.000000
   39       -4.801418   1.000000
   40       -4.738733   1.000000
   41       -4.586939   1.000000
   42       -4.421865   1.000000
   43       -4.220030   1.000000
   44       -4.199604   1.000000
   45       -4.099041   1.000000
   46       -4.026417   1.000000
   47       -3.886900   1.000000
   48       -3.843075   1.000000
   49       -3.065703   1.000000
   50       -2.985617   1.000000
   51       -2.891898   1.000000
   52       -2.670298   1.000000
   53       -2.591131   1.000000
   54       -2.501131   1.000000
   55       -2.448563   1.000000
   56       -2.424873   1.000000
   57       -2.359057   1.000000
   58       -2.319318   1.000000
   59       -2.277145   1.000000
   60       -2.191421   1.000000
   61       -2.140993   1.000000
   62       -2.086956   1.000000
   63       -2.040079   1.000000
   64       -1.885368   1.000000
   65       -1.818146   1.000000
   66       -1.766703   1.000000
   67       -1.706768   1.000000
   68       -1.699117   1.000000
   69       -1.587983   1.000000
   70       -1.571343   1.000000
   71       -1.554754   1.000000
   72       -1.471538   1.000000
   73       -1.394770   1.000000
   74       -1.329728   1.000000
   75       -1.247493   1.000000
   76       -1.169739   1.000000
   77       -1.158875   1.000000
   78       -1.136523   1.000000
   79       -1.098103   1.000000
   80       -1.018486   1.000000
   81       -0.966328   1.000000
   82       -0.840957   1.000000
   83       -0.750995   1.000000
   84       -0.716366   1.000000
   85       -0.547865   1.000000
   86       -0.472545   1.000000
   87       -0.434366   1.000000
   88       -0.339299   1.000000
   89       -0.326184   1.000000
   90       -0.224028   1.000000
   91       -0.122566   1.000000
   92        0.073455   1.000000
   93        0.136448   1.000000
   94        0.235457   1.000000
   95        0.351151   1.000000
   96        0.403801   1.000000
   97        0.433166   1.000000
   98        0.461968   1.000000
   99        0.593208   1.000000
  100        0.660349   1.000000
  101        0.727468   1.000000
  102        0.794875   1.000000
  103        0.907526   1.000000
  104        0.957871   1.000000
  105        0.970769   1.000000
  106        1.027153   1.000000
  107        1.068627   1.000000
  108        1.140371   1.000000
  109        1.188571   1.000000
  110        1.246686   1.000000
  111        1.309614   1.000000
  112        1.438435   1.000000
  113        1.458834   1.000000
  114        1.480328   1.000000
  115        1.603303   1.000000
  116        1.616380   1.000000
  117        1.662470   1.000000
  118        1.797039   1.000000
  119        1.843733   1.000000
  120        1.895596   1.000000
  121        1.913773   1.000000
  122        1.922409   1.000000
  123        2.028813   1.000000
  124        2.194482   1.000000
  125        2.255978   1.000000
  126        2.288597   1.000000
  127        2.325713   1.000000
  128        2.344974   1.000000
  129        2.384893   1.000000
  130        2.509432   1.000000
  131        2.515611   1.000000
  132        2.595504   1.000000
  133        2.612142   1.000000
  134        2.623930   1.000000
  135        2.661935   1.000000
  136        2.726998   1.000000
  137        2.792708   1.000000
  138        2.795007   1.000000
  139        2.825584   1.000000
  140        2.893530   1.000000
  141        2.926862   1.000000
  142        2.980097   1.000000
  143        3.003647   1.000000
  144        3.036032   1.000000
  145        3.070609   1.000000
  146        3.126056   1.000000
  147        3.160589   1.000000
  148        3.168224   1.000000
  149        3.228399   1.000000
  150        3.308321   1.000000
  151        3.352497   1.000000
  152        3.406299   1.000000
  153        3.434939   1.000000
  154        3.472028   1.000000
  155        3.557938   1.000000
  156        3.608708   1.000000
  157        3.678158   1.000000
  158        3.703899   1.000000
  159        3.742112   1.000000
  160        3.822169   1.000000
  161        3.839556   1.000000
  162        3.854844   1.000000
  163        3.858984   1.000000
  164        3.885855   1.000000
  165        3.936590   1.000000
  166        3.993101   1.000000
  167        4.093682   1.000000
  168        4.202336   1.000000
  169        4.242877   1.000000
  170        4.253690   1.000000
  171        4.288237   1.000000
  172        4.393637   1.000000
  173        4.404577   1.000000
  174        4.478339   1.000000
  175        4.620934   1.000000
  176        4.643315   1.000000
  177        4.662708   1.000000
  178        4.747782   1.000000
  179        4.809664   1.000000
  180        4.853205   1.000000
  181        4.866431   1.000000
  182        4.952606   1.000000
  183        5.012590   1.000000
  184        5.048359   1.000000
  185        5.203247   1.000000
  186        5.238095   1.000000
  187        5.275646   1.000000
  188        5.330331   1.017859
  189        5.368455   0.832067
  190        5.433838   0.032781
  191        5.443016  -0.035612
  192        5.515308   0.000000
  193        6.800131   0.000000
  194        6.946458   0.000000
  195        7.086831   0.000000
  196        7.664380   0.000000
  197        7.834689   0.000000
  198        7.861860   0.000000
  199        8.528150   0.000000
  200        8.652011   0.000000
  201        8.729933   0.000000
  202        8.918276   0.000000
  203        9.116144   0.000000
  204        9.363560   0.000000
  205        9.520199   0.000000
  206        9.590547   0.000000
  207        9.743143   0.000000
  208        9.837940   0.000000
  209        9.952896   0.000000
  210       10.011736   0.000000
  211       10.061549   0.000000
  212       10.197871   0.000000
  213       10.257710   0.000000
  214       10.293937   0.000000
  215       10.379692   0.000000
  216       10.430718   0.000000
  217       10.507611   0.000000
  218       10.734372   0.000000
  219       10.789340   0.000000
  220       10.837803   0.000000
  221       10.921550   0.000000
  222       11.051056   0.000000
  223       11.089051   0.000000
  224       11.115798   0.000000
  225       11.238679   0.000000
  226       11.287903   0.000000
  227       11.327574   0.000000
  228       11.587632   0.000000
  229       11.665333   0.000000
  230       11.713078   0.000000
  231       11.731521   0.000000
  232       11.765002   0.000000
  233       11.822029   0.000000
  234       11.939843   0.000000
  235       12.049764   0.000000
  236       12.084299   0.000000
  237       12.092128   0.000000
  238       12.170021   0.000000
  239       12.288964   0.000000
  240       12.320763   0.000000
  241       12.399688   0.000000
  242       12.454502   0.000000
  243       12.531723   0.000000
  244       12.549340   0.000000
  245       12.622384   0.000000
  246       12.748147   0.000000
  247       12.871237   0.000000
  248       13.088618   0.000000
  249       13.135229   0.000000
  250       13.197142   0.000000
  251       13.255559   0.000000
  252       13.321288   0.000000
  253       13.493433   0.000000
  254       13.589164   0.000000
  255       13.753371   0.000000
  256       13.802682   0.000000
 
  0.1666667E+00 -0.3333333E+00  0.3333333E+00  0.9259259E-02
    1      -11.461341   1.000000
    2      -11.331683   1.000000
    3      -11.213561   1.000000
    4       -9.908726   1.000000
    5       -9.863035   1.000000
    6       -9.754693   1.000000
    7       -9.635298   1.000000
    8       -9.401308   1.000000
    9       -9.318010   1.000000
   10       -9.298144   1.000000
   11       -9.185171   1.000000
   12       -8.637800   1.000000
   13       -8.585954   1.000000
   14       -8.429004   1.000000
   15       -8.318836   1.000000
   16       -8.171346   1.000000
   17       -8.064811   1.000000
   18       -7.950976   1.000000
   19       -7.872487   1.000000
   20       -7.658173   1.000000
   21       -7.557574   1.000000
   22       -7.435389   1.000000
   23       -7.293771   1.000000
   24       -7.170133   1.000000
   25       -6.299836   1.000000
   26       -6.151213   1.000000
   27       -6.129871   1.000000
   28       -5.899109   1.000000
   29       -5.780197   1.000000
   30       -5.752076   1.000000
   31       -5.542362   1.000000
   32       -5.341982   1.000000
   33       -5.330705   1.000000
   34       -5.245111   1.000000
   35       -5.116149   1.000000
   36       -5.054823   1.000000
   37       -4.958096   1.000000
   38       -4.909867   1.000000
   39       -4.774895   1.000000
   40       -4.674382   1.000000
   41       -4.566736   1.000000
   42       -4.415125   1.000000
   43       -4.388703   1.000000
   44       -4.201567   1.000000
   45       -4.104709   1.000000
   46       -3.977383   1.000000
   47       -3.921289   1.000000
   48       -3.801120   1.000000
   49       -3.133258   1.000000
   50       -3.031335   1.000000
   51       -2.823658   1.000000
   52       -2.768003   1.000000
   53       -2.714306   1.000000
   54       -2.633770   1.000000
   55       -2.509706   1.000000
   56       -2.471012   1.000000
   57       -2.379479   1.000000
   58       -2.328254   1.000000
   59       -2.225368   1.000000
   60       -2.139760   1.000000
   61       -2.116767   1.000000
   62       -2.094910   1.000000
   63       -2.055001   1.000000
   64       -1.897798   1.000000
   65       -1.795234   1.000000
   66       -1.781984   1.000000
   67       -1.733662   1.000000
   68       -1.633742   1.000000
   69       -1.591470   1.000000
   70       -1.573481   1.000000
   71       -1.482273   1.000000
   72       -1.403516   1.000000
   73       -1.391906   1.000000
   74       -1.306523   1.000000
   75       -1.200779   1.000000
   76       -1.125144   1.000000
   77       -1.086709   1.000000
   78       -0.990822   1.000000
   79       -0.837088   1.000000
   80       -0.772897   1.000000
   81       -0.715903   1.000000
   82       -0.680490   1.000000
   83       -0.595087   1.000000
   84       -0.545486   1.000000
   85       -0.503405   1.000000
   86       -0.467320   1.000000
   87       -0.416181   1.000000
   88       -0.349761   1.000000
   89       -0.312727   1.000000
   90       -0.245741   1.000000
   91       -0.145311   1.000000
   92       -0.129356   1.000000
   93       -0.033798   1.000000
   94        0.186676   1.000000
   95        0.237772   1.000000
   96        0.294240   1.000000
   97        0.382443   1.000000
   98        0.445274   1.000000
   99        0.471630   1.000000
  100        0.526279   1.000000
  101        0.607708   1.000000
  102        0.686969   1.000000
  103        0.731978   1.000000
  104        0.751260   1.000000
  105        0.787865   1.000000
  106        0.903342   1.000000
  107        0.931053   1.000000
  108        1.040418   1.000000
  109        1.112062   1.000000
  110        1.178605   1.000000
  111        1.226538   1.000000
  112        1.391139   1.000000
  113        1.425284   1.000000
  114        1.456689   1.000000
  115        1.553552   1.000000
  116        1.583681   1.000000
  117        1.650314   1.000000
  118        1.743372   1.000000
  119        1.857443   1.000000
  120        1.897365   1.000000
  121        1.957510   1.000000
  122        2.049631   1.000000
  123        2.145890   1.000000
  124        2.196138   1.000000
  125        2.317061   1.000000
  126        2.358632   1.000000
  127        2.400700   1.000000
  128        2.463473   1.000000
  129        2.467783   1.000000
  130        2.517007   1.000000
  131        2.528025   1.000000
  132        2.576943   1.000000
  133        2.630882   1.000000
  134        2.668509   1.000000
  135        2.686639   1.000000
  136        2.704225   1.000000
  137        2.767997   1.000000
  138        2.804607   1.000000
  139        2.829373   1.000000
  140        2.874698   1.000000
  141        2.935043   1.000000
  142        3.004722   1.000000
  143        3.027888   1.000000
  144        3.079725   1.000000
  145        3.112016   1.000000
  146        3.257445   1.000000
  147        3.268286   1.000000
  148        3.348483   1.000000
  149        3.389401   1.000000
  150        3.417452   1.000000
  151        3.430149   1.000000
  152        3.461515   1.000000
  153        3.482308   1.000000
  154        3.500763   1.000000
  155        3.528587   1.000000
  156        3.547257   1.000000
  157        3.651831   1.000000
  158        3.714775   1.000000
  159        3.764759   1.000000
  160        3.802723   1.000000
  161        3.833885   1.000000
  162        3.861606   1.000000
  163        3.893168   1.000000
  164        3.897056   1.000000
  165        3.987931   1.000000
  166        4.067203   1.000000
  167        4.122078   1.000000
  168        4.189411   1.000000
  169        4.191321   1.000000
  170        4.263935   1.000000
  171        4.298568   1.000000
  172        4.354104   1.000000
  173        4.376520   1.000000
  174        4.496396   1.000000
  175        4.520095   1.000000
  176        4.575502   1.000000
  177        4.678023   1.000000
  178        4.766533   1.000000
  179        4.788063   1.000000
  180        4.830548   1.000000
  181        4.858138   1.000000
  182        4.923385   1.000000
  183        4.957600   1.000000
  184        5.002332   1.000000
  185        5.163420   1.000000
  186        5.175323   1.000000
  187        5.255250   1.000000
  188        5.281913   1.059704
  189        5.382413   0.669486
  190        5.423936   0.121490
  191        5.454131  -0.023031
  192        5.532022   0.000000
  193        6.801746   0.000000
  194        6.929998   0.000000
  195        7.061130   0.000000
  196        7.658347   0.000000
  197        7.775116   0.000000
  198        7.819150   0.000000
  199        8.493525   0.000000
  200        8.731694   0.000000
  201        8.852157   0.000000
  202        8.932297   0.000000
  203        9.126699   0.000000
  204        9.239795   0.000000
  205        9.443148   0.000000
  206        9.640165   0.000000
  207        9.712823   0.000000
  208        9.861103   0.000000
  209        9.995518   0.000000
  210       10.045446   0.000000
  211       10.181912   0.000000
  212       10.269032   0.000000
  213       10.300646   0.000000
  214       10.363925   0.000000
  215       10.499772   0.000000
  216       10.530642   0.000000
  217       10.584840   0.000000
  218       10.656640   0.000000
  219       10.734131   0.000000
  220       10.780816   0.000000
  221       10.854217   0.000000
  222       10.946509   0.000000
  223       11.030734   0.000000
  224       11.094309   0.000000
  225       11.322689   0.000000
  226       11.393374   0.000000
  227       11.402239   0.000000
  228       11.456217   0.000000
  229       11.555051   0.000000
  230       11.710191   0.000000
  231       11.758486   0.000000
  232       11.778329   0.000000
  233       11.861558   0.000000
  234       11.887157   0.000000
  235       11.962186   0.000000
  236       12.005973   0.000000
  237       12.058971   0.000000
  238       12.101426   0.000000
  239       12.154060   0.000000
  240       12.192615   0.000000
  241       12.273508   0.000000
  242       12.332602   0.000000
  243       12.534305   0.000000
  244       12.572160   0.000000
  245       12.720006   0.000000
  246       12.760699   0.000000
  247       12.840226   0.000000
  248       13.021497   0.000000
  249       13.083299   0.000000
  250       13.153524   0.000000
  251       13.229095   0.000000
  252       13.376322   0.000000
  253       13.450134   0.000000
  254       13.516427   0.000000
  255       13.565416   0.000000
  256       13.741839   0.000000
 
  0.3333333E+00 -0.3333333E+00  0.3333333E+00  0.9259259E-02
    1      -11.417561   1.000000
    2      -11.358713   1.000000
    3      -11.243765   1.000000
    4       -9.947279   1.000000
    5       -9.806915   1.000000
    6       -9.734527   1.000000
    7       -9.555101   1.000000
    8       -9.400121   1.000000
    9       -9.370267   1.000000
   10       -9.342825   1.000000
   11       -9.140972   1.000000
   12       -8.725377   1.000000
   13       -8.578613   1.000000
   14       -8.551619   1.000000
   15       -8.347685   1.000000
   16       -8.174608   1.000000
   17       -8.028537   1.000000
   18       -7.899963   1.000000
   19       -7.788222   1.000000
   20       -7.612547   1.000000
   21       -7.581865   1.000000
   22       -7.390518   1.000000
   23       -7.298587   1.000000
   24       -7.127802   1.000000
   25       -6.297055   1.000000
   26       -6.271394   1.000000
   27       -6.052373   1.000000
   28       -5.853551   1.000000
   29       -5.813349   1.000000
   30       -5.620846   1.000000
   31       -5.519884   1.000000
   32       -5.376661   1.000000
   33       -5.306527   1.000000
   34       -5.246251   1.000000
   35       -5.212534   1.000000
   36       -5.155518   1.000000
   37       -5.094637   1.000000
   38       -4.877862   1.000000
   39       -4.752969   1.000000
   40       -4.666951   1.000000
   41       -4.588921   1.000000
   42       -4.500285   1.000000
   43       -4.467868   1.000000
   44       -4.162309   1.000000
   45       -4.027206   1.000000
   46       -4.000266   1.000000
   47       -3.931006   1.000000
   48       -3.774226   1.000000
   49       -3.152657   1.000000
   50       -3.039728   1.000000
   51       -2.945827   1.000000
   52       -2.761579   1.000000
   53       -2.734152   1.000000
   54       -2.725327   1.000000
   55       -2.588518   1.000000
   56       -2.577575   1.000000
   57       -2.426098   1.000000
   58       -2.281611   1.000000
   59       -2.174177   1.000000
   60       -2.153730   1.000000
   61       -2.039721   1.000000
   62       -1.993608   1.000000
   63       -1.888557   1.000000
   64       -1.834922   1.000000
   65       -1.778800   1.000000
   66       -1.729091   1.000000
   67       -1.672831   1.000000
   68       -1.637786   1.000000
   69       -1.570621   1.000000
   70       -1.515783   1.000000
   71       -1.490712   1.000000
   72       -1.353875   1.000000
   73       -1.264720   1.000000
   74       -1.073787   1.000000
   75       -1.041238   1.000000
   76       -1.004391   1.000000
   77       -0.914353   1.000000
   78       -0.856481   1.000000
   79       -0.827095   1.000000
   80       -0.753783   1.000000
   81       -0.606891   1.000000
   82       -0.596344   1.000000
   83       -0.527055   1.000000
   84       -0.490185   1.000000
   85       -0.458181   1.000000
   86       -0.446290   1.000000
   87       -0.384315   1.000000
   88       -0.347833   1.000000
   89       -0.278640   1.000000
   90       -0.252766   1.000000
   91       -0.182517   1.000000
   92       -0.159269   1.000000
   93       -0.071603   1.000000
   94       -0.046065   1.000000
   95        0.026480   1.000000
   96        0.109535   1.000000
   97        0.174035   1.000000
   98        0.237081   1.000000
   99        0.317615   1.000000
  100        0.464039   1.000000
  101        0.520437   1.000000
  102        0.559812   1.000000
  103        0.663755   1.000000
  104        0.747476   1.000000
  105        0.784753   1.000000
  106        0.821885   1.000000
  107        0.866823   1.000000
  108        0.956356   1.000000
  109        0.986740   1.000000
  110        1.035142   1.000000
  111        1.081548   1.000000
  112        1.195457   1.000000
  113        1.293927   1.000000
  114        1.431315   1.000000
  115        1.500122   1.000000
  116        1.706972   1.000000
  117        1.750817   1.000000
  118        1.788478   1.000000
  119        1.833669   1.000000
  120        1.881964   1.000000
  121        1.933023   1.000000
  122        1.970366   1.000000
  123        1.993911   1.000000
  124        2.011662   1.000000
  125        2.075483   1.000000
  126        2.077175   1.000000
  127        2.292463   1.000000
  128        2.489133   1.000000
  129        2.540495   1.000000
  130        2.608170   1.000000
  131        2.622613   1.000000
  132        2.655037   1.000000
  133        2.682414   1.000000
  134        2.740590   1.000000
  135        2.806550   1.000000
  136        2.827543   1.000000
  137        2.844027   1.000000
  138        2.956794   1.000000
  139        2.994064   1.000000
  140        3.018411   1.000000
  141        3.067760   1.000000
  142        3.107167   1.000000
  143        3.137335   1.000000
  144        3.186735   1.000000
  145        3.207641   1.000000
  146        3.257969   1.000000
  147        3.305709   1.000000
  148        3.326855   1.000000
  149        3.340477   1.000000
  150        3.410982   1.000000
  151        3.556194   1.000000
  152        3.596193   1.000000
  153        3.624902   1.000000
  154        3.648602   1.000000
  155        3.672663   1.000000
  156        3.715618   1.000000
  157        3.754528   1.000000
  158        3.762649   1.000000
  159        3.786151   1.000000
  160        3.790787   1.000000
  161        3.814946   1.000000
  162        3.874654   1.000000
  163        3.949177   1.000000
  164        4.026976   1.000000
  165        4.076742   1.000000
  166        4.120080   1.000000
  167        4.164424   1.000000
  168        4.189740   1.000000
  169        4.233832   1.000000
  170        4.267414   1.000000
  171        4.322861   1.000000
  172        4.348308   1.000000
  173        4.452818   1.000000
  174        4.477817   1.000000
  175        4.491031   1.000000
  176        4.602989   1.000000
  177        4.619622   1.000000
  178        4.645456   1.000000
  179        4.677575   1.000000
  180        4.758082   1.000000
  181        4.812606   1.000000
  182        4.827370   1.000000
  183        4.855860   1.000000
  184        5.034336   1.000000
  185        5.075288   1.000000
  186        5.083178   1.000000
  187        5.143646   1.000000
  188        5.184816   1.004382
  189        5.212947   1.059195
  190        5.350197   0.780714
  191        5.420026   0.205977
  192        5.485409  -0.051668
  193        6.846050   0.000000
  194        6.877286   0.000000
  195        7.044273   0.000000
  196        7.650549   0.000000
  197        7.711154   0.000000
  198        7.846812   0.000000
  199        8.501594   0.000000
  200        8.763884   0.000000
  201        8.986269   0.000000
  202        8.996240   0.000000
  203        9.162778   0.000000
  204        9.217235   0.000000
  205        9.377868   0.000000
  206        9.649150   0.000000
  207        9.716769   0.000000
  208        9.930845   0.000000
  209        9.987376   0.000000
  210       10.081826   0.000000
  211       10.193177   0.000000
  212       10.404590   0.000000
  213       10.453499   0.000000
  214       10.477466   0.000000
  215       10.638178   0.000000
  216       10.657822   0.000000
  217       10.680278   0.000000
  218       10.711435   0.000000
  219       10.727056   0.000000
  220       10.781043   0.000000
  221       10.826003   0.000000
  222       10.903400   0.000000
  223       10.936027   0.000000
  224       11.101371   0.000000
  225       11.285318   0.000000
  226       11.404266   0.000000
  227       11.444856   0.000000
  228       11.455535   0.000000
  229       11.546972   0.000000
  230       11.656416   0.000000
  231       11.679079   0.000000
  232       11.760411   0.000000
  233       11.773535   0.000000
  234       11.789424   0.000000
  235       11.800164   0.000000
  236       11.849746   0.000000
  237       11.874808   0.000000
  238       11.929323   0.000000
  239       11.962251   0.000000
  240       12.041321   0.000000
  241       12.141605   0.000000
  242       12.312209   0.000000
  243       12.460888   0.000000
  244       12.550722   0.000000
  245       12.578828   0.000000
  246       12.688220   0.000000
  247       12.785371   0.000000
  248       12.835234   0.000000
  249       12.965510   0.000000
  250       13.121235   0.000000
  251       13.268586   0.000000
  252       13.305754   0.000000
  253       13.444187   0.000000
  254       13.550510   0.000000
  255       13.603977   0.000000
  256       13.716273   0.000000
 
  0.5000000E+00 -0.3333333E+00  0.3333333E+00  0.9259259E-02
    1      -11.404022   1.000000
    2      -11.360290   1.000000
    3      -11.258740   1.000000
    4       -9.984257   1.000000
    5       -9.876468   1.000000
    6       -9.573780   1.000000
    7       -9.468941   1.000000
    8       -9.424730   1.000000
    9       -9.397754   1.000000
   10       -9.333748   1.000000
   11       -9.154667   1.000000
   12       -8.826365   1.000000
   13       -8.707237   1.000000
   14       -8.500308   1.000000
   15       -8.323769   1.000000
   16       -8.199058   1.000000
   17       -8.101780   1.000000
   18       -7.842703   1.000000
   19       -7.694800   1.000000
   20       -7.629772   1.000000
   21       -7.525567   1.000000
   22       -7.439708   1.000000
   23       -7.197774   1.000000
   24       -7.105664   1.000000
   25       -6.333503   1.000000
   26       -6.163985   1.000000
   27       -6.010700   1.000000
   28       -5.962376   1.000000
   29       -5.731306   1.000000
   30       -5.643137   1.000000
   31       -5.577931   1.000000
   32       -5.443369   1.000000
   33       -5.324569   1.000000
   34       -5.267246   1.000000
   35       -5.197560   1.000000
   36       -5.078242   1.000000
   37       -5.073992   1.000000
   38       -5.036127   1.000000
   39       -4.962388   1.000000
   40       -4.747578   1.000000
   41       -4.538226   1.000000
   42       -4.463662   1.000000
   43       -4.392118   1.000000
   44       -4.132484   1.000000
   45       -4.051145   1.000000
   46       -3.984130   1.000000
   47       -3.913030   1.000000
   48       -3.737083   1.000000
   49       -3.139375   1.000000
   50       -3.047590   1.000000
   51       -2.944948   1.000000
   52       -2.925199   1.000000
   53       -2.733944   1.000000
   54       -2.670161   1.000000
   55       -2.507495   1.000000
   56       -2.458585   1.000000
   57       -2.408135   1.000000
   58       -2.332930   1.000000
   59       -2.261528   1.000000
   60       -2.069828   1.000000
   61       -1.988293   1.000000
   62       -1.977749   1.000000
   63       -1.906903   1.000000
   64       -1.891191   1.000000
   65       -1.713384   1.000000
   66       -1.619623   1.000000
   67       -1.558537   1.000000
   68       -1.551700   1.000000
   69       -1.511858   1.000000
   70       -1.352652   1.000000
   71       -1.314015   1.000000
   72       -1.257773   1.000000
   73       -1.213117   1.000000
   74       -1.173525   1.000000
   75       -1.097733   1.000000
   76       -1.024727   1.000000
   77       -0.961143   1.000000
   78       -0.838826   1.000000
   79       -0.813239   1.000000
   80       -0.748412   1.000000
   81       -0.730461   1.000000
   82       -0.706933   1.000000
   83       -0.704125   1.000000
   84       -0.607455   1.000000
   85       -0.546685   1.000000
   86       -0.510984   1.000000
   87       -0.483194   1.000000
   88       -0.405932   1.000000
   89       -0.315351   1.000000
   90       -0.292718   1.000000
   91       -0.216146   1.000000
   92       -0.181178   1.000000
   93       -0.146264   1.000000
   94       -0.002405   1.000000
   95        0.033295   1.000000
   96        0.124573   1.000000
   97        0.296428   1.000000
   98        0.330416   1.000000
   99        0.454085   1.000000
  100        0.524825   1.000000
  101        0.572091   1.000000
  102        0.591760   1.000000
  103        0.634429   1.000000
  104        0.682524   1.000000
  105        0.743414   1.000000
  106        0.800481   1.000000
  107        0.867252   1.000000
  108        0.889368   1.000000
  109        0.955370   1.000000
  110        1.073766   1.000000
  111        1.176535   1.000000
  112        1.249995   1.000000
  113        1.267622   1.000000
  114        1.326742   1.000000
  115        1.450492   1.000000
  116        1.541710   1.000000
  117        1.571045   1.000000
  118        1.720802   1.000000
  119        1.769036   1.000000
  120        1.825265   1.000000
  121        1.873290   1.000000
  122        1.990361   1.000000
  123        2.032848   1.000000
  124        2.124042   1.000000
  125        2.153673   1.000000
  126        2.176324   1.000000
  127        2.282764   1.000000
  128        2.365248   1.000000
  129        2.437419   1.000000
  130        2.483644   1.000000
  131        2.605414   1.000000
  132        2.656217   1.000000
  133        2.727860   1.000000
  134        2.764532   1.000000
  135        2.861581   1.000000
  136        2.911273   1.000000
  137        2.945841   1.000000
  138        2.952745   1.000000
  139        2.980114   1.000000
  140        2.982988   1.000000
  141        3.130012   1.000000
  142        3.164393   1.000000
  143        3.179747   1.000000
  144        3.212841   1.000000
  145        3.246735   1.000000
  146        3.250756   1.000000
  147        3.276516   1.000000
  148        3.334583   1.000000
  149        3.367907   1.000000
  150        3.417402   1.000000
  151        3.457321   1.000000
  152        3.469080   1.000000
  153        3.598832   1.000000
  154        3.656082   1.000000
  155        3.715260   1.000000
  156        3.794742   1.000000
  157        3.814898   1.000000
  158        3.823253   1.000000
  159        3.837454   1.000000
  160        3.909278   1.000000
  161        3.965070   1.000000
  162        4.020987   1.000000
  163        4.061756   1.000000
  164        4.081525   1.000000
  165        4.126561   1.000000
  166        4.177808   1.000000
  167        4.181540   1.000000
  168        4.236012   1.000000
  169        4.268328   1.000000
  170        4.321360   1.000000
  171        4.354256   1.000000
  172        4.385047   1.000000
  173        4.420115   1.000000
  174        4.440170   1.000000
  175        4.492584   1.000000
  176        4.579971   1.000000
  177        4.587543   1.000000
  178        4.617680   1.000000
  179        4.698726   1.000000
  180        4.725891   1.000000
  181        4.813208   1.000000
  182        4.845269   1.000000
  183        4.868308   1.000000
  184        4.901944   1.000000
  185        4.984002   1.000000
  186        5.050695   1.000000
  187        5.096263   1.000000
  188        5.113542   1.000000
  189        5.121916   1.002727
  190        5.285927   1.036221
  191        5.324441   0.878506
  192        5.392657   0.359284
  193        6.811901   0.000000
  194        6.902493   0.000000
  195        7.050507   0.000000
  196        7.675801   0.000000
  197        7.684129   0.000000
  198        7.905058   0.000000
  199        8.539714   0.000000
  200        8.777326   0.000000
  201        8.923209   0.000000
  202        8.945381   0.000000
  203        9.094065   0.000000
  204        9.362577   0.000000
  205        9.463431   0.000000
  206        9.657467   0.000000
  207        9.851502   0.000000
  208        9.956537   0.000000
  209       10.015882   0.000000
  210       10.079497   0.000000
  211       10.184096   0.000000
  212       10.258144   0.000000
  213       10.462973   0.000000
  214       10.604659   0.000000
  215       10.654336   0.000000
  216       10.678325   0.000000
  217       10.729902   0.000000
  218       10.836215   0.000000
  219       10.842243   0.000000
  220       10.871190   0.000000
  221       10.924209   0.000000
  222       10.954418   0.000000
  223       11.030732   0.000000
  224       11.067859   0.000000
  225       11.201691   0.000000
  226       11.226989   0.000000
  227       11.379386   0.000000
  228       11.387718   0.000000
  229       11.469343   0.000000
  230       11.502058   0.000000
  231       11.603168   0.000000
  232       11.650637   0.000000
  233       11.672483   0.000000
  234       11.692636   0.000000
  235       11.743196   0.000000
  236       11.837747   0.000000
  237       11.909511   0.000000
  238       11.962947   0.000000
  239       11.997274   0.000000
  240       12.040762   0.000000
  241       12.107427   0.000000
  242       12.207034   0.000000
  243       12.253986   0.000000
  244       12.377818   0.000000
  245       12.607665   0.000000
  246       12.678208   0.000000
  247       12.763060   0.000000
  248       12.828087   0.000000
  249       12.993258   0.000000
  250       13.131108   0.000000
  251       13.322713   0.000000
  252       13.424262   0.000000
  253       13.494753   0.000000
  254       13.601933   0.000000
  255       13.638887   0.000000
  256       13.676673   0.000000
 
 -0.3333333E+00 -0.3333333E+00  0.3333333E+00  0.9259259E-02
    1      -11.450675   1.000000
    2      -11.310358   1.000000
    3      -11.252321   1.000000
    4      -10.018639   1.000000
    5       -9.890637   1.000000
    6       -9.583499   1.000000
    7       -9.449508   1.000000
    8       -9.404258   1.000000
    9       -9.361830   1.000000
   10       -9.263531   1.000000
   11       -9.242587   1.000000
   12       -8.816783   1.000000
   13       -8.739382   1.000000
   14       -8.445149   1.000000
   15       -8.294070   1.000000
   16       -8.228322   1.000000
   17       -8.167634   1.000000
   18       -7.826224   1.000000
   19       -7.685950   1.000000
   20       -7.651872   1.000000
   21       -7.558107   1.000000
   22       -7.446012   1.000000
   23       -7.196612   1.000000
   24       -7.053008   1.000000
   25       -6.249962   1.000000
   26       -6.038417   1.000000
   27       -6.013064   1.000000
   28       -5.940870   1.000000
   29       -5.849203   1.000000
   30       -5.700686   1.000000
   31       -5.655687   1.000000
   32       -5.636743   1.000000
   33       -5.333134   1.000000
   34       -5.269808   1.000000
   35       -5.143249   1.000000
   36       -5.104595   1.000000
   37       -5.020946   1.000000
   38       -4.978601   1.000000
   39       -4.881094   1.000000
   40       -4.807446   1.000000
   41       -4.548323   1.000000
   42       -4.435028   1.000000
   43       -4.294824   1.000000
   44       -4.162260   1.000000
   45       -4.080894   1.000000
   46       -3.974582   1.000000
   47       -3.891198   1.000000
   48       -3.738060   1.000000
   49       -3.088676   1.000000
   50       -2.973463   1.000000
   51       -2.917766   1.000000
   52       -2.838723   1.000000
   53       -2.665600   1.000000
   54       -2.638812   1.000000
   55       -2.499550   1.000000
   56       -2.415988   1.000000
   57       -2.382468   1.000000
   58       -2.270209   1.000000
   59       -2.194415   1.000000
   60       -2.031818   1.000000
   61       -1.997181   1.000000
   62       -1.964913   1.000000
   63       -1.878250   1.000000
   64       -1.854907   1.000000
   65       -1.790991   1.000000
   66       -1.754628   1.000000
   67       -1.694548   1.000000
   68       -1.667573   1.000000
   69       -1.620458   1.000000
   70       -1.570825   1.000000
   71       -1.437673   1.000000
   72       -1.376129   1.000000
   73       -1.262234   1.000000
   74       -1.162334   1.000000
   75       -1.101095   1.000000
   76       -1.068081   1.000000
   77       -1.032983   1.000000
   78       -1.014774   1.000000
   79       -0.966865   1.000000
   80       -0.840603   1.000000
   81       -0.819271   1.000000
   82       -0.778307   1.000000
   83       -0.678163   1.000000
   84       -0.561835   1.000000
   85       -0.516562   1.000000
   86       -0.455041   1.000000
   87       -0.420676   1.000000
   88       -0.360920   1.000000
   89       -0.290384   1.000000
   90       -0.272547   1.000000
   91       -0.164759   1.000000
   92       -0.055139   1.000000
   93        0.016853   1.000000
   94        0.069267   1.000000
   95        0.099683   1.000000
   96        0.116555   1.000000
   97        0.163821   1.000000
   98        0.224667   1.000000
   99        0.294639   1.000000
  100        0.431967   1.000000
  101        0.546609   1.000000
  102        0.658425   1.000000
  103        0.694983   1.000000
  104        0.884295   1.000000
  105        0.926915   1.000000
  106        0.940031   1.000000
  107        1.019951   1.000000
  108        1.064477   1.000000
  109        1.180229   1.000000
  110        1.232697   1.000000
  111        1.263881   1.000000
  112        1.341228   1.000000
  113        1.418371   1.000000
  114        1.460593   1.000000
  115        1.471640   1.000000
  116        1.540120   1.000000
  117        1.571308   1.000000
  118        1.679495   1.000000
  119        1.731659   1.000000
  120        1.823642   1.000000
  121        1.880088   1.000000
  122        2.028619   1.000000
  123        2.091913   1.000000
  124        2.163947   1.000000
  125        2.229669   1.000000
  126        2.253188   1.000000
  127        2.273707   1.000000
  128        2.325146   1.000000
  129        2.369740   1.000000
  130        2.470105   1.000000
  131        2.563290   1.000000
  132        2.570355   1.000000
  133        2.720670   1.000000
  134        2.757518   1.000000
  135        2.775121   1.000000
  136        2.847201   1.000000
  137        2.852083   1.000000
  138        2.883179   1.000000
  139        2.926795   1.000000
  140        2.976093   1.000000
  141        3.006387   1.000000
  142        3.026905   1.000000
  143        3.065842   1.000000
  144        3.081037   1.000000
  145        3.113393   1.000000
  146        3.148628   1.000000
  147        3.249905   1.000000
  148        3.333136   1.000000
  149        3.357469   1.000000
  150        3.453374   1.000000
  151        3.522505   1.000000
  152        3.547419   1.000000
  153        3.571697   1.000000
  154        3.625737   1.000000
  155        3.650963   1.000000
  156        3.674057   1.000000
  157        3.687759   1.000000
  158        3.753122   1.000000
  159        3.774702   1.000000
  160        3.800652   1.000000
  161        3.874577   1.000000
  162        3.923900   1.000000
  163        3.949658   1.000000
  164        3.977220   1.000000
  165        4.082236   1.000000
  166        4.121893   1.000000
  167        4.153328   1.000000
  168        4.172526   1.000000
  169        4.275885   1.000000
  170        4.374027   1.000000
  171        4.455546   1.000000
  172        4.539888   1.000000
  173        4.559486   1.000000
  174        4.564957   1.000000
  175        4.608629   1.000000
  176        4.622620   1.000000
  177        4.663052   1.000000
  178        4.710366   1.000000
  179        4.798927   1.000000
  180        4.822599   1.000000
  181        4.838103   1.000000
  182        4.859350   1.000000
  183        4.899876   1.000000
  184        4.966154   1.000000
  185        5.018455   1.000000
  186        5.040472   1.000000
  187        5.107195   1.000000
  188        5.136204   1.000000
  189        5.182568   1.000000
  190        5.207812   1.000000
  191        5.270334   1.115845
  192        5.328067   0.733616
  193        6.799218   0.000000
  194        6.937477   0.000000
  195        7.071430   0.000000
  196        7.668845   0.000000
  197        7.756907   0.000000
  198        7.941471   0.000000
  199        8.569108   0.000000
  200        8.768305   0.000000
  201        8.804491   0.000000
  202        8.828183   0.000000
  203        9.107650   0.000000
  204        9.414630   0.000000
  205        9.569419   0.000000
  206        9.697472   0.000000
  207        9.765399   0.000000
  208        9.864967   0.000000
  209        9.949115   0.000000
  210        9.955137   0.000000
  211       10.163137   0.000000
  212       10.403998   0.000000
  213       10.539132   0.000000
  214       10.541238   0.000000
  215       10.589962   0.000000
  216       10.637045   0.000000
  217       10.655393   0.000000
  218       10.810960   0.000000
  219       10.834161   0.000000
  220       10.874033   0.000000
  221       10.913613   0.000000
  222       10.974230   0.000000
  223       11.075585   0.000000
  224       11.120092   0.000000
  225       11.148973   0.000000
  226       11.271759   0.000000
  227       11.299518   0.000000
  228       11.351091   0.000000
  229       11.364190   0.000000
  230       11.531772   0.000000
  231       11.548629   0.000000
  232       11.649631   0.000000
  233       11.745155   0.000000
  234       11.807666   0.000000
  235       11.893342   0.000000
  236       11.936996   0.000000
  237       11.999358   0.000000
  238       12.019991   0.000000
  239       12.098079   0.000000
  240       12.159243   0.000000
  241       12.230347   0.000000
  242       12.291327   0.000000
  243       12.301270   0.000000
  244       12.429152   0.000000
  245       12.469509   0.000000
  246       12.506142   0.000000
  247       12.716402   0.000000
  248       12.908941   0.000000
  249       13.115558   0.000000
  250       13.229282   0.000000
  251       13.351696   0.000000
  252       13.400053   0.000000
  253       13.581959   0.000000
  254       13.597942   0.000000
  255       13.632583   0.000000
  256       13.643051   0.000000
 
 -0.1666667E+00 -0.3333333E+00  0.3333333E+00  0.9259259E-02
    1      -11.479721   1.000000
    2      -11.302363   1.000000
    3      -11.217937   1.000000
    4      -10.026636   1.000000
    5       -9.870152   1.000000
    6       -9.660635   1.000000
    7       -9.523423   1.000000
    8       -9.447481   1.000000
    9       -9.281295   1.000000
   10       -9.244340   1.000000
   11       -9.218863   1.000000
   12       -8.762621   1.000000
   13       -8.644810   1.000000
   14       -8.400945   1.000000
   15       -8.327024   1.000000
   16       -8.277749   1.000000
   17       -8.107456   1.000000
   18       -7.872931   1.000000
   19       -7.751739   1.000000
   20       -7.653116   1.000000
   21       -7.586345   1.000000
   22       -7.450683   1.000000
   23       -7.273468   1.000000
   24       -7.046861   1.000000
   25       -6.203640   1.000000
   26       -6.061516   1.000000
   27       -6.023570   1.000000
   28       -5.905121   1.000000
   29       -5.840077   1.000000
   30       -5.779937   1.000000
   31       -5.744905   1.000000
   32       -5.575224   1.000000
   33       -5.377751   1.000000
   34       -5.281380   1.000000
   35       -5.103623   1.000000
   36       -5.064705   1.000000
   37       -4.940523   1.000000
   38       -4.892781   1.000000
   39       -4.856520   1.000000
   40       -4.711594   1.000000
   41       -4.508497   1.000000
   42       -4.362594   1.000000
   43       -4.292778   1.000000
   44       -4.238671   1.000000
   45       -4.159009   1.000000
   46       -3.943280   1.000000
   47       -3.866597   1.000000
   48       -3.821849   1.000000
   49       -3.030785   1.000000
   50       -2.923082   1.000000
   51       -2.866894   1.000000
   52       -2.682239   1.000000
   53       -2.623599   1.000000
   54       -2.546232   1.000000
   55       -2.476825   1.000000
   56       -2.408202   1.000000
   57       -2.387289   1.000000
   58       -2.323931   1.000000
   59       -2.142234   1.000000
   60       -2.090799   1.000000
   61       -2.041130   1.000000
   62       -2.004134   1.000000
   63       -1.974121   1.000000
   64       -1.895972   1.000000
   65       -1.847510   1.000000
   66       -1.781251   1.000000
   67       -1.732914   1.000000
   68       -1.680635   1.000000
   69       -1.652691   1.000000
   70       -1.612572   1.000000
   71       -1.535957   1.000000
   72       -1.515715   1.000000
   73       -1.376720   1.000000
   74       -1.340590   1.000000
   75       -1.332579   1.000000
   76       -1.301828   1.000000
   77       -1.131526   1.000000
   78       -1.094579   1.000000
   79       -0.971373   1.000000
   80       -0.912168   1.000000
   81       -0.862334   1.000000
   82       -0.792970   1.000000
   83       -0.730619   1.000000
   84       -0.642057   1.000000
   85       -0.588204   1.000000
   86       -0.489773   1.000000
   87       -0.393448   1.000000
   88       -0.300100   1.000000
   89       -0.261122   1.000000
   90       -0.229591   1.000000
   91       -0.086619   1.000000
   92       -0.034242   1.000000
   93        0.008765   1.000000
   94        0.094242   1.000000
   95        0.241220   1.000000
   96        0.287998   1.000000
   97        0.401634   1.000000
   98        0.432224   1.000000
   99        0.489308   1.000000
  100        0.565346   1.000000
  101        0.647522   1.000000
  102        0.690111   1.000000
  103        0.823711   1.000000
  104        0.960207   1.000000
  105        0.985511   1.000000
  106        1.025543   1.000000
  107        1.143731   1.000000
  108        1.201034   1.000000
  109        1.255994   1.000000
  110        1.319701   1.000000
  111        1.384238   1.000000
  112        1.414705   1.000000
  113        1.462617   1.000000
  114        1.515882   1.000000
  115        1.532875   1.000000
  116        1.569230   1.000000
  117        1.647927   1.000000
  118        1.750801   1.000000
  119        1.802786   1.000000
  120        1.886695   1.000000
  121        1.972350   1.000000
  122        2.032601   1.000000
  123        2.099301   1.000000
  124        2.137782   1.000000
  125        2.187831   1.000000
  126        2.243621   1.000000
  127        2.283910   1.000000
  128        2.293554   1.000000
  129        2.354306   1.000000
  130        2.413685   1.000000
  131        2.470638   1.000000
  132        2.574200   1.000000
  133        2.644845   1.000000
  134        2.678833   1.000000
  135        2.681874   1.000000
  136        2.753874   1.000000
  137        2.778774   1.000000
  138        2.829094   1.000000
  139        2.847764   1.000000
  140        2.867020   1.000000
  141        2.903995   1.000000
  142        3.006673   1.000000
  143        3.028601   1.000000
  144        3.081279   1.000000
  145        3.098065   1.000000
  146        3.157633   1.000000
  147        3.184616   1.000000
  148        3.202134   1.000000
  149        3.297646   1.000000
  150        3.348303   1.000000
  151        3.409940   1.000000
  152        3.431077   1.000000
  153        3.472025   1.000000
  154        3.523565   1.000000
  155        3.611036   1.000000
  156        3.623550   1.000000
  157        3.640123   1.000000
  158        3.675067   1.000000
  159        3.711942   1.000000
  160        3.731243   1.000000
  161        3.794400   1.000000
  162        3.865567   1.000000
  163        3.892867   1.000000
  164        3.923606   1.000000
  165        4.058601   1.000000
  166        4.098764   1.000000
  167        4.164567   1.000000
  168        4.188155   1.000000
  169        4.274473   1.000000
  170        4.343422   1.000000
  171        4.374018   1.000000
  172        4.449220   1.000000
  173        4.500463   1.000000
  174        4.522139   1.000000
  175        4.629178   1.000000
  176        4.648285   1.000000
  177        4.712064   1.000000
  178        4.721445   1.000000
  179        4.770571   1.000000
  180        4.843698   1.000000
  181        4.885491   1.000000
  182        4.962731   1.000000
  183        4.975526   1.000000
  184        5.098986   1.000000
  185        5.113703   1.000000
  186        5.155137   1.000000
  187        5.197878   1.000000
  188        5.223016   1.000000
  189        5.267537   1.020543
  190        5.291027   1.094173
  191        5.359024   0.736057
  192        5.445587   0.006702
  193        6.811111   0.000000
  194        6.949112   0.000000
  195        7.091572   0.000000
  196        7.664792   0.000000
  197        7.827981   0.000000
  198        7.927352   0.000000
  199        8.587698   0.000000
  200        8.624466   0.000000
  201        8.737873   0.000000
  202        8.878448   0.000000
  203        9.110789   0.000000
  204        9.454502   0.000000
  205        9.557841   0.000000
  206        9.654847   0.000000
  207        9.718360   0.000000
  208        9.789620   0.000000
  209        9.875155   0.000000
  210       10.031403   0.000000
  211       10.104992   0.000000
  212       10.217259   0.000000
  213       10.364659   0.000000
  214       10.408830   0.000000
  215       10.462657   0.000000
  216       10.490181   0.000000
  217       10.537263   0.000000
  218       10.694978   0.000000
  219       10.811600   0.000000
  220       10.876604   0.000000
  221       10.947363   0.000000
  222       10.991805   0.000000
  223       11.094974   0.000000
  224       11.102328   0.000000
  225       11.321054   0.000000
  226       11.349549   0.000000
  227       11.409226   0.000000
  228       11.470749   0.000000
  229       11.512668   0.000000
  230       11.631671   0.000000
  231       11.684975   0.000000
  232       11.723102   0.000000
  233       11.789387   0.000000
  234       11.884958   0.000000
  235       11.937842   0.000000
  236       12.018770   0.000000
  237       12.034276   0.000000
  238       12.138164   0.000000
  239       12.228927   0.000000
  240       12.310864   0.000000
  241       12.352765   0.000000
  242       12.413274   0.000000
  243       12.447441   0.000000
  244       12.485196   0.000000
  245       12.554293   0.000000
  246       12.582295   0.000000
  247       12.734332   0.000000
  248       12.996609   0.000000
  249       13.170530   0.000000
  250       13.251328   0.000000
  251       13.319610   0.000000
  252       13.382453   0.000000
  253       13.417085   0.000000
  254       13.603346   0.000000
  255       13.744934   0.000000
  256       13.788707   0.000000
 
  0.0000000E+00 -0.1666667E+00  0.3333333E+00  0.9259259E-02
    1      -11.507582   1.000000
    2      -11.281825   1.000000
    3      -11.196438   1.000000
    4      -10.050217   1.000000
    5       -9.848536   1.000000
    6       -9.692625   1.000000
    7       -9.501810   1.000000
    8       -9.486135   1.000000
    9       -9.305247   1.000000
   10       -9.279537   1.000000
   11       -9.146783   1.000000
   12       -8.726851   1.000000
   13       -8.575013   1.000000
   14       -8.402792   1.000000
   15       -8.335353   1.000000
   16       -8.327236   1.000000
   17       -8.109621   1.000000
   18       -7.921516   1.000000
   19       -7.757191   1.000000
   20       -7.619172   1.000000
   21       -7.601718   1.000000
   22       -7.439265   1.000000
   23       -7.327893   1.000000
   24       -6.996284   1.000000
   25       -6.269727   1.000000
   26       -6.140284   1.000000
   27       -6.031060   1.000000
   28       -5.928290   1.000000
   29       -5.732496   1.000000
   30       -5.689500   1.000000
   31       -5.658640   1.000000
   32       -5.483899   1.000000
   33       -5.405205   1.000000
   34       -5.317425   1.000000
   35       -5.174446   1.000000
   36       -5.100599   1.000000
   37       -5.025494   1.000000
   38       -4.894021   1.000000
   39       -4.810685   1.000000
   40       -4.633436   1.000000
   41       -4.532345   1.000000
   42       -4.379585   1.000000
   43       -4.304165   1.000000
   44       -4.107506   1.000000
   45       -4.062135   1.000000
   46       -3.983824   1.000000
   47       -3.896886   1.000000
   48       -3.710351   1.000000
   49       -3.202183   1.000000
   50       -3.008213   1.000000
   51       -2.856927   1.000000
   52       -2.742261   1.000000
   53       -2.681989   1.000000
   54       -2.653277   1.000000
   55       -2.613541   1.000000
   56       -2.518642   1.000000
   57       -2.319941   1.000000
   58       -2.211267   1.000000
   59       -2.177213   1.000000
   60       -2.118593   1.000000
   61       -2.096654   1.000000
   62       -2.060800   1.000000
   63       -1.972252   1.000000
   64       -1.940858   1.000000
   65       -1.911284   1.000000
   66       -1.855532   1.000000
   67       -1.821687   1.000000
   68       -1.763949   1.000000
   69       -1.674936   1.000000
   70       -1.558524   1.000000
   71       -1.473104   1.000000
   72       -1.460275   1.000000
   73       -1.370456   1.000000
   74       -1.328455   1.000000
   75       -1.265009   1.000000
   76       -1.153575   1.000000
   77       -1.062900   1.000000
   78       -0.998986   1.000000
   79       -0.954158   1.000000
   80       -0.857399   1.000000
   81       -0.829033   1.000000
   82       -0.783904   1.000000
   83       -0.740553   1.000000
   84       -0.608226   1.000000
   85       -0.509458   1.000000
   86       -0.381318   1.000000
   87       -0.345694   1.000000
   88       -0.234722   1.000000
   89       -0.207847   1.000000
   90       -0.099948   1.000000
   91       -0.025786   1.000000
   92        0.025858   1.000000
   93        0.099661   1.000000
   94        0.174981   1.000000
   95        0.259140   1.000000
   96        0.400540   1.000000
   97        0.464238   1.000000
   98        0.496074   1.000000
   99        0.508860   1.000000
  100        0.558799   1.000000
  101        0.637134   1.000000
  102        0.711291   1.000000
  103        0.750638   1.000000
  104        0.819550   1.000000
  105        0.919538   1.000000
  106        0.992985   1.000000
  107        1.037655   1.000000
  108        1.080903   1.000000
  109        1.231125   1.000000
  110        1.269295   1.000000
  111        1.296961   1.000000
  112        1.330717   1.000000
  113        1.405471   1.000000
  114        1.478154   1.000000
  115        1.552776   1.000000
  116        1.633759   1.000000
  117        1.664753   1.000000
  118        1.743829   1.000000
  119        1.793759   1.000000
  120        1.819257   1.000000
  121        1.850644   1.000000
  122        2.054284   1.000000
  123        2.111520   1.000000
  124        2.136723   1.000000
  125        2.204746   1.000000
  126        2.247089   1.000000
  127        2.320570   1.000000
  128        2.333553   1.000000
  129        2.376848   1.000000
  130        2.463837   1.000000
  131        2.493817   1.000000
  132        2.528176   1.000000
  133        2.566976   1.000000
  134        2.578074   1.000000
  135        2.601398   1.000000
  136        2.620032   1.000000
  137        2.709820   1.000000
  138        2.757924   1.000000
  139        2.764501   1.000000
  140        2.829225   1.000000
  141        2.912395   1.000000
  142        2.991718   1.000000
  143        3.018941   1.000000
  144        3.050074   1.000000
  145        3.091205   1.000000
  146        3.161884   1.000000
  147        3.204678   1.000000
  148        3.228818   1.000000
  149        3.280356   1.000000
  150        3.328545   1.000000
  151        3.376402   1.000000
  152        3.416051   1.000000
  153        3.421475   1.000000
  154        3.468688   1.000000
  155        3.512994   1.000000
  156        3.538637   1.000000
  157        3.615696   1.000000
  158        3.638312   1.000000
  159        3.745062   1.000000
  160        3.832172   1.000000
  161        3.860878   1.000000
  162        3.931064   1.000000
  163        3.957422   1.000000
  164        4.010664   1.000000
  165        4.079534   1.000000
  166        4.117605   1.000000
  167        4.175133   1.000000
  168        4.190578   1.000000
  169        4.247176   1.000000
  170        4.353497   1.000000
  171        4.412794   1.000000
  172        4.426480   1.000000
  173        4.440733   1.000000
  174        4.489663   1.000000
  175        4.556272   1.000000
  176        4.699534   1.000000
  177        4.761713   1.000000
  178        4.780901   1.000000
  179        4.868240   1.000000
  180        4.883100   1.000000
  181        4.970455   1.000000
  182        5.000816   1.000000
  183        5.037366   1.000000
  184        5.083810   1.000000
  185        5.184108   1.000000
  186        5.213975   1.000000
  187        5.267104   1.000000
  188        5.348501   1.002461
  189        5.365366   0.911392
  190        5.376907   0.599960
  191        5.401342   0.116560
  192        5.529416   0.000000
  193        6.731865   0.000000
  194        6.886825   0.000000
  195        7.055362   0.000000
  196        7.696425   0.000000
  197        7.852407   0.000000
  198        7.946441   0.000000
  199        8.387679   0.000000
  200        8.615193   0.000000
  201        8.734036   0.000000
  202        8.759730   0.000000
  203        9.162781   0.000000
  204        9.334799   0.000000
  205        9.382527   0.000000
  206        9.511922   0.000000
  207        9.676720   0.000000
  208        9.693890   0.000000
  209        9.754314   0.000000
  210        9.920099   0.000000
  211       10.084315   0.000000
  212       10.094935   0.000000
  213       10.203268   0.000000
  214       10.352347   0.000000
  215       10.373927   0.000000
  216       10.423763   0.000000
  217       10.611195   0.000000
  218       10.796614   0.000000
  219       10.821557   0.000000
  220       10.896308   0.000000
  221       10.924240   0.000000
  222       11.239933   0.000000
  223       11.253216   0.000000
  224       11.342024   0.000000
  225       11.467471   0.000000
  226       11.474632   0.000000
  227       11.574802   0.000000
  228       11.642151   0.000000
  229       11.648566   0.000000
  230       11.725984   0.000000
  231       11.750927   0.000000
  232       11.774685   0.000000
  233       11.823841   0.000000
  234       11.949503   0.000000
  235       12.006667   0.000000
  236       12.060981   0.000000
  237       12.079435   0.000000
  238       12.113710   0.000000
  239       12.252805   0.000000
  240       12.293446   0.000000
  241       12.357085   0.000000
  242       12.372849   0.000000
  243       12.405260   0.000000
  244       12.575203   0.000000
  245       12.640569   0.000000
  246       12.748815   0.000000
  247       12.948508   0.000000
  248       13.005794   0.000000
  249       13.014193   0.000000
  250       13.131236   0.000000
  251       13.216590   0.000000
  252       13.340235   0.000000
  253       13.380874   0.000000
  254       13.482556   0.000000
  255       13.559266   0.000000
  256       13.695709   0.000000
 
  0.1666667E+00 -0.1666667E+00  0.3333333E+00  0.9259259E-02
    1      -11.485450   1.000000
    2      -11.298629   1.000000
    3      -11.213714   1.000000
    4       -9.990034   1.000000
    5       -9.816863   1.000000
    6       -9.762101   1.000000
    7       -9.574823   1.000000
    8       -9.443621   1.000000
    9       -9.330975   1.000000
   10       -9.247685   1.000000
   11       -9.197055   1.000000
   12       -8.664164   1.000000
   13       -8.554871   1.000000
   14       -8.406620   1.000000
   15       -8.288251   1.000000
   16       -8.248723   1.000000
   17       -8.069514   1.000000
   18       -8.027441   1.000000
   19       -7.800515   1.000000
   20       -7.663891   1.000000
   21       -7.545408   1.000000
   22       -7.476520   1.000000
   23       -7.289249   1.000000
   24       -7.105628   1.000000
   25       -6.367561   1.000000
   26       -6.202036   1.000000
   27       -6.062070   1.000000
   28       -5.802116   1.000000
   29       -5.712515   1.000000
   30       -5.663280   1.000000
   31       -5.571924   1.000000
   32       -5.456544   1.000000
   33       -5.295497   1.000000
   34       -5.206627   1.000000
   35       -5.081898   1.000000
   36       -5.046878   1.000000
   37       -5.020707   1.000000
   38       -4.872277   1.000000
   39       -4.818226   1.000000
   40       -4.704149   1.000000
   41       -4.646689   1.000000
   42       -4.567637   1.000000
   43       -4.439796   1.000000
   44       -4.360936   1.000000
   45       -4.017869   1.000000
   46       -3.875874   1.000000
   47       -3.822554   1.000000
   48       -3.711486   1.000000
   49       -3.299160   1.000000
   50       -3.026397   1.000000
   51       -2.851953   1.000000
   52       -2.754994   1.000000
   53       -2.723506   1.000000
   54       -2.698937   1.000000
   55       -2.599699   1.000000
   56       -2.462364   1.000000
   57       -2.307752   1.000000
   58       -2.254908   1.000000
   59       -2.179629   1.000000
   60       -2.120367   1.000000
   61       -2.058742   1.000000
   62       -1.989806   1.000000
   63       -1.923658   1.000000
   64       -1.866616   1.000000
   65       -1.764190   1.000000
   66       -1.746592   1.000000
   67       -1.729197   1.000000
   68       -1.681867   1.000000
   69       -1.614633   1.000000
   70       -1.475541   1.000000
   71       -1.373621   1.000000
   72       -1.354834   1.000000
   73       -1.335096   1.000000
   74       -1.315838   1.000000
   75       -1.236984   1.000000
   76       -1.135803   1.000000
   77       -1.106184   1.000000
   78       -1.090977   1.000000
   79       -0.980318   1.000000
   80       -0.975828   1.000000
   81       -0.861704   1.000000
   82       -0.818213   1.000000
   83       -0.654991   1.000000
   84       -0.593084   1.000000
   85       -0.447041   1.000000
   86       -0.399909   1.000000
   87       -0.323351   1.000000
   88       -0.282804   1.000000
   89       -0.253508   1.000000
   90       -0.194563   1.000000
   91       -0.144017   1.000000
   92       -0.054391   1.000000
   93       -0.036415   1.000000
   94        0.097008   1.000000
   95        0.211682   1.000000
   96        0.257223   1.000000
   97        0.287312   1.000000
   98        0.327221   1.000000
   99        0.422580   1.000000
  100        0.469051   1.000000
  101        0.551442   1.000000
  102        0.676979   1.000000
  103        0.760775   1.000000
  104        0.893195   1.000000
  105        0.959807   1.000000
  106        0.997808   1.000000
  107        1.056594   1.000000
  108        1.116304   1.000000
  109        1.189986   1.000000
  110        1.233601   1.000000
  111        1.307565   1.000000
  112        1.358766   1.000000
  113        1.431067   1.000000
  114        1.448180   1.000000
  115        1.509636   1.000000
  116        1.619905   1.000000
  117        1.693215   1.000000
  118        1.711744   1.000000
  119        1.808482   1.000000
  120        1.873427   1.000000
  121        1.911895   1.000000
  122        1.964917   1.000000
  123        2.136216   1.000000
  124        2.173178   1.000000
  125        2.248928   1.000000
  126        2.304673   1.000000
  127        2.375736   1.000000
  128        2.422656   1.000000
  129        2.457395   1.000000
  130        2.516123   1.000000
  131        2.554584   1.000000
  132        2.576305   1.000000
  133        2.612634   1.000000
  134        2.677446   1.000000
  135        2.702571   1.000000
  136        2.756327   1.000000
  137        2.770498   1.000000
  138        2.801608   1.000000
  139        2.803070   1.000000
  140        2.954813   1.000000
  141        2.970999   1.000000
  142        3.019468   1.000000
  143        3.102132   1.000000
  144        3.137601   1.000000
  145        3.146836   1.000000
  146        3.159690   1.000000
  147        3.176205   1.000000
  148        3.248749   1.000000
  149        3.296651   1.000000
  150        3.309310   1.000000
  151        3.362019   1.000000
  152        3.382356   1.000000
  153        3.433338   1.000000
  154        3.491707   1.000000
  155        3.513052   1.000000
  156        3.546485   1.000000
  157        3.585706   1.000000
  158        3.621155   1.000000
  159        3.695983   1.000000
  160        3.715607   1.000000
  161        3.770793   1.000000
  162        3.819818   1.000000
  163        3.906975   1.000000
  164        3.986465   1.000000
  165        4.048438   1.000000
  166        4.096978   1.000000
  167        4.144418   1.000000
  168        4.177149   1.000000
  169        4.208674   1.000000
  170        4.238660   1.000000
  171        4.360469   1.000000
  172        4.442369   1.000000
  173        4.469885   1.000000
  174        4.504694   1.000000
  175        4.550602   1.000000
  176        4.647149   1.000000
  177        4.750328   1.000000
  178        4.810559   1.000000
  179        4.873129   1.000000
  180        4.882543   1.000000
  181        4.903513   1.000000
  182        4.981332   1.000000
  183        5.007680   1.000000
  184        5.068240   1.000000
  185        5.183436   1.000000
  186        5.197774   1.000000
  187        5.255115   1.000000
  188        5.332345   1.022062
  189        5.388779   0.657066
  190        5.410465   0.219332
  191        5.445321  -0.058881
  192        5.482944   0.000000
  193        6.730874   0.000000
  194        6.868168   0.000000
  195        7.032316   0.000000
  196        7.731230   0.000000
  197        7.845541   0.000000
  198        7.911064   0.000000
  199        8.308701   0.000000
  200        8.731318   0.000000
  201        8.866933   0.000000
  202        8.937607   0.000000
  203        9.153592   0.000000
  204        9.283100   0.000000
  205        9.436192   0.000000
  206        9.491160   0.000000
  207        9.630936   0.000000
  208        9.804670   0.000000
  209        9.923152   0.000000
  210        9.967677   0.000000
  211       10.099685   0.000000
  212       10.132720   0.000000
  213       10.172362   0.000000
  214       10.346728   0.000000
  215       10.377439   0.000000
  216       10.463726   0.000000
  217       10.600857   0.000000
  218       10.750558   0.000000
  219       10.822287   0.000000
  220       10.856018   0.000000
  221       10.920205   0.000000
  222       11.072095   0.000000
  223       11.265792   0.000000
  224       11.314295   0.000000
  225       11.403954   0.000000
  226       11.509304   0.000000
  227       11.579049   0.000000
  228       11.624374   0.000000
  229       11.652059   0.000000
  230       11.684657   0.000000
  231       11.703878   0.000000
  232       11.834950   0.000000
  233       11.874580   0.000000
  234       11.916372   0.000000
  235       11.942352   0.000000
  236       11.989103   0.000000
  237       12.032121   0.000000
  238       12.058704   0.000000
  239       12.155224   0.000000
  240       12.228501   0.000000
  241       12.272076   0.000000
  242       12.301823   0.000000
  243       12.368156   0.000000
  244       12.443856   0.000000
  245       12.532506   0.000000
  246       12.629382   0.000000
  247       12.825626   0.000000
  248       12.834754   0.000000
  249       12.872297   0.000000
  250       13.068277   0.000000
  251       13.109205   0.000000
  252       13.332412   0.000000
  253       13.464520   0.000000
  254       13.568025   0.000000
  255       13.718475   0.000000
  256       13.748772   0.000000
 
  0.3333333E+00 -0.1666667E+00  0.3333333E+00  0.9259259E-02
    1      -11.438201   1.000000
    2      -11.330785   1.000000
    3      -11.245445   1.000000
    4       -9.927422   1.000000
    5       -9.795638   1.000000
    6       -9.767607   1.000000
    7       -9.649648   1.000000
    8       -9.442613   1.000000
    9       -9.343420   1.000000
   10       -9.292886   1.000000
   11       -9.158385   1.000000
   12       -8.621475   1.000000
   13       -8.542000   1.000000
   14       -8.469962   1.000000
   15       -8.268697   1.000000
   16       -8.154969   1.000000
   17       -8.076806   1.000000
   18       -7.959291   1.000000
   19       -7.863063   1.000000
   20       -7.689168   1.000000
   21       -7.523056   1.000000
   22       -7.428906   1.000000
   23       -7.337335   1.000000
   24       -7.203154   1.000000
   25       -6.383516   1.000000
   26       -6.363290   1.000000
   27       -5.995563   1.000000
   28       -5.702594   1.000000
   29       -5.673035   1.000000
   30       -5.615790   1.000000
   31       -5.545816   1.000000
   32       -5.370896   1.000000
   33       -5.258645   1.000000
   34       -5.201816   1.000000
   35       -5.095222   1.000000
   36       -5.080427   1.000000
   37       -4.968409   1.000000
   38       -4.917672   1.000000
   39       -4.870994   1.000000
   40       -4.697379   1.000000
   41       -4.675412   1.000000
   42       -4.661968   1.000000
   43       -4.525159   1.000000
   44       -4.398133   1.000000
   45       -3.993959   1.000000
   46       -3.927426   1.000000
   47       -3.834140   1.000000
   48       -3.770503   1.000000
   49       -3.278192   1.000000
   50       -3.042009   1.000000
   51       -2.855268   1.000000
   52       -2.818219   1.000000
   53       -2.762446   1.000000
   54       -2.687985   1.000000
   55       -2.597983   1.000000
   56       -2.371780   1.000000
   57       -2.148577   1.000000
   58       -2.125961   1.000000
   59       -2.095097   1.000000
   60       -2.067518   1.000000
   61       -2.039508   1.000000
   62       -1.970794   1.000000
   63       -1.898911   1.000000
   64       -1.871761   1.000000
   65       -1.848121   1.000000
   66       -1.770342   1.000000
   67       -1.678510   1.000000
   68       -1.579585   1.000000
   69       -1.498091   1.000000
   70       -1.375695   1.000000
   71       -1.367198   1.000000
   72       -1.343755   1.000000
   73       -1.285363   1.000000
   74       -1.225956   1.000000
   75       -1.204013   1.000000
   76       -1.116781   1.000000
   77       -1.043028   1.000000
   78       -1.028501   1.000000
   79       -0.979146   1.000000
   80       -0.897423   1.000000
   81       -0.841007   1.000000
   82       -0.686614   1.000000
   83       -0.653272   1.000000
   84       -0.599228   1.000000
   85       -0.563987   1.000000
   86       -0.502644   1.000000
   87       -0.436068   1.000000
   88       -0.359624   1.000000
   89       -0.357935   1.000000
   90       -0.264896   1.000000
   91       -0.186323   1.000000
   92       -0.092659   1.000000
   93       -0.077466   1.000000
   94       -0.067848   1.000000
   95        0.000727   1.000000
   96        0.059540   1.000000
   97        0.132423   1.000000
   98        0.288778   1.000000
   99        0.341044   1.000000
  100        0.388105   1.000000
  101        0.530810   1.000000
  102        0.632626   1.000000
  103        0.809875   1.000000
  104        0.865750   1.000000
  105        0.898681   1.000000
  106        0.942224   1.000000
  107        0.963579   1.000000
  108        1.008274   1.000000
  109        1.142443   1.000000
  110        1.216600   1.000000
  111        1.245746   1.000000
  112        1.305010   1.000000
  113        1.333484   1.000000
  114        1.488034   1.000000
  115        1.572037   1.000000
  116        1.682000   1.000000
  117        1.697749   1.000000
  118        1.808556   1.000000
  119        1.848248   1.000000
  120        1.947710   1.000000
  121        2.018665   1.000000
  122        2.089562   1.000000
  123        2.131550   1.000000
  124        2.146247   1.000000
  125        2.172312   1.000000
  126        2.340407   1.000000
  127        2.363614   1.000000
  128        2.401168   1.000000
  129        2.544049   1.000000
  130        2.576536   1.000000
  131        2.612802   1.000000
  132        2.625781   1.000000
  133        2.668840   1.000000
  134        2.701074   1.000000
  135        2.752738   1.000000
  136        2.777523   1.000000
  137        2.823630   1.000000
  138        2.856004   1.000000
  139        2.911391   1.000000
  140        2.976718   1.000000
  141        3.009873   1.000000
  142        3.033701   1.000000
  143        3.083503   1.000000
  144        3.121481   1.000000
  145        3.206284   1.000000
  146        3.271798   1.000000
  147        3.326149   1.000000
  148        3.359972   1.000000
  149        3.378123   1.000000
  150        3.398255   1.000000
  151        3.433695   1.000000
  152        3.449452   1.000000
  153        3.464981   1.000000
  154        3.495751   1.000000
  155        3.507144   1.000000
  156        3.570610   1.000000
  157        3.604314   1.000000
  158        3.652270   1.000000
  159        3.683347   1.000000
  160        3.794409   1.000000
  161        3.810683   1.000000
  162        3.863063   1.000000
  163        3.875153   1.000000
  164        4.025874   1.000000
  165        4.078481   1.000000
  166        4.127630   1.000000
  167        4.155835   1.000000
  168        4.174857   1.000000
  169        4.231283   1.000000
  170        4.243580   1.000000
  171        4.313097   1.000000
  172        4.419010   1.000000
  173        4.440517   1.000000
  174        4.458630   1.000000
  175        4.533553   1.000000
  176        4.626963   1.000000
  177        4.704433   1.000000
  178        4.745675   1.000000
  179        4.773520   1.000000
  180        4.787187   1.000000
  181        4.832042   1.000000
  182        4.849472   1.000000
  183        4.872794   1.000000
  184        5.069872   1.000000
  185        5.113998   1.000000
  186        5.153446   1.000000
  187        5.176297   1.000000
  188        5.214010   1.031011
  189        5.262622   1.020060
  190        5.369334   0.666524
  191        5.430270  -0.013955
  192        5.512181   0.000000
  193        6.792406   0.000000
  194        6.831495   0.000000
  195        7.017909   0.000000
  196        7.741837   0.000000
  197        7.804297   0.000000
  198        7.871997   0.000000
  199        8.288865   0.000000
  200        8.841155   0.000000
  201        8.990413   0.000000
  202        9.091208   0.000000
  203        9.127107   0.000000
  204        9.307104   0.000000
  205        9.487417   0.000000
  206        9.515625   0.000000
  207        9.593765   0.000000
  208        9.730768   0.000000
  209       10.090472   0.000000
  210       10.141825   0.000000
  211       10.191372   0.000000
  212       10.250360   0.000000
  213       10.341281   0.000000
  214       10.405805   0.000000
  215       10.545885   0.000000
  216       10.602241   0.000000
  217       10.686213   0.000000
  218       10.721820   0.000000
  219       10.761197   0.000000
  220       10.931979   0.000000
  221       10.975709   0.000000
  222       10.995736   0.000000
  223       11.068945   0.000000
  224       11.158809   0.000000
  225       11.326050   0.000000
  226       11.497276   0.000000
  227       11.531102   0.000000
  228       11.623375   0.000000
  229       11.635553   0.000000
  230       11.670219   0.000000
  231       11.671166   0.000000
  232       11.733395   0.000000
  233       11.777148   0.000000
  234       11.825411   0.000000
  235       11.845667   0.000000
  236       11.874038   0.000000
  237       11.892390   0.000000
  238       11.895310   0.000000
  239       11.939562   0.000000
  240       12.106002   0.000000
  241       12.183206   0.000000
  242       12.333314   0.000000
  243       12.415369   0.000000
  244       12.446273   0.000000
  245       12.485407   0.000000
  246       12.527466   0.000000
  247       12.558323   0.000000
  248       12.608537   0.000000
  249       12.756156   0.000000
  250       12.862609   0.000000
  251       12.893601   0.000000
  252       13.148380   0.000000
  253       13.427167   0.000000
  254       13.659035   0.000000
  255       13.810400   0.000000
  256       13.874761   0.000000
 
  0.5000000E+00 -0.1666667E+00  0.3333333E+00  0.9259259E-02
    1      -11.413560   1.000000
    2      -11.344833   1.000000
    3      -11.260735   1.000000
    4       -9.926060   1.000000
    5       -9.879655   1.000000
    6       -9.686271   1.000000
    7       -9.571828   1.000000
    8       -9.462543   1.000000
    9       -9.395800   1.000000
   10       -9.295298   1.000000
   11       -9.127692   1.000000
   12       -8.708393   1.000000
   13       -8.541203   1.000000
   14       -8.444495   1.000000
   15       -8.321330   1.000000
   16       -8.149212   1.000000
   17       -8.040237   1.000000
   18       -7.927352   1.000000
   19       -7.806838   1.000000
   20       -7.658932   1.000000
   21       -7.561721   1.000000
   22       -7.437492   1.000000
   23       -7.287648   1.000000
   24       -7.242049   1.000000
   25       -6.472705   1.000000
   26       -6.259866   1.000000
   27       -6.001404   1.000000
   28       -5.826291   1.000000
   29       -5.689692   1.000000
   30       -5.591646   1.000000
   31       -5.491022   1.000000
   32       -5.317752   1.000000
   33       -5.305602   1.000000
   34       -5.210543   1.000000
   35       -5.107764   1.000000
   36       -5.084941   1.000000
   37       -5.058473   1.000000
   38       -4.950025   1.000000
   39       -4.861357   1.000000
   40       -4.710737   1.000000
   41       -4.653223   1.000000
   42       -4.623328   1.000000
   43       -4.440900   1.000000
   44       -4.353376   1.000000
   45       -4.015625   1.000000
   46       -3.984230   1.000000
   47       -3.899823   1.000000
   48       -3.780937   1.000000
   49       -3.213893   1.000000
   50       -3.054942   1.000000
   51       -2.833903   1.000000
   52       -2.769927   1.000000
   53       -2.727149   1.000000
   54       -2.621104   1.000000
   55       -2.541666   1.000000
   56       -2.443585   1.000000
   57       -2.280195   1.000000
   58       -2.118387   1.000000
   59       -2.066543   1.000000
   60       -2.032227   1.000000
   61       -2.001267   1.000000
   62       -1.913240   1.000000
   63       -1.878111   1.000000
   64       -1.854284   1.000000
   65       -1.788537   1.000000
   66       -1.641344   1.000000
   67       -1.613324   1.000000
   68       -1.549701   1.000000
   69       -1.529741   1.000000
   70       -1.506943   1.000000
   71       -1.435152   1.000000
   72       -1.406519   1.000000
   73       -1.337169   1.000000
   74       -1.200578   1.000000
   75       -1.173830   1.000000
   76       -1.122844   1.000000
   77       -1.004622   1.000000
   78       -0.974414   1.000000
   79       -0.945825   1.000000
   80       -0.882646   1.000000
   81       -0.813607   1.000000
   82       -0.712548   1.000000
   83       -0.651974   1.000000
   84       -0.611100   1.000000
   85       -0.568086   1.000000
   86       -0.561894   1.000000
   87       -0.543402   1.000000
   88       -0.504213   1.000000
   89       -0.454185   1.000000
   90       -0.386301   1.000000
   91       -0.337791   1.000000
   92       -0.186375   1.000000
   93       -0.085425   1.000000
   94        0.101850   1.000000
   95        0.114560   1.000000
   96        0.184945   1.000000
   97        0.312356   1.000000
   98        0.384357   1.000000
   99        0.464613   1.000000
  100        0.478590   1.000000
  101        0.518608   1.000000
  102        0.593811   1.000000
  103        0.669794   1.000000
  104        0.685153   1.000000
  105        0.825032   1.000000
  106        0.900173   1.000000
  107        0.925067   1.000000
  108        0.988663   1.000000
  109        1.159658   1.000000
  110        1.179800   1.000000
  111        1.224371   1.000000
  112        1.359471   1.000000
  113        1.419418   1.000000
  114        1.499479   1.000000
  115        1.571171   1.000000
  116        1.601722   1.000000
  117        1.677547   1.000000
  118        1.790326   1.000000
  119        1.836428   1.000000
  120        1.871346   1.000000
  121        1.920601   1.000000
  122        1.990027   1.000000
  123        2.037847   1.000000
  124        2.162080   1.000000
  125        2.308719   1.000000
  126        2.329046   1.000000
  127        2.346898   1.000000
  128        2.430179   1.000000
  129        2.459834   1.000000
  130        2.518259   1.000000
  131        2.556827   1.000000
  132        2.610089   1.000000
  133        2.651282   1.000000
  134        2.678856   1.000000
  135        2.766719   1.000000
  136        2.806778   1.000000
  137        2.830638   1.000000
  138        2.903432   1.000000
  139        2.917626   1.000000
  140        2.967840   1.000000
  141        3.006677   1.000000
  142        3.083812   1.000000
  143        3.117632   1.000000
  144        3.156452   1.000000
  145        3.261311   1.000000
  146        3.306898   1.000000
  147        3.333452   1.000000
  148        3.381275   1.000000
  149        3.399728   1.000000
  150        3.413070   1.000000
  151        3.451466   1.000000
  152        3.532197   1.000000
  153        3.567571   1.000000
  154        3.613425   1.000000
  155        3.621760   1.000000
  156        3.647759   1.000000
  157        3.680397   1.000000
  158        3.700867   1.000000
  159        3.748439   1.000000
  160        3.833174   1.000000
  161        3.885397   1.000000
  162        3.936358   1.000000
  163        3.995494   1.000000
  164        4.012900   1.000000
  165        4.086891   1.000000
  166        4.117601   1.000000
  167        4.174183   1.000000
  168        4.199261   1.000000
  169        4.216281   1.000000
  170        4.275071   1.000000
  171        4.356372   1.000000
  172        4.413542   1.000000
  173        4.431859   1.000000
  174        4.529753   1.000000
  175        4.555522   1.000000
  176        4.587477   1.000000
  177        4.616259   1.000000
  178        4.667452   1.000000
  179        4.710073   1.000000
  180        4.747528   1.000000
  181        4.776832   1.000000
  182        4.821208   1.000000
  183        4.894178   1.000000
  184        4.965219   1.000000
  185        4.988982   1.000000
  186        5.067782   1.000000
  187        5.095110   1.000000
  188        5.120914   1.000000
  189        5.224219   1.023877
  190        5.292223   1.026103
  191        5.412601   0.175656
  192        5.487601  -0.050203
  193        6.766543   0.000000
  194        6.884613   0.000000
  195        7.024597   0.000000
  196        7.698615   0.000000
  197        7.767932   0.000000
  198        7.882114   0.000000
  199        8.364444   0.000000
  200        8.780801   0.000000
  201        8.873604   0.000000
  202        9.023170   0.000000
  203        9.177347   0.000000
  204        9.373938   0.000000
  205        9.427298   0.000000
  206        9.585445   0.000000
  207        9.774300   0.000000
  208        9.847420   0.000000
  209       10.039550   0.000000
  210       10.166991   0.000000
  211       10.252171   0.000000
  212       10.319849   0.000000
  213       10.345474   0.000000
  214       10.500373   0.000000
  215       10.557620   0.000000
  216       10.623847   0.000000
  217       10.782424   0.000000
  218       10.930898   0.000000
  219       10.965497   0.000000
  220       10.989184   0.000000
  221       11.040843   0.000000
  222       11.074285   0.000000
  223       11.104992   0.000000
  224       11.188619   0.000000
  225       11.286989   0.000000
  226       11.363181   0.000000
  227       11.403779   0.000000
  228       11.421448   0.000000
  229       11.443912   0.000000
  230       11.488768   0.000000
  231       11.600471   0.000000
  232       11.649210   0.000000
  233       11.657376   0.000000
  234       11.690971   0.000000
  235       11.785435   0.000000
  236       11.834105   0.000000
  237       11.888041   0.000000
  238       11.965421   0.000000
  239       11.991084   0.000000
  240       12.050121   0.000000
  241       12.143835   0.000000
  242       12.322945   0.000000
  243       12.341668   0.000000
  244       12.446004   0.000000
  245       12.517436   0.000000
  246       12.547099   0.000000
  247       12.566072   0.000000
  248       12.647472   0.000000
  249       12.694905   0.000000
  250       12.718426   0.000000
  251       12.897281   0.000000
  252       13.146206   0.000000
  253       13.506639   0.000000
  254       13.669702   0.000000
  255       13.761230   0.000000
  256       13.844933   0.000000
 
 -0.3333333E+00 -0.1666667E+00  0.3333333E+00  0.9259259E-02
    1      -11.462268   1.000000
    2      -11.280656   1.000000
    3      -11.264853   1.000000
    4      -10.009620   1.000000
    5       -9.869977   1.000000
    6       -9.642846   1.000000
    7       -9.517741   1.000000
    8       -9.476801   1.000000
    9       -9.344356   1.000000
   10       -9.258882   1.000000
   11       -9.200291   1.000000
   12       -8.735893   1.000000
   13       -8.604903   1.000000
   14       -8.393834   1.000000
   15       -8.337573   1.000000
   16       -8.220029   1.000000
   17       -8.116848   1.000000
   18       -7.858313   1.000000
   19       -7.737105   1.000000
   20       -7.627602   1.000000
   21       -7.591306   1.000000
   22       -7.461129   1.000000
   23       -7.325536   1.000000
   24       -7.091286   1.000000
   25       -6.415846   1.000000
   26       -6.081865   1.000000
   27       -6.009234   1.000000
   28       -5.940905   1.000000
   29       -5.892552   1.000000
   30       -5.563333   1.000000
   31       -5.502744   1.000000
   32       -5.481172   1.000000
   33       -5.362160   1.000000
   34       -5.290458   1.000000
   35       -5.125861   1.000000
   36       -5.045131   1.000000
   37       -5.020204   1.000000
   38       -4.937351   1.000000
   39       -4.900107   1.000000
   40       -4.768251   1.000000
   41       -4.540421   1.000000
   42       -4.501890   1.000000
   43       -4.282744   1.000000
   44       -4.244956   1.000000
   45       -4.031241   1.000000
   46       -3.969246   1.000000
   47       -3.935859   1.000000
   48       -3.758383   1.000000
   49       -3.122582   1.000000
   50       -3.027474   1.000000
   51       -2.809219   1.000000
   52       -2.767334   1.000000
   53       -2.725544   1.000000
   54       -2.568582   1.000000
   55       -2.498055   1.000000
   56       -2.440600   1.000000
   57       -2.361846   1.000000
   58       -2.294938   1.000000
   59       -2.154422   1.000000
   60       -2.086284   1.000000
   61       -1.999180   1.000000
   62       -1.945699   1.000000
   63       -1.924353   1.000000
   64       -1.870912   1.000000
   65       -1.783900   1.000000
   66       -1.752419   1.000000
   67       -1.708597   1.000000
   68       -1.703199   1.000000
   69       -1.570644   1.000000
   70       -1.501966   1.000000
   71       -1.481995   1.000000
   72       -1.413336   1.000000
   73       -1.359214   1.000000
   74       -1.317836   1.000000
   75       -1.281552   1.000000
   76       -1.177026   1.000000
   77       -1.035032   1.000000
   78       -0.999493   1.000000
   79       -0.892244   1.000000
   80       -0.879894   1.000000
   81       -0.784935   1.000000
   82       -0.739014   1.000000
   83       -0.633902   1.000000
   84       -0.611996   1.000000
   85       -0.603947   1.000000
   86       -0.519409   1.000000
   87       -0.390471   1.000000
   88       -0.263515   1.000000
   89       -0.228637   1.000000
   90       -0.212511   1.000000
   91       -0.154625   1.000000
   92       -0.150912   1.000000
   93       -0.073896   1.000000
   94        0.085763   1.000000
   95        0.137397   1.000000
   96        0.187420   1.000000
   97        0.326260   1.000000
   98        0.442896   1.000000
   99        0.466917   1.000000
  100        0.521069   1.000000
  101        0.578219   1.000000
  102        0.638132   1.000000
  103        0.703253   1.000000
  104        0.781957   1.000000
  105        0.815876   1.000000
  106        0.912103   1.000000
  107        0.949347   1.000000
  108        1.048037   1.000000
  109        1.075688   1.000000
  110        1.178587   1.000000
  111        1.194160   1.000000
  112        1.324396   1.000000
  113        1.414373   1.000000
  114        1.586457   1.000000
  115        1.595778   1.000000
  116        1.646781   1.000000
  117        1.690598   1.000000
  118        1.702715   1.000000
  119        1.833696   1.000000
  120        1.868179   1.000000
  121        1.945306   1.000000
  122        2.061483   1.000000
  123        2.112866   1.000000
  124        2.121043   1.000000
  125        2.147882   1.000000
  126        2.168287   1.000000
  127        2.230836   1.000000
  128        2.327171   1.000000
  129        2.361110   1.000000
  130        2.435298   1.000000
  131        2.459324   1.000000
  132        2.613287   1.000000
  133        2.644059   1.000000
  134        2.717850   1.000000
  135        2.741825   1.000000
  136        2.799338   1.000000
  137        2.823445   1.000000
  138        2.882240   1.000000
  139        2.908956   1.000000
  140        3.016409   1.000000
  141        3.080955   1.000000
  142        3.104284   1.000000
  143        3.125332   1.000000
  144        3.142891   1.000000
  145        3.155914   1.000000
  146        3.235343   1.000000
  147        3.241180   1.000000
  148        3.270514   1.000000
  149        3.297323   1.000000
  150        3.331853   1.000000
  151        3.421239   1.000000
  152        3.463786   1.000000
  153        3.522792   1.000000
  154        3.609788   1.000000
  155        3.646733   1.000000
  156        3.685154   1.000000
  157        3.698305   1.000000
  158        3.752263   1.000000
  159        3.767656   1.000000
  160        3.820464   1.000000
  161        3.872350   1.000000
  162        3.895591   1.000000
  163        3.918116   1.000000
  164        4.008348   1.000000
  165        4.054677   1.000000
  166        4.120095   1.000000
  167        4.192174   1.000000
  168        4.214123   1.000000
  169        4.262389   1.000000
  170        4.310567   1.000000
  171        4.399745   1.000000
  172        4.412515   1.000000
  173        4.507776   1.000000
  174        4.586201   1.000000
  175        4.625037   1.000000
  176        4.667546   1.000000
  177        4.727815   1.000000
  178        4.753793   1.000000
  179        4.796937   1.000000
  180        4.815719   1.000000
  181        4.853118   1.000000
  182        4.920251   1.000000
  183        4.960560   1.000000
  184        4.972991   1.000000
  185        5.002515   1.000000
  186        5.061985   1.000000
  187        5.096551   1.000000
  188        5.148768   1.000000
  189        5.187810   1.000000
  190        5.202134   1.022104
  191        5.392139   0.423643
  192        5.399326   0.115811
  193        6.750149   0.000000
  194        6.912858   0.000000
  195        7.046796   0.000000
  196        7.656109   0.000000
  197        7.768050   0.000000
  198        7.912098   0.000000
  199        8.489098   0.000000
  200        8.655027   0.000000
  201        8.737221   0.000000
  202        8.852130   0.000000
  203        9.119451   0.000000
  204        9.304974   0.000000
  205        9.405945   0.000000
  206        9.596788   0.000000
  207        9.841215   0.000000
  208        9.881626   0.000000
  209        9.901300   0.000000
  210       10.112726   0.000000
  211       10.210691   0.000000
  212       10.274944   0.000000
  213       10.304446   0.000000
  214       10.539250   0.000000
  215       10.610867   0.000000
  216       10.775768   0.000000
  217       10.777737   0.000000
  218       10.874702   0.000000
  219       10.934086   0.000000
  220       10.939365   0.000000
  221       10.993826   0.000000
  222       11.021549   0.000000
  223       11.125442   0.000000
  224       11.221451   0.000000
  225       11.274419   0.000000
  226       11.381716   0.000000
  227       11.442665   0.000000
  228       11.456154   0.000000
  229       11.479055   0.000000
  230       11.556323   0.000000
  231       11.646799   0.000000
  232       11.666143   0.000000
  233       11.700790   0.000000
  234       11.754956   0.000000
  235       11.866356   0.000000
  236       11.912332   0.000000
  237       11.978129   0.000000
  238       12.078879   0.000000
  239       12.101454   0.000000
  240       12.171063   0.000000
  241       12.203562   0.000000
  242       12.261299   0.000000
  243       12.358843   0.000000
  244       12.432183   0.000000
  245       12.478738   0.000000
  246       12.531979   0.000000
  247       12.636262   0.000000
  248       12.718302   0.000000
  249       12.858858   0.000000
  250       12.979357   0.000000
  251       13.125750   0.000000
  252       13.305758   0.000000
  253       13.376235   0.000000
  254       13.445262   0.000000
  255       13.580270   0.000000
  256       13.659859   0.000000
 
 -0.1666667E+00 -0.1666667E+00  0.3333333E+00  0.9259259E-02
    1      -11.499069   1.000000
    2      -11.271886   1.000000
    3      -11.220204   1.000000
    4      -10.059033   1.000000
    5       -9.852445   1.000000
    6       -9.651441   1.000000
    7       -9.531512   1.000000
    8       -9.449696   1.000000
    9       -9.301900   1.000000
   10       -9.274126   1.000000
   11       -9.179606   1.000000
   12       -8.720242   1.000000
   13       -8.631528   1.000000
   14       -8.403303   1.000000
   15       -8.328450   1.000000
   16       -8.321269   1.000000
   17       -8.132091   1.000000
   18       -7.851599   1.000000
   19       -7.727580   1.000000
   20       -7.636772   1.000000
   21       -7.589405   1.000000
   22       -7.402595   1.000000
   23       -7.385703   1.000000
   24       -6.981551   1.000000
   25       -6.267295   1.000000
   26       -6.086355   1.000000
   27       -5.994913   1.000000
   28       -5.972353   1.000000
   29       -5.872607   1.000000
   30       -5.643148   1.000000
   31       -5.601388   1.000000
   32       -5.503937   1.000000
   33       -5.436867   1.000000
   34       -5.391551   1.000000
   35       -5.190586   1.000000
   36       -5.119670   1.000000
   37       -5.018783   1.000000
   38       -4.903683   1.000000
   39       -4.815459   1.000000
   40       -4.727142   1.000000
   41       -4.451284   1.000000
   42       -4.264702   1.000000
   43       -4.213924   1.000000
   44       -4.147420   1.000000
   45       -4.115797   1.000000
   46       -4.016749   1.000000
   47       -3.821893   1.000000
   48       -3.800714   1.000000
   49       -3.042784   1.000000
   50       -3.028052   1.000000
   51       -2.826857   1.000000
   52       -2.791990   1.000000
   53       -2.747416   1.000000
   54       -2.609888   1.000000
   55       -2.537561   1.000000
   56       -2.511601   1.000000
   57       -2.330887   1.000000
   58       -2.296481   1.000000
   59       -2.203711   1.000000
   60       -2.071454   1.000000
   61       -2.066945   1.000000
   62       -2.025825   1.000000
   63       -1.937770   1.000000
   64       -1.915262   1.000000
   65       -1.890727   1.000000
   66       -1.821722   1.000000
   67       -1.775562   1.000000
   68       -1.713060   1.000000
   69       -1.694650   1.000000
   70       -1.652828   1.000000
   71       -1.528056   1.000000
   72       -1.511821   1.000000
   73       -1.467887   1.000000
   74       -1.419372   1.000000
   75       -1.371383   1.000000
   76       -1.145626   1.000000
   77       -1.049741   1.000000
   78       -1.028206   1.000000
   79       -0.814957   1.000000
   80       -0.811639   1.000000
   81       -0.722557   1.000000
   82       -0.670261   1.000000
   83       -0.633432   1.000000
   84       -0.463774   1.000000
   85       -0.449824   1.000000
   86       -0.312904   1.000000
   87       -0.289371   1.000000
   88       -0.254222   1.000000
   89       -0.235743   1.000000
   90       -0.146954   1.000000
   91       -0.116351   1.000000
   92       -0.027987   1.000000
   93        0.051530   1.000000
   94        0.089729   1.000000
   95        0.174760   1.000000
   96        0.250423   1.000000
   97        0.289326   1.000000
   98        0.387979   1.000000
   99        0.526261   1.000000
  100        0.543583   1.000000
  101        0.588801   1.000000
  102        0.745660   1.000000
  103        0.773061   1.000000
  104        0.825973   1.000000
  105        0.870226   1.000000
  106        0.954140   1.000000
  107        1.045496   1.000000
  108        1.082037   1.000000
  109        1.181651   1.000000
  110        1.219684   1.000000
  111        1.305386   1.000000
  112        1.382135   1.000000
  113        1.393654   1.000000
  114        1.456872   1.000000
  115        1.580584   1.000000
  116        1.645005   1.000000
  117        1.686713   1.000000
  118        1.777895   1.000000
  119        1.816726   1.000000
  120        1.821230   1.000000
  121        1.897142   1.000000
  122        2.059364   1.000000
  123        2.105587   1.000000
  124        2.120406   1.000000
  125        2.152056   1.000000
  126        2.234124   1.000000
  127        2.259452   1.000000
  128        2.327910   1.000000
  129        2.336282   1.000000
  130        2.391966   1.000000
  131        2.442408   1.000000
  132        2.577144   1.000000
  133        2.585651   1.000000
  134        2.612382   1.000000
  135        2.675260   1.000000
  136        2.734266   1.000000
  137        2.776895   1.000000
  138        2.801702   1.000000
  139        2.851662   1.000000
  140        2.886279   1.000000
  141        2.911413   1.000000
  142        2.953034   1.000000
  143        2.972542   1.000000
  144        3.024090   1.000000
  145        3.062414   1.000000
  146        3.081452   1.000000
  147        3.224702   1.000000
  148        3.254897   1.000000
  149        3.305713   1.000000
  150        3.326006   1.000000
  151        3.372264   1.000000
  152        3.426285   1.000000
  153        3.480730   1.000000
  154        3.523079   1.000000
  155        3.563740   1.000000
  156        3.632044   1.000000
  157        3.718457   1.000000
  158        3.765899   1.000000
  159        3.803110   1.000000
  160        3.833484   1.000000
  161        3.849807   1.000000
  162        3.903504   1.000000
  163        3.960929   1.000000
  164        4.032106   1.000000
  165        4.087991   1.000000
  166        4.123768   1.000000
  167        4.143026   1.000000
  168        4.218210   1.000000
  169        4.272712   1.000000
  170        4.308994   1.000000
  171        4.392849   1.000000
  172        4.447993   1.000000
  173        4.469048   1.000000
  174        4.598473   1.000000
  175        4.671967   1.000000
  176        4.739150   1.000000
  177        4.786872   1.000000
  178        4.796628   1.000000
  179        4.843572   1.000000
  180        4.853663   1.000000
  181        4.907653   1.000000
  182        5.010202   1.000000
  183        5.016989   1.000000
  184        5.052251   1.000000
  185        5.090247   1.000000
  186        5.119151   1.000000
  187        5.151615   1.000000
  188        5.215518   1.000000
  189        5.294964   1.000453
  190        5.324087   1.077067
  191        5.380062   0.544103
  192        5.432820   0.002538
  193        6.754901   0.000000
  194        6.899921   0.000000
  195        7.063516   0.000000
  196        7.659885   0.000000
  197        7.811899   0.000000
  198        7.939573   0.000000
  199        8.486801   0.000000
  200        8.584766   0.000000
  201        8.691768   0.000000
  202        8.732593   0.000000
  203        9.107196   0.000000
  204        9.295978   0.000000
  205        9.428233   0.000000
  206        9.521891   0.000000
  207        9.621787   0.000000
  208        9.718572   0.000000
  209        9.927426   0.000000
  210        9.969340   0.000000
  211       10.129157   0.000000
  212       10.253153   0.000000
  213       10.296577   0.000000
  214       10.345290   0.000000
  215       10.497288   0.000000
  216       10.541106   0.000000
  217       10.699457   0.000000
  218       10.775983   0.000000
  219       10.925436   0.000000
  220       10.965262   0.000000
  221       11.013480   0.000000
  222       11.086126   0.000000
  223       11.139137   0.000000
  224       11.285096   0.000000
  225       11.369848   0.000000
  226       11.542846   0.000000
  227       11.565521   0.000000
  228       11.603871   0.000000
  229       11.628578   0.000000
  230       11.634606   0.000000
  231       11.651921   0.000000
  232       11.735317   0.000000
  233       11.740817   0.000000
  234       11.856895   0.000000
  235       11.990794   0.000000
  236       12.038459   0.000000
  237       12.065271   0.000000
  238       12.149715   0.000000
  239       12.200222   0.000000
  240       12.250189   0.000000
  241       12.293213   0.000000
  242       12.373554   0.000000
  243       12.387600   0.000000
  244       12.550738   0.000000
  245       12.701733   0.000000
  246       12.715264   0.000000
  247       12.752398   0.000000
  248       12.829062   0.000000
  249       13.065632   0.000000
  250       13.116051   0.000000
  251       13.190691   0.000000
  252       13.243140   0.000000
  253       13.283563   0.000000
  254       13.511397   0.000000
  255       13.537042   0.000000
  256       13.607113   0.000000
 
  0.0000000E+00  0.0000000E+00  0.5000000E+00  0.4629630E-02
    1      -11.514688   1.000000
    2      -11.267123   1.000000
    3      -11.196356   1.000000
    4      -10.092712   1.000000
    5       -9.870138   1.000000
    6       -9.605742   1.000000
    7       -9.554387   1.000000
    8       -9.473907   1.000000
    9       -9.297734   1.000000
   10       -9.252876   1.000000
   11       -9.146975   1.000000
   12       -8.713313   1.000000
   13       -8.636811   1.000000
   14       -8.400513   1.000000
   15       -8.342486   1.000000
   16       -8.334476   1.000000
   17       -8.141616   1.000000
   18       -7.866384   1.000000
   19       -7.718163   1.000000
   20       -7.621362   1.000000
   21       -7.555401   1.000000
   22       -7.424518   1.000000
   23       -7.412563   1.000000
   24       -6.955165   1.000000
   25       -6.252669   1.000000
   26       -6.202542   1.000000
   27       -5.905217   1.000000
   28       -5.893689   1.000000
   29       -5.792862   1.000000
   30       -5.719949   1.000000
   31       -5.524345   1.000000
   32       -5.496095   1.000000
   33       -5.493723   1.000000
   34       -5.407795   1.000000
   35       -5.239217   1.000000
   36       -5.144713   1.000000
   37       -5.130766   1.000000
   38       -4.915962   1.000000
   39       -4.840534   1.000000
   40       -4.646447   1.000000
   41       -4.424787   1.000000
   42       -4.235849   1.000000
   43       -4.164249   1.000000
   44       -4.145585   1.000000
   45       -4.097751   1.000000
   46       -3.987643   1.000000
   47       -3.908932   1.000000
   48       -3.848463   1.000000
   49       -3.046344   1.000000
   50       -2.992781   1.000000
   51       -2.863315   1.000000
   52       -2.803735   1.000000
   53       -2.720414   1.000000
   54       -2.644886   1.000000
   55       -2.530915   1.000000
   56       -2.509540   1.000000
   57       -2.338016   1.000000
   58       -2.239725   1.000000
   59       -2.176686   1.000000
   60       -2.097759   1.000000
   61       -2.081099   1.000000
   62       -2.034009   1.000000
   63       -2.028897   1.000000
   64       -1.990980   1.000000
   65       -1.864774   1.000000
   66       -1.847663   1.000000
   67       -1.772596   1.000000
   68       -1.748086   1.000000
   69       -1.699453   1.000000
   70       -1.626453   1.000000
   71       -1.557175   1.000000
   72       -1.415116   1.000000
   73       -1.373646   1.000000
   74       -1.323575   1.000000
   75       -1.193437   1.000000
   76       -1.190957   1.000000
   77       -1.146538   1.000000
   78       -1.104237   1.000000
   79       -0.961915   1.000000
   80       -0.738651   1.000000
   81       -0.689456   1.000000
   82       -0.675532   1.000000
   83       -0.608063   1.000000
   84       -0.512478   1.000000
   85       -0.497471   1.000000
   86       -0.347270   1.000000
   87       -0.281401   1.000000
   88       -0.215617   1.000000
   89       -0.197007   1.000000
   90       -0.098538   1.000000
   91       -0.088464   1.000000
   92       -0.003656   1.000000
   93        0.080575   1.000000
   94        0.160993   1.000000
   95        0.240428   1.000000
   96        0.282385   1.000000
   97        0.329001   1.000000
   98        0.362698   1.000000
   99        0.423418   1.000000
  100        0.656315   1.000000
  101        0.692325   1.000000
  102        0.724858   1.000000
  103        0.812220   1.000000
  104        0.846855   1.000000
  105        0.888420   1.000000
  106        1.007281   1.000000
  107        1.100505   1.000000
  108        1.113974   1.000000
  109        1.117921   1.000000
  110        1.145456   1.000000
  111        1.251439   1.000000
  112        1.251655   1.000000
  113        1.308445   1.000000
  114        1.454312   1.000000
  115        1.507823   1.000000
  116        1.595499   1.000000
  117        1.634264   1.000000
  118        1.792798   1.000000
  119        1.831047   1.000000
  120        1.890893   1.000000
  121        1.995201   1.000000
  122        2.011565   1.000000
  123        2.072653   1.000000
  124        2.083128   1.000000
  125        2.109118   1.000000
  126        2.186770   1.000000
  127        2.221284   1.000000
  128        2.229872   1.000000
  129        2.279747   1.000000
  130        2.480617   1.000000
  131        2.484693   1.000000
  132        2.533022   1.000000
  133        2.535594   1.000000
  134        2.575307   1.000000
  135        2.661539   1.000000
  136        2.695942   1.000000
  137        2.727463   1.000000
  138        2.754205   1.000000
  139        2.756070   1.000000
  140        2.778072   1.000000
  141        2.900597   1.000000
  142        2.949920   1.000000
  143        3.003254   1.000000
  144        3.028001   1.000000
  145        3.062632   1.000000
  146        3.080956   1.000000
  147        3.182377   1.000000
  148        3.312086   1.000000
  149        3.320023   1.000000
  150        3.382590   1.000000
  151        3.402539   1.000000
  152        3.426846   1.000000
  153        3.467029   1.000000
  154        3.517387   1.000000
  155        3.531870   1.000000
  156        3.591949   1.000000
  157        3.714213   1.000000
  158        3.762743   1.000000
  159        3.813545   1.000000
  160        3.857827   1.000000
  161        3.949300   1.000000
  162        3.951541   1.000000
  163        4.061667   1.000000
  164        4.062876   1.000000
  165        4.114468   1.000000
  166        4.162576   1.000000
  167        4.273980   1.000000
  168        4.318259   1.000000
  169        4.354818   1.000000
  170        4.409706   1.000000
  171        4.411460   1.000000
  172        4.502973   1.000000
  173        4.536622   1.000000
  174        4.544293   1.000000
  175        4.610692   1.000000
  176        4.647856   1.000000
  177        4.709328   1.000000
  178        4.775284   1.000000
  179        4.832278   1.000000
  180        4.833892   1.000000
  181        4.873498   1.000000
  182        4.965860   1.000000
  183        5.018322   1.000000
  184        5.035924   1.000000
  185        5.101713   1.000000
  186        5.162684   1.000000
  187        5.183450   1.000000
  188        5.249469   1.000000
  189        5.276096   1.000000
  190        5.304766   1.006344
  191        5.366584   1.006323
  192        5.523475   0.000000
  193        6.714120   0.000000
  194        6.870737   0.000000
  195        7.061291   0.000000
  196        7.701253   0.000000
  197        7.863773   0.000000
  198        7.985224   0.000000
  199        8.365382   0.000000
  200        8.578306   0.000000
  201        8.627780   0.000000
  202        8.699927   0.000000
  203        9.090793   0.000000
  204        9.301849   0.000000
  205        9.343169   0.000000
  206        9.481256   0.000000
  207        9.710584   0.000000
  208        9.772060   0.000000
  209        9.792239   0.000000
  210        9.881285   0.000000
  211        9.981908   0.000000
  212       10.273372   0.000000
  213       10.279462   0.000000
  214       10.336018   0.000000
  215       10.363464   0.000000
  216       10.531701   0.000000
  217       10.741393   0.000000
  218       10.972726   0.000000
  219       10.998616   0.000000
  220       11.022651   0.000000
  221       11.166807   0.000000
  222       11.185116   0.000000
  223       11.236785   0.000000
  224       11.328102   0.000000
  225       11.417234   0.000000
  226       11.557248   0.000000
  227       11.574870   0.000000
  228       11.596672   0.000000
  229       11.614701   0.000000
  230       11.620313   0.000000
  231       11.671594   0.000000
  232       11.821121   0.000000
  233       11.836497   0.000000
  234       11.934378   0.000000
  235       12.005323   0.000000
  236       12.048251   0.000000
  237       12.076522   0.000000
  238       12.155262   0.000000
  239       12.179572   0.000000
  240       12.193600   0.000000
  241       12.266292   0.000000
  242       12.354925   0.000000
  243       12.416629   0.000000
  244       12.514586   0.000000
  245       12.715122   0.000000
  246       12.827356   0.000000
  247       12.837326   0.000000
  248       12.854651   0.000000
  249       12.979087   0.000000
  250       13.000928   0.000000
  251       13.048387   0.000000
  252       13.122623   0.000000
  253       13.309769   0.000000
  254       13.400123   0.000000
  255       13.615357   0.000000
  256       13.709217   0.000000
 
  0.1666667E+00  0.1387779E-16  0.5000000E+00  0.9259259E-02
    1      -11.499042   1.000000
    2      -11.270577   1.000000
    3      -11.218329   1.000000
    4      -10.062657   1.000000
    5       -9.858915   1.000000
    6       -9.681287   1.000000
    7       -9.532911   1.000000
    8       -9.436532   1.000000
    9       -9.305404   1.000000
   10       -9.265693   1.000000
   11       -9.176383   1.000000
   12       -8.695611   1.000000
   13       -8.625512   1.000000
   14       -8.389287   1.000000
   15       -8.342294   1.000000
   16       -8.289382   1.000000
   17       -8.110529   1.000000
   18       -7.898129   1.000000
   19       -7.739354   1.000000
   20       -7.610435   1.000000
   21       -7.555986   1.000000
   22       -7.477090   1.000000
   23       -7.361678   1.000000
   24       -7.023336   1.000000
   25       -6.396276   1.000000
   26       -6.094672   1.000000
   27       -6.059151   1.000000
   28       -5.802202   1.000000
   29       -5.782184   1.000000
   30       -5.652921   1.000000
   31       -5.544137   1.000000
   32       -5.484951   1.000000
   33       -5.396259   1.000000
   34       -5.309684   1.000000
   35       -5.146132   1.000000
   36       -5.127344   1.000000
   37       -5.112137   1.000000
   38       -4.884355   1.000000
   39       -4.849706   1.000000
   40       -4.692871   1.000000
   41       -4.530768   1.000000
   42       -4.448746   1.000000
   43       -4.331257   1.000000
   44       -4.220166   1.000000
   45       -4.071870   1.000000
   46       -3.953912   1.000000
   47       -3.883664   1.000000
   48       -3.749160   1.000000
   49       -3.174878   1.000000
   50       -3.046082   1.000000
   51       -2.822642   1.000000
   52       -2.751578   1.000000
   53       -2.658182   1.000000
   54       -2.620564   1.000000
   55       -2.552883   1.000000
   56       -2.437006   1.000000
   57       -2.360567   1.000000
   58       -2.271443   1.000000
   59       -2.209705   1.000000
   60       -2.151245   1.000000
   61       -2.046689   1.000000
   62       -1.951704   1.000000
   63       -1.898925   1.000000
   64       -1.891611   1.000000
   65       -1.850846   1.000000
   66       -1.768026   1.000000
   67       -1.707036   1.000000
   68       -1.680180   1.000000
   69       -1.665039   1.000000
   70       -1.503439   1.000000
   71       -1.471256   1.000000
   72       -1.393608   1.000000
   73       -1.300128   1.000000
   74       -1.267262   1.000000
   75       -1.215288   1.000000
   76       -1.204863   1.000000
   77       -1.146255   1.000000
   78       -1.076996   1.000000
   79       -1.012336   1.000000
   80       -0.872452   1.000000
   81       -0.777481   1.000000
   82       -0.671557   1.000000
   83       -0.616462   1.000000
   84       -0.574187   1.000000
   85       -0.513120   1.000000
   86       -0.459276   1.000000
   87       -0.408206   1.000000
   88       -0.302067   1.000000
   89       -0.253380   1.000000
   90       -0.220697   1.000000
   91       -0.091874   1.000000
   92       -0.044498   1.000000
   93        0.072246   1.000000
   94        0.110505   1.000000
   95        0.223406   1.000000
   96        0.251322   1.000000
   97        0.350989   1.000000
   98        0.464139   1.000000
   99        0.484864   1.000000
  100        0.574333   1.000000
  101        0.602049   1.000000
  102        0.606578   1.000000
  103        0.711614   1.000000
  104        0.763692   1.000000
  105        0.897470   1.000000
  106        0.965341   1.000000
  107        1.000164   1.000000
  108        1.053002   1.000000
  109        1.172447   1.000000
  110        1.192212   1.000000
  111        1.235936   1.000000
  112        1.391369   1.000000
  113        1.408467   1.000000
  114        1.513844   1.000000
  115        1.551218   1.000000
  116        1.623415   1.000000
  117        1.685511   1.000000
  118        1.730174   1.000000
  119        1.810604   1.000000
  120        1.830924   1.000000
  121        1.957123   1.000000
  122        1.978334   1.000000
  123        2.060888   1.000000
  124        2.100032   1.000000
  125        2.141376   1.000000
  126        2.159454   1.000000
  127        2.180609   1.000000
  128        2.298330   1.000000
  129        2.308620   1.000000
  130        2.362194   1.000000
  131        2.499552   1.000000
  132        2.525226   1.000000
  133        2.616100   1.000000
  134        2.630932   1.000000
  135        2.679461   1.000000
  136        2.758335   1.000000
  137        2.809286   1.000000
  138        2.856247   1.000000
  139        2.887952   1.000000
  140        2.932352   1.000000
  141        2.963514   1.000000
  142        3.032896   1.000000
  143        3.065285   1.000000
  144        3.117366   1.000000
  145        3.173142   1.000000
  146        3.205500   1.000000
  147        3.224818   1.000000
  148        3.264111   1.000000
  149        3.306997   1.000000
  150        3.372485   1.000000
  151        3.425748   1.000000
  152        3.438988   1.000000
  153        3.470178   1.000000
  154        3.491918   1.000000
  155        3.538864   1.000000
  156        3.590178   1.000000
  157        3.599240   1.000000
  158        3.730207   1.000000
  159        3.743240   1.000000
  160        3.848762   1.000000
  161        3.865007   1.000000
  162        3.996356   1.000000
  163        4.020824   1.000000
  164        4.045889   1.000000
  165        4.061634   1.000000
  166        4.127673   1.000000
  167        4.206340   1.000000
  168        4.293698   1.000000
  169        4.324415   1.000000
  170        4.359572   1.000000
  171        4.452796   1.000000
  172        4.503025   1.000000
  173        4.544990   1.000000
  174        4.565514   1.000000
  175        4.608940   1.000000
  176        4.680198   1.000000
  177        4.713410   1.000000
  178        4.774827   1.000000
  179        4.787884   1.000000
  180        4.818107   1.000000
  181        4.870686   1.000000
  182        4.925149   1.000000
  183        4.977417   1.000000
  184        5.028505   1.000000
  185        5.097574   1.000000
  186        5.109567   1.000000
  187        5.194148   1.000000
  188        5.234963   1.000000
  189        5.261103   1.000332
  190        5.338782   1.032169
  191        5.361322   0.872641
  192        5.404622   0.025385
  193        6.712273   0.000000
  194        6.882176   0.000000
  195        7.037486   0.000000
  196        7.705106   0.000000
  197        7.845696   0.000000
  198        7.958963   0.000000
  199        8.386614   0.000000
  200        8.556307   0.000000
  201        8.692793   0.000000
  202        8.849297   0.000000
  203        9.149424   0.000000
  204        9.283878   0.000000
  205        9.375130   0.000000
  206        9.556327   0.000000
  207        9.691043   0.000000
  208        9.773644   0.000000
  209        9.896620   0.000000
  210        9.925962   0.000000
  211       10.063605   0.000000
  212       10.208860   0.000000
  213       10.308909   0.000000
  214       10.403365   0.000000
  215       10.447639   0.000000
  216       10.529295   0.000000
  217       10.738179   0.000000
  218       10.893465   0.000000
  219       11.031729   0.000000
  220       11.049660   0.000000
  221       11.082965   0.000000
  222       11.200871   0.000000
  223       11.252548   0.000000
  224       11.295141   0.000000
  225       11.422411   0.000000
  226       11.458709   0.000000
  227       11.513901   0.000000
  228       11.581326   0.000000
  229       11.618985   0.000000
  230       11.672269   0.000000
  231       11.759929   0.000000
  232       11.800081   0.000000
  233       11.817218   0.000000
  234       11.865753   0.000000
  235       11.929561   0.000000
  236       12.000320   0.000000
  237       12.028172   0.000000
  238       12.052164   0.000000
  239       12.101200   0.000000
  240       12.119469   0.000000
  241       12.229836   0.000000
  242       12.291890   0.000000
  243       12.335128   0.000000
  244       12.405489   0.000000
  245       12.505467   0.000000
  246       12.540665   0.000000
  247       12.692067   0.000000
  248       12.732106   0.000000
  249       12.859462   0.000000
  250       12.995666   0.000000
  251       13.156446   0.000000
  252       13.171511   0.000000
  253       13.305621   0.000000
  254       13.362353   0.000000
  255       13.683416   0.000000
  256       13.699083   0.000000
 
  0.3333333E+00  0.2775558E-16  0.5000000E+00  0.9259259E-02
    1      -11.456369   1.000000
    2      -11.296486   1.000000
    3      -11.253979   1.000000
    4       -9.982128   1.000000
    5       -9.864478   1.000000
    6       -9.712374   1.000000
    7       -9.582795   1.000000
    8       -9.455344   1.000000
    9       -9.327936   1.000000
   10       -9.262793   1.000000
   11       -9.157442   1.000000
   12       -8.657785   1.000000
   13       -8.605091   1.000000
   14       -8.435474   1.000000
   15       -8.294764   1.000000
   16       -8.184572   1.000000
   17       -8.045265   1.000000
   18       -7.962518   1.000000
   19       -7.785646   1.000000
   20       -7.662332   1.000000
   21       -7.507253   1.000000
   22       -7.478476   1.000000
   23       -7.338601   1.000000
   24       -7.179231   1.000000
   25       -6.486656   1.000000
   26       -6.293411   1.000000
   27       -5.915683   1.000000
   28       -5.760239   1.000000
   29       -5.718020   1.000000
   30       -5.551876   1.000000
   31       -5.503561   1.000000
   32       -5.395213   1.000000
   33       -5.315419   1.000000
   34       -5.163681   1.000000
   35       -5.131338   1.000000
   36       -5.088097   1.000000
   37       -4.965924   1.000000
   38       -4.947999   1.000000
   39       -4.845589   1.000000
   40       -4.773537   1.000000
   41       -4.711217   1.000000
   42       -4.627753   1.000000
   43       -4.499927   1.000000
   44       -4.444127   1.000000
   45       -3.988211   1.000000
   46       -3.917924   1.000000
   47       -3.899245   1.000000
   48       -3.772081   1.000000
   49       -3.257972   1.000000
   50       -3.107300   1.000000
   51       -2.854036   1.000000
   52       -2.805358   1.000000
   53       -2.731691   1.000000
   54       -2.619727   1.000000
   55       -2.535911   1.000000
   56       -2.413360   1.000000
   57       -2.281607   1.000000
   58       -2.159436   1.000000
   59       -2.132366   1.000000
   60       -2.046209   1.000000
   61       -1.874323   1.000000
   62       -1.831134   1.000000
   63       -1.768079   1.000000
   64       -1.764209   1.000000
   65       -1.676280   1.000000
   66       -1.650954   1.000000
   67       -1.573364   1.000000
   68       -1.518911   1.000000
   69       -1.497616   1.000000
   70       -1.442547   1.000000
   71       -1.417625   1.000000
   72       -1.382431   1.000000
   73       -1.316945   1.000000
   74       -1.277014   1.000000
   75       -1.224840   1.000000
   76       -1.178404   1.000000
   77       -1.107951   1.000000
   78       -1.033438   1.000000
   79       -1.007708   1.000000
   80       -0.965582   1.000000
   81       -0.838875   1.000000
   82       -0.812528   1.000000
   83       -0.743700   1.000000
   84       -0.655588   1.000000
   85       -0.581328   1.000000
   86       -0.538298   1.000000
   87       -0.474982   1.000000
   88       -0.402530   1.000000
   89       -0.365452   1.000000
   90       -0.334198   1.000000
   91       -0.251242   1.000000
   92       -0.154118   1.000000
   93       -0.070834   1.000000
   94       -0.020497   1.000000
   95        0.137218   1.000000
   96        0.173972   1.000000
   97        0.212540   1.000000
   98        0.268442   1.000000
   99        0.374091   1.000000
  100        0.386803   1.000000
  101        0.474929   1.000000
  102        0.700510   1.000000
  103        0.747624   1.000000
  104        0.821414   1.000000
  105        0.870433   1.000000
  106        0.983361   1.000000
  107        1.024192   1.000000
  108        1.070236   1.000000
  109        1.124691   1.000000
  110        1.242420   1.000000
  111        1.295733   1.000000
  112        1.367824   1.000000
  113        1.414410   1.000000
  114        1.480361   1.000000
  115        1.524830   1.000000
  116        1.632118   1.000000
  117        1.669204   1.000000
  118        1.737237   1.000000
  119        1.762944   1.000000
  120        1.869223   1.000000
  121        1.946038   1.000000
  122        2.035282   1.000000
  123        2.061290   1.000000
  124        2.106430   1.000000
  125        2.160127   1.000000
  126        2.256141   1.000000
  127        2.331045   1.000000
  128        2.393224   1.000000
  129        2.442073   1.000000
  130        2.474231   1.000000
  131        2.524790   1.000000
  132        2.591290   1.000000
  133        2.647351   1.000000
  134        2.686706   1.000000
  135        2.744541   1.000000
  136        2.798868   1.000000
  137        2.834665   1.000000
  138        2.921881   1.000000
  139        2.941010   1.000000
  140        2.994308   1.000000
  141        3.064431   1.000000
  142        3.074293   1.000000
  143        3.148787   1.000000
  144        3.170631   1.000000
  145        3.201652   1.000000
  146        3.302322   1.000000
  147        3.319649   1.000000
  148        3.352942   1.000000
  149        3.376363   1.000000
  150        3.403070   1.000000
  151        3.426557   1.000000
  152        3.465797   1.000000
  153        3.504011   1.000000
  154        3.547891   1.000000
  155        3.604258   1.000000
  156        3.618297   1.000000
  157        3.644279   1.000000
  158        3.696549   1.000000
  159        3.755168   1.000000
  160        3.773584   1.000000
  161        3.809586   1.000000
  162        3.906246   1.000000
  163        4.007698   1.000000
  164        4.044278   1.000000
  165        4.094861   1.000000
  166        4.133599   1.000000
  167        4.191688   1.000000
  168        4.265088   1.000000
  169        4.287662   1.000000
  170        4.316683   1.000000
  171        4.375587   1.000000
  172        4.405583   1.000000
  173        4.491114   1.000000
  174        4.602259   1.000000
  175        4.616423   1.000000
  176        4.622573   1.000000
  177        4.672421   1.000000
  178        4.724875   1.000000
  179        4.753547   1.000000
  180        4.794792   1.000000
  181        4.834723   1.000000
  182        4.853461   1.000000
  183        4.889468   1.000000
  184        4.963058   1.000000
  185        4.973108   1.000000
  186        5.108504   1.000000
  187        5.123656   1.000000
  188        5.138584   1.000000
  189        5.226776   1.000098
  190        5.293131   1.037698
  191        5.359108   0.793479
  192        5.408366   0.030817
  193        6.730568   0.000000
  194        6.914920   0.000000
  195        6.969291   0.000000
  196        7.726228   0.000000
  197        7.821722   0.000000
  198        7.913519   0.000000
  199        8.286435   0.000000
  200        8.759337   0.000000
  201        8.874910   0.000000
  202        9.053214   0.000000
  203        9.241470   0.000000
  204        9.333069   0.000000
  205        9.453199   0.000000
  206        9.566901   0.000000
  207        9.602157   0.000000
  208        9.878971   0.000000
  209        9.914994   0.000000
  210       10.097770   0.000000
  211       10.160247   0.000000
  212       10.243762   0.000000
  213       10.297219   0.000000
  214       10.538639   0.000000
  215       10.617311   0.000000
  216       10.712752   0.000000
  217       10.730717   0.000000
  218       10.876472   0.000000
  219       10.981252   0.000000
  220       11.044867   0.000000
  221       11.127548   0.000000
  222       11.147593   0.000000
  223       11.181766   0.000000
  224       11.219500   0.000000
  225       11.332158   0.000000
  226       11.405545   0.000000
  227       11.426760   0.000000
  228       11.456708   0.000000
  229       11.538226   0.000000
  230       11.587730   0.000000
  231       11.627927   0.000000
  232       11.697786   0.000000
  233       11.728657   0.000000
  234       11.757473   0.000000
  235       11.824086   0.000000
  236       11.905070   0.000000
  237       11.955197   0.000000
  238       11.980573   0.000000
  239       12.051037   0.000000
  240       12.083592   0.000000
  241       12.145460   0.000000
  242       12.190078   0.000000
  243       12.270947   0.000000
  244       12.300111   0.000000
  245       12.344850   0.000000
  246       12.372471   0.000000
  247       12.484105   0.000000
  248       12.612230   0.000000
  249       12.669086   0.000000
  250       12.749252   0.000000
  251       12.802115   0.000000
  252       12.894830   0.000000
  253       13.661834   0.000000
  254       13.664508   0.000000
  255       13.702315   0.000000
  256       13.761597   0.000000
 
  0.5000000E+00  0.5551115E-16  0.5000000E+00  0.4629630E-02
    1      -11.417152   1.000000
    2      -11.338140   1.000000
    3      -11.260657   1.000000
    4       -9.932234   1.000000
    5       -9.813772   1.000000
    6       -9.801089   1.000000
    7       -9.607134   1.000000
    8       -9.438082   1.000000
    9       -9.331726   1.000000
   10       -9.321300   1.000000
   11       -9.104091   1.000000
   12       -8.651441   1.000000
   13       -8.544756   1.000000
   14       -8.503783   1.000000
   15       -8.248577   1.000000
   16       -8.139820   1.000000
   17       -8.065633   1.000000
   18       -7.922076   1.000000
   19       -7.835951   1.000000
   20       -7.706160   1.000000
   21       -7.474002   1.000000
   22       -7.416872   1.000000
   23       -7.361442   1.000000
   24       -7.284811   1.000000
   25       -6.453491   1.000000
   26       -6.439821   1.000000
   27       -5.791051   1.000000
   28       -5.771570   1.000000
   29       -5.615528   1.000000
   30       -5.611637   1.000000
   31       -5.379073   1.000000
   32       -5.341286   1.000000
   33       -5.281545   1.000000
   34       -5.232079   1.000000
   35       -5.124006   1.000000
   36       -5.041244   1.000000
   37       -5.028573   1.000000
   38       -4.948374   1.000000
   39       -4.842981   1.000000
   40       -4.802690   1.000000
   41       -4.792058   1.000000
   42       -4.637695   1.000000
   43       -4.559893   1.000000
   44       -4.481425   1.000000
   45       -3.960656   1.000000
   46       -3.933730   1.000000
   47       -3.907172   1.000000
   48       -3.818244   1.000000
   49       -3.259387   1.000000
   50       -3.119284   1.000000
   51       -2.877827   1.000000
   52       -2.859220   1.000000
   53       -2.837151   1.000000
   54       -2.705452   1.000000
   55       -2.539802   1.000000
   56       -2.325051   1.000000
   57       -2.091843   1.000000
   58       -1.989373   1.000000
   59       -1.975030   1.000000
   60       -1.924652   1.000000
   61       -1.867201   1.000000
   62       -1.844639   1.000000
   63       -1.838048   1.000000
   64       -1.810925   1.000000
   65       -1.712459   1.000000
   66       -1.700373   1.000000
   67       -1.566110   1.000000
   68       -1.549524   1.000000
   69       -1.439742   1.000000
   70       -1.329543   1.000000
   71       -1.277074   1.000000
   72       -1.234390   1.000000
   73       -1.171266   1.000000
   74       -1.124090   1.000000
   75       -1.104102   1.000000
   76       -1.097108   1.000000
   77       -1.071875   1.000000
   78       -1.062007   1.000000
   79       -1.026712   1.000000
   80       -0.974223   1.000000
   81       -0.908463   1.000000
   82       -0.832330   1.000000
   83       -0.791438   1.000000
   84       -0.783361   1.000000
   85       -0.716474   1.000000
   86       -0.708296   1.000000
   87       -0.675148   1.000000
   88       -0.627323   1.000000
   89       -0.355857   1.000000
   90       -0.331486   1.000000
   91       -0.309942   1.000000
   92       -0.168540   1.000000
   93       -0.064575   1.000000
   94       -0.056697   1.000000
   95       -0.033735   1.000000
   96       -0.013186   1.000000
   97        0.240830   1.000000
   98        0.302442   1.000000
   99        0.441952   1.000000
  100        0.458950   1.000000
  101        0.571149   1.000000
  102        0.605805   1.000000
  103        0.684924   1.000000
  104        0.701371   1.000000
  105        0.852855   1.000000
  106        0.922627   1.000000
  107        0.952415   1.000000
  108        1.029497   1.000000
  109        1.155404   1.000000
  110        1.169212   1.000000
  111        1.226861   1.000000
  112        1.370466   1.000000
  113        1.469637   1.000000
  114        1.495522   1.000000
  115        1.528726   1.000000
  116        1.602518   1.000000
  117        1.640358   1.000000
  118        1.752791   1.000000
  119        1.930969   1.000000
  120        2.001085   1.000000
  121        2.068134   1.000000
  122        2.070940   1.000000
  123        2.091051   1.000000
  124        2.137337   1.000000
  125        2.214443   1.000000
  126        2.266944   1.000000
  127        2.338739   1.000000
  128        2.358666   1.000000
  129        2.481372   1.000000
  130        2.526053   1.000000
  131        2.574960   1.000000
  132        2.578087   1.000000
  133        2.701163   1.000000
  134        2.777568   1.000000
  135        2.780770   1.000000
  136        2.808923   1.000000
  137        2.816351   1.000000
  138        2.861548   1.000000
  139        2.897396   1.000000
  140        2.978552   1.000000
  141        3.022550   1.000000
  142        3.095899   1.000000
  143        3.131206   1.000000
  144        3.164845   1.000000
  145        3.207337   1.000000
  146        3.209744   1.000000
  147        3.264074   1.000000
  148        3.335720   1.000000
  149        3.374841   1.000000
  150        3.463874   1.000000
  151        3.472080   1.000000
  152        3.481510   1.000000
  153        3.528134   1.000000
  154        3.615122   1.000000
  155        3.682863   1.000000
  156        3.704374   1.000000
  157        3.753975   1.000000
  158        3.773334   1.000000
  159        3.790838   1.000000
  160        3.803132   1.000000
  161        3.961059   1.000000
  162        3.996585   1.000000
  163        4.069561   1.000000
  164        4.083875   1.000000
  165        4.115661   1.000000
  166        4.123610   1.000000
  167        4.181939   1.000000
  168        4.182632   1.000000
  169        4.244285   1.000000
  170        4.275067   1.000000
  171        4.384396   1.000000
  172        4.399492   1.000000
  173        4.425097   1.000000
  174        4.479836   1.000000
  175        4.482440   1.000000
  176        4.560819   1.000000
  177        4.671869   1.000000
  178        4.681590   1.000000
  179        4.719870   1.000000
  180        4.736056   1.000000
  181        4.782001   1.000000
  182        4.821652   1.000000
  183        4.864707   1.000000
  184        4.933451   1.000000
  185        4.950597   1.000000
  186        5.002621   1.000000
  187        5.058531   1.000000
  188        5.145810   1.000000
  189        5.258091   1.000000
  190        5.284791   1.000000
  191        5.357143   0.862289
  192        5.429804   0.000000
  193        6.774309   0.000000
  194        6.897164   0.000000
  195        6.941601   0.000000
  196        7.750015   0.000000
  197        7.814620   0.000000
  198        7.884435   0.000000
  199        8.233088   0.000000
  200        8.897395   0.000000
  201        9.013285   0.000000
  202        9.158308   0.000000
  203        9.251335   0.000000
  204        9.465723   0.000000
  205        9.504171   0.000000
  206        9.518614   0.000000
  207        9.552889   0.000000
  208        9.608047   0.000000
  209       10.126704   0.000000
  210       10.136340   0.000000
  211       10.146791   0.000000
  212       10.349793   0.000000
  213       10.416862   0.000000
  214       10.590080   0.000000
  215       10.746787   0.000000
  216       10.772451   0.000000
  217       10.776764   0.000000
  218       10.848957   0.000000
  219       10.992908   0.000000
  220       11.024557   0.000000
  221       11.131947   0.000000
  222       11.143922   0.000000
  223       11.149182   0.000000
  224       11.240124   0.000000
  225       11.247895   0.000000
  226       11.277486   0.000000
  227       11.409828   0.000000
  228       11.453642   0.000000
  229       11.480665   0.000000
  230       11.481306   0.000000
  231       11.545955   0.000000
  232       11.584602   0.000000
  233       11.586142   0.000000
  234       11.657076   0.000000
  235       11.669390   0.000000
  236       11.710717   0.000000
  237       11.944255   0.000000
  238       12.055131   0.000000
  239       12.148390   0.000000
  240       12.159720   0.000000
  241       12.178223   0.000000
  242       12.191449   0.000000
  243       12.211197   0.000000
  244       12.249279   0.000000
  245       12.332841   0.000000
  246       12.392381   0.000000
  247       12.477873   0.000000
  248       12.483874   0.000000
  249       12.515762   0.000000
  250       12.666995   0.000000
  251       12.673039   0.000000
  252       12.710466   0.000000
  253       13.631620   0.000000
  254       13.662707   0.000000
  255       13.908373   0.000000
  256       13.959887   0.000000
 
  0.0000000E+00  0.1666667E+00  0.5000000E+00  0.9259259E-02
    1      -11.505871   1.000000
    2      -11.280954   1.000000
    3      -11.197270   1.000000
    4      -10.062849   1.000000
    5       -9.866181   1.000000
    6       -9.684169   1.000000
    7       -9.526060   1.000000
    8       -9.454020   1.000000
    9       -9.274650   1.000000
   10       -9.221498   1.000000
   11       -9.204055   1.000000
   12       -8.709906   1.000000
   13       -8.635496   1.000000
   14       -8.401767   1.000000
   15       -8.361323   1.000000
   16       -8.326639   1.000000
   17       -8.089433   1.000000
   18       -7.905162   1.000000
   19       -7.736084   1.000000
   20       -7.620098   1.000000
   21       -7.526372   1.000000
   22       -7.497814   1.000000
   23       -7.309283   1.000000
   24       -7.012626   1.000000
   25       -6.261155   1.000000
   26       -6.209056   1.000000
   27       -5.930651   1.000000
   28       -5.888573   1.000000
   29       -5.840465   1.000000
   30       -5.732341   1.000000
   31       -5.552377   1.000000
   32       -5.512104   1.000000
   33       -5.448586   1.000000
   34       -5.384064   1.000000
   35       -5.145749   1.000000
   36       -5.080152   1.000000
   37       -5.059757   1.000000
   38       -4.948025   1.000000
   39       -4.822968   1.000000
   40       -4.632907   1.000000
   41       -4.424379   1.000000
   42       -4.295737   1.000000
   43       -4.229337   1.000000
   44       -4.163416   1.000000
   45       -4.114265   1.000000
   46       -3.973998   1.000000
   47       -3.890625   1.000000
   48       -3.863355   1.000000
   49       -3.035183   1.000000
   50       -3.014957   1.000000
   51       -2.990796   1.000000
   52       -2.773708   1.000000
   53       -2.661385   1.000000
   54       -2.625913   1.000000
   55       -2.479871   1.000000
   56       -2.470806   1.000000
   57       -2.429095   1.000000
   58       -2.299723   1.000000
   59       -2.216186   1.000000
   60       -2.199953   1.000000
   61       -2.143194   1.000000
   62       -2.094003   1.000000
   63       -1.932580   1.000000
   64       -1.880868   1.000000
   65       -1.853966   1.000000
   66       -1.842936   1.000000
   67       -1.736746   1.000000
   68       -1.656439   1.000000
   69       -1.587518   1.000000
   70       -1.552177   1.000000
   71       -1.543912   1.000000
   72       -1.471460   1.000000
   73       -1.340635   1.000000
   74       -1.291316   1.000000
   75       -1.258466   1.000000
   76       -1.190326   1.000000
   77       -1.022514   1.000000
   78       -0.991346   1.000000
   79       -0.890858   1.000000
   80       -0.842981   1.000000
   81       -0.734549   1.000000
   82       -0.720494   1.000000
   83       -0.653375   1.000000
   84       -0.553777   1.000000
   85       -0.526840   1.000000
   86       -0.490925   1.000000
   87       -0.462702   1.000000
   88       -0.417240   1.000000
   89       -0.270193   1.000000
   90       -0.143681   1.000000
   91       -0.112627   1.000000
   92        0.053010   1.000000
   93        0.092813   1.000000
   94        0.158089   1.000000
   95        0.263953   1.000000
   96        0.399335   1.000000
   97        0.439971   1.000000
   98        0.497555   1.000000
   99        0.581036   1.000000
  100        0.621670   1.000000
  101        0.652935   1.000000
  102        0.733847   1.000000
  103        0.820611   1.000000
  104        0.855688   1.000000
  105        0.943990   1.000000
  106        1.001501   1.000000
  107        1.050594   1.000000
  108        1.098865   1.000000
  109        1.120754   1.000000
  110        1.159206   1.000000
  111        1.177725   1.000000
  112        1.299312   1.000000
  113        1.324152   1.000000
  114        1.434668   1.000000
  115        1.575497   1.000000
  116        1.631607   1.000000
  117        1.688742   1.000000
  118        1.761801   1.000000
  119        1.822288   1.000000
  120        1.887583   1.000000
  121        1.970675   1.000000
  122        1.989480   1.000000
  123        2.013972   1.000000
  124        2.086816   1.000000
  125        2.111532   1.000000
  126        2.183934   1.000000
  127        2.251111   1.000000
  128        2.274406   1.000000
  129        2.308166   1.000000
  130        2.358678   1.000000
  131        2.440336   1.000000
  132        2.491388   1.000000
  133        2.560149   1.000000
  134        2.579267   1.000000
  135        2.641815   1.000000
  136        2.665423   1.000000
  137        2.750291   1.000000
  138        2.834923   1.000000
  139        2.847657   1.000000
  140        2.870623   1.000000
  141        2.920190   1.000000
  142        2.952925   1.000000
  143        2.988380   1.000000
  144        3.047853   1.000000
  145        3.085576   1.000000
  146        3.140999   1.000000
  147        3.191999   1.000000
  148        3.246639   1.000000
  149        3.342529   1.000000
  150        3.356616   1.000000
  151        3.402584   1.000000
  152        3.451301   1.000000
  153        3.485136   1.000000
  154        3.504584   1.000000
  155        3.525848   1.000000
  156        3.590305   1.000000
  157        3.634542   1.000000
  158        3.679633   1.000000
  159        3.753831   1.000000
  160        3.835994   1.000000
  161        3.967126   1.000000
  162        4.014241   1.000000
  163        4.049583   1.000000
  164        4.114951   1.000000
  165        4.144949   1.000000
  166        4.158229   1.000000
  167        4.231893   1.000000
  168        4.273050   1.000000
  169        4.312395   1.000000
  170        4.380541   1.000000
  171        4.409407   1.000000
  172        4.454702   1.000000
  173        4.529816   1.000000
  174        4.623879   1.000000
  175        4.655801   1.000000
  176        4.691908   1.000000
  177        4.716828   1.000000
  178        4.743953   1.000000
  179        4.784658   1.000000
  180        4.837110   1.000000
  181        4.843036   1.000000
  182        4.896406   1.000000
  183        4.912304   1.000000
  184        5.018490   1.000000
  185        5.073537   1.000000
  186        5.145696   1.000000
  187        5.194628   1.000000
  188        5.313128   1.000000
  189        5.331052   1.000000
  190        5.338906   1.025044
  191        5.358856   0.879855
  192        5.493960   0.000000
  193        6.745099   0.000000
  194        6.899235   0.000000
  195        7.069914   0.000000
  196        7.646179   0.000000
  197        7.840459   0.000000
  198        7.915264   0.000000
  199        8.441574   0.000000
  200        8.601258   0.000000
  201        8.656623   0.000000
  202        8.773156   0.000000
  203        9.084348   0.000000
  204        9.308197   0.000000
  205        9.354114   0.000000
  206        9.591818   0.000000
  207        9.767348   0.000000
  208        9.796198   0.000000
  209        9.905432   0.000000
  210        9.961239   0.000000
  211        9.995336   0.000000
  212       10.229808   0.000000
  213       10.240159   0.000000
  214       10.280401   0.000000
  215       10.383832   0.000000
  216       10.597321   0.000000
  217       10.643819   0.000000
  218       10.975818   0.000000
  219       11.029590   0.000000
  220       11.056085   0.000000
  221       11.088642   0.000000
  222       11.143611   0.000000
  223       11.222856   0.000000
  224       11.257566   0.000000
  225       11.301332   0.000000
  226       11.402915   0.000000
  227       11.463374   0.000000
  228       11.529999   0.000000
  229       11.575686   0.000000
  230       11.598004   0.000000
  231       11.688755   0.000000
  232       11.830279   0.000000
  233       11.874862   0.000000
  234       11.890568   0.000000
  235       11.981126   0.000000
  236       12.034420   0.000000
  237       12.086079   0.000000
  238       12.112813   0.000000
  239       12.171172   0.000000
  240       12.259071   0.000000
  241       12.287075   0.000000
  242       12.347174   0.000000
  243       12.470553   0.000000
  244       12.569791   0.000000
  245       12.649765   0.000000
  246       12.731332   0.000000
  247       12.835661   0.000000
  248       12.943670   0.000000
  249       13.053148   0.000000
  250       13.069997   0.000000
  251       13.080233   0.000000
  252       13.130762   0.000000
  253       13.260611   0.000000
  254       13.482828   0.000000
  255       13.566252   0.000000
  256       13.758477   0.000000
 
  0.1666667E+00  0.1666667E+00  0.5000000E+00  0.9259259E-02
    1      -11.499764   1.000000
    2      -11.271266   1.000000
    3      -11.219679   1.000000
    4      -10.067604   1.000000
    5       -9.891197   1.000000
    6       -9.589862   1.000000
    7       -9.505242   1.000000
    8       -9.413151   1.000000
    9       -9.296477   1.000000
   10       -9.271643   1.000000
   11       -9.195267   1.000000
   12       -8.771529   1.000000
   13       -8.705457   1.000000
   14       -8.469517   1.000000
   15       -8.376069   1.000000
   16       -8.255499   1.000000
   17       -8.150521   1.000000
   18       -7.845794   1.000000
   19       -7.719784   1.000000
   20       -7.610412   1.000000
   21       -7.514420   1.000000
   22       -7.494695   1.000000
   23       -7.207138   1.000000
   24       -6.980877   1.000000
   25       -6.288261   1.000000
   26       -6.063216   1.000000
   27       -6.033002   1.000000
   28       -5.858468   1.000000
   29       -5.761099   1.000000
   30       -5.753117   1.000000
   31       -5.610894   1.000000
   32       -5.482709   1.000000
   33       -5.447383   1.000000
   34       -5.425946   1.000000
   35       -5.135231   1.000000
   36       -5.114478   1.000000
   37       -5.097997   1.000000
   38       -4.952314   1.000000
   39       -4.861788   1.000000
   40       -4.739963   1.000000
   41       -4.502912   1.000000
   42       -4.386397   1.000000
   43       -4.248352   1.000000
   44       -4.143644   1.000000
   45       -4.078892   1.000000
   46       -4.038657   1.000000
   47       -3.860094   1.000000
   48       -3.677961   1.000000
   49       -3.191636   1.000000
   50       -3.077244   1.000000
   51       -2.969498   1.000000
   52       -2.795696   1.000000
   53       -2.731075   1.000000
   54       -2.687485   1.000000
   55       -2.544461   1.000000
   56       -2.427181   1.000000
   57       -2.406321   1.000000
   58       -2.334409   1.000000
   59       -2.170144   1.000000
   60       -2.115264   1.000000
   61       -2.109243   1.000000
   62       -2.062563   1.000000
   63       -1.930582   1.000000
   64       -1.906906   1.000000
   65       -1.856304   1.000000
   66       -1.811659   1.000000
   67       -1.600516   1.000000
   68       -1.566465   1.000000
   69       -1.487704   1.000000
   70       -1.468013   1.000000
   71       -1.395501   1.000000
   72       -1.378684   1.000000
   73       -1.279892   1.000000
   74       -1.249423   1.000000
   75       -1.231288   1.000000
   76       -1.127980   1.000000
   77       -1.055262   1.000000
   78       -0.964740   1.000000
   79       -0.894489   1.000000
   80       -0.785022   1.000000
   81       -0.692274   1.000000
   82       -0.637699   1.000000
   83       -0.591761   1.000000
   84       -0.555620   1.000000
   85       -0.526375   1.000000
   86       -0.403409   1.000000
   87       -0.349569   1.000000
   88       -0.284175   1.000000
   89       -0.161837   1.000000
   90       -0.130991   1.000000
   91       -0.125431   1.000000
   92       -0.113111   1.000000
   93        0.065375   1.000000
   94        0.088171   1.000000
   95        0.165793   1.000000
   96        0.180507   1.000000
   97        0.250062   1.000000
   98        0.282130   1.000000
   99        0.394351   1.000000
  100        0.469104   1.000000
  101        0.566491   1.000000
  102        0.628084   1.000000
  103        0.694608   1.000000
  104        0.825345   1.000000
  105        0.889770   1.000000
  106        0.934577   1.000000
  107        0.938038   1.000000
  108        1.034676   1.000000
  109        1.145455   1.000000
  110        1.232695   1.000000
  111        1.269496   1.000000
  112        1.284509   1.000000
  113        1.320791   1.000000
  114        1.362384   1.000000
  115        1.530555   1.000000
  116        1.567697   1.000000
  117        1.646877   1.000000
  118        1.683266   1.000000
  119        1.731897   1.000000
  120        1.808287   1.000000
  121        1.935948   1.000000
  122        2.084089   1.000000
  123        2.101888   1.000000
  124        2.141881   1.000000
  125        2.154846   1.000000
  126        2.192897   1.000000
  127        2.212551   1.000000
  128        2.268732   1.000000
  129        2.367441   1.000000
  130        2.398330   1.000000
  131        2.455879   1.000000
  132        2.469733   1.000000
  133        2.580253   1.000000
  134        2.606340   1.000000
  135        2.660908   1.000000
  136        2.729155   1.000000
  137        2.792255   1.000000
  138        2.885607   1.000000
  139        2.889600   1.000000
  140        2.914056   1.000000
  141        2.944876   1.000000
  142        2.996039   1.000000
  143        3.029840   1.000000
  144        3.050569   1.000000
  145        3.085081   1.000000
  146        3.203453   1.000000
  147        3.263880   1.000000
  148        3.311970   1.000000
  149        3.350868   1.000000
  150        3.380387   1.000000
  151        3.411555   1.000000
  152        3.456116   1.000000
  153        3.523147   1.000000
  154        3.536690   1.000000
  155        3.607744   1.000000
  156        3.616440   1.000000
  157        3.638678   1.000000
  158        3.712301   1.000000
  159        3.785174   1.000000
  160        3.819890   1.000000
  161        3.864960   1.000000
  162        3.988996   1.000000
  163        4.010178   1.000000
  164        4.117325   1.000000
  165        4.132164   1.000000
  166        4.218915   1.000000
  167        4.274685   1.000000
  168        4.315812   1.000000
  169        4.375455   1.000000
  170        4.424857   1.000000
  171        4.495419   1.000000
  172        4.544009   1.000000
  173        4.589932   1.000000
  174        4.636419   1.000000
  175        4.666939   1.000000
  176        4.679640   1.000000
  177        4.719648   1.000000
  178        4.735293   1.000000
  179        4.786189   1.000000
  180        4.809567   1.000000
  181        4.865447   1.000000
  182        4.926388   1.000000
  183        4.971414   1.000000
  184        5.034186   1.000000
  185        5.065468   1.000000
  186        5.087068   1.000000
  187        5.135686   1.000000
  188        5.186005   1.000000
  189        5.225853   1.000000
  190        5.272139   1.005257
  191        5.282314   1.103838
  192        5.426077   0.081578
  193        6.732384   0.000000
  194        6.898600   0.000000
  195        7.036788   0.000000
  196        7.679650   0.000000
  197        7.848909   0.000000
  198        7.965633   0.000000
  199        8.434466   0.000000
  200        8.582329   0.000000
  201        8.696707   0.000000
  202        8.857106   0.000000
  203        9.165536   0.000000
  204        9.348049   0.000000
  205        9.402937   0.000000
  206        9.542215   0.000000
  207        9.648012   0.000000
  208        9.792569   0.000000
  209        9.845185   0.000000
  210       10.010450   0.000000
  211       10.044352   0.000000
  212       10.240026   0.000000
  213       10.295497   0.000000
  214       10.316358   0.000000
  215       10.501471   0.000000
  216       10.524937   0.000000
  217       10.660057   0.000000
  218       10.967375   0.000000
  219       10.989543   0.000000
  220       11.087011   0.000000
  221       11.127485   0.000000
  222       11.203696   0.000000
  223       11.215339   0.000000
  224       11.250864   0.000000
  225       11.294162   0.000000
  226       11.324505   0.000000
  227       11.455511   0.000000
  228       11.514990   0.000000
  229       11.552224   0.000000
  230       11.563958   0.000000
  231       11.708750   0.000000
  232       11.732914   0.000000
  233       11.773046   0.000000
  234       11.803246   0.000000
  235       11.895388   0.000000
  236       12.006562   0.000000
  237       12.074292   0.000000
  238       12.109553   0.000000
  239       12.127303   0.000000
  240       12.214896   0.000000
  241       12.253681   0.000000
  242       12.305147   0.000000
  243       12.418068   0.000000
  244       12.484681   0.000000
  245       12.531076   0.000000
  246       12.594854   0.000000
  247       12.666947   0.000000
  248       12.757937   0.000000
  249       12.853330   0.000000
  250       13.028099   0.000000
  251       13.170349   0.000000
  252       13.306233   0.000000
  253       13.370242   0.000000
  254       13.512752   0.000000
  255       13.633671   0.000000
  256       13.692308   0.000000
 
  0.3333333E+00  0.1666667E+00  0.5000000E+00  0.9259259E-02
    1      -11.464950   1.000000
    2      -11.279456   1.000000
    3      -11.263607   1.000000
    4      -10.028854   1.000000
    5       -9.884561   1.000000
    6       -9.580974   1.000000
    7       -9.496334   1.000000
    8       -9.460012   1.000000
    9       -9.305847   1.000000
   10       -9.257519   1.000000
   11       -9.201908   1.000000
   12       -8.774853   1.000000
   13       -8.718937   1.000000
   14       -8.541888   1.000000
   15       -8.333339   1.000000
   16       -8.194675   1.000000
   17       -8.132814   1.000000
   18       -7.850017   1.000000
   19       -7.723538   1.000000
   20       -7.598914   1.000000
   21       -7.495850   1.000000
   22       -7.483740   1.000000
   23       -7.189316   1.000000
   24       -7.064646   1.000000
   25       -6.390217   1.000000
   26       -6.242374   1.000000
   27       -5.844699   1.000000
   28       -5.786348   1.000000
   29       -5.753373   1.000000
   30       -5.646776   1.000000
   31       -5.615231   1.000000
   32       -5.423947   1.000000
   33       -5.394574   1.000000
   34       -5.240347   1.000000
   35       -5.147225   1.000000
   36       -5.093423   1.000000
   37       -5.040919   1.000000
   38       -5.001549   1.000000
   39       -4.941077   1.000000
   40       -4.895527   1.000000
   41       -4.618318   1.000000
   42       -4.564523   1.000000
   43       -4.453600   1.000000
   44       -4.213109   1.000000
   45       -4.012288   1.000000
   46       -3.969610   1.000000
   47       -3.846647   1.000000
   48       -3.650126   1.000000
   49       -3.283416   1.000000
   50       -3.159569   1.000000
   51       -2.973357   1.000000
   52       -2.773984   1.000000
   53       -2.757649   1.000000
   54       -2.707714   1.000000
   55       -2.536472   1.000000
   56       -2.447685   1.000000
   57       -2.378910   1.000000
   58       -2.309675   1.000000
   59       -2.223080   1.000000
   60       -2.085912   1.000000
   61       -2.009144   1.000000
   62       -1.977451   1.000000
   63       -1.862726   1.000000
   64       -1.789494   1.000000
   65       -1.642393   1.000000
   66       -1.611018   1.000000
   67       -1.487437   1.000000
   68       -1.475342   1.000000
   69       -1.437878   1.000000
   70       -1.321841   1.000000
   71       -1.312092   1.000000
   72       -1.224422   1.000000
   73       -1.197311   1.000000
   74       -1.159524   1.000000
   75       -1.112963   1.000000
   76       -1.034900   1.000000
   77       -0.982130   1.000000
   78       -0.864902   1.000000
   79       -0.809905   1.000000
   80       -0.746305   1.000000
   81       -0.734689   1.000000
   82       -0.707020   1.000000
   83       -0.706476   1.000000
   84       -0.646377   1.000000
   85       -0.594913   1.000000
   86       -0.549309   1.000000
   87       -0.530796   1.000000
   88       -0.436096   1.000000
   89       -0.398628   1.000000
   90       -0.273037   1.000000
   91       -0.260936   1.000000
   92       -0.227572   1.000000
   93       -0.143112   1.000000
   94       -0.013118   1.000000
   95        0.054056   1.000000
   96        0.112312   1.000000
   97        0.222643   1.000000
   98        0.318367   1.000000
   99        0.364431   1.000000
  100        0.455361   1.000000
  101        0.528723   1.000000
  102        0.573286   1.000000
  103        0.708789   1.000000
  104        0.727736   1.000000
  105        0.785193   1.000000
  106        0.842496   1.000000
  107        0.989445   1.000000
  108        0.998008   1.000000
  109        1.020813   1.000000
  110        1.134539   1.000000
  111        1.235098   1.000000
  112        1.325743   1.000000
  113        1.383068   1.000000
  114        1.438312   1.000000
  115        1.513523   1.000000
  116        1.527638   1.000000
  117        1.581329   1.000000
  118        1.626339   1.000000
  119        1.701898   1.000000
  120        1.733507   1.000000
  121        1.860507   1.000000
  122        1.994711   1.000000
  123        2.088580   1.000000
  124        2.126873   1.000000
  125        2.188018   1.000000
  126        2.221269   1.000000
  127        2.316358   1.000000
  128        2.340767   1.000000
  129        2.369169   1.000000
  130        2.438193   1.000000
  131        2.460487   1.000000
  132        2.527649   1.000000
  133        2.624498   1.000000
  134        2.749222   1.000000
  135        2.770879   1.000000
  136        2.792519   1.000000
  137        2.824742   1.000000
  138        2.896523   1.000000
  139        3.012724   1.000000
  140        3.029561   1.000000
  141        3.081127   1.000000
  142        3.117057   1.000000
  143        3.161125   1.000000
  144        3.193277   1.000000
  145        3.223433   1.000000
  146        3.225661   1.000000
  147        3.301056   1.000000
  148        3.315614   1.000000
  149        3.354666   1.000000
  150        3.377924   1.000000
  151        3.449436   1.000000
  152        3.482606   1.000000
  153        3.588423   1.000000
  154        3.633916   1.000000
  155        3.680188   1.000000
  156        3.692478   1.000000
  157        3.708692   1.000000
  158        3.773102   1.000000
  159        3.844239   1.000000
  160        3.870123   1.000000
  161        3.906779   1.000000
  162        3.954578   1.000000
  163        3.986483   1.000000
  164        4.036404   1.000000
  165        4.108102   1.000000
  166        4.207586   1.000000
  167        4.244629   1.000000
  168        4.275696   1.000000
  169        4.356882   1.000000
  170        4.393367   1.000000
  171        4.438232   1.000000
  172        4.546237   1.000000
  173        4.551916   1.000000
  174        4.597250   1.000000
  175        4.607558   1.000000
  176        4.632369   1.000000
  177        4.677296   1.000000
  178        4.717473   1.000000
  179        4.730829   1.000000
  180        4.763828   1.000000
  181        4.838790   1.000000
  182        4.856747   1.000000
  183        4.917605   1.000000
  184        4.986852   1.000000
  185        5.004812   1.000000
  186        5.087587   1.000000
  187        5.111854   1.000000
  188        5.150697   1.000000
  189        5.164610   1.000000
  190        5.177383   1.000000
  191        5.295932   1.095611
  192        5.329061   0.919643
  193        6.735137   0.000000
  194        6.924453   0.000000
  195        6.971979   0.000000
  196        7.721346   0.000000
  197        7.801773   0.000000
  198        7.965795   0.000000
  199        8.349071   0.000000
  200        8.758215   0.000000
  201        8.822256   0.000000
  202        9.001572   0.000000
  203        9.246751   0.000000
  204        9.434650   0.000000
  205        9.456801   0.000000
  206        9.546855   0.000000
  207        9.696137   0.000000
  208        9.707974   0.000000
  209        9.924853   0.000000
  210        9.999856   0.000000
  211       10.184481   0.000000
  212       10.208899   0.000000
  213       10.283115   0.000000
  214       10.455390   0.000000
  215       10.624803   0.000000
  216       10.743991   0.000000
  217       10.808072   0.000000
  218       10.934468   0.000000
  219       11.016141   0.000000
  220       11.033291   0.000000
  221       11.059506   0.000000
  222       11.078688   0.000000
  223       11.169622   0.000000
  224       11.247152   0.000000
  225       11.337595   0.000000
  226       11.355009   0.000000
  227       11.360821   0.000000
  228       11.377499   0.000000
  229       11.478144   0.000000
  230       11.507524   0.000000
  231       11.596343   0.000000
  232       11.606872   0.000000
  233       11.647337   0.000000
  234       11.764527   0.000000
  235       11.816281   0.000000
  236       11.843909   0.000000
  237       11.936798   0.000000
  238       11.954038   0.000000
  239       12.005490   0.000000
  240       12.035850   0.000000
  241       12.177690   0.000000
  242       12.198571   0.000000
  243       12.376896   0.000000
  244       12.415873   0.000000
  245       12.457978   0.000000
  246       12.533812   0.000000
  247       12.597410   0.000000
  248       12.665719   0.000000
  249       12.691454   0.000000
  250       12.780492   0.000000
  251       13.022179   0.000000
  252       13.064468   0.000000
  253       13.559495   0.000000
  254       13.675914   0.000000
  255       13.739758   0.000000
  256       13.808066   0.000000
 
  0.5000000E+00  0.1666667E+00  0.5000000E+00  0.9259259E-02
    1      -11.415605   1.000000
    2      -11.343050   1.000000
    3      -11.260123   1.000000
    4       -9.977924   1.000000
    5       -9.830312   1.000000
    6       -9.708591   1.000000
    7       -9.551497   1.000000
    8       -9.445245   1.000000
    9       -9.352114   1.000000
   10       -9.271888   1.000000
   11       -9.121994   1.000000
   12       -8.722255   1.000000
   13       -8.626696   1.000000
   14       -8.596704   1.000000
   15       -8.258106   1.000000
   16       -8.227126   1.000000
   17       -8.021830   1.000000
   18       -7.900010   1.000000
   19       -7.766792   1.000000
   20       -7.606820   1.000000
   21       -7.522582   1.000000
   22       -7.434974   1.000000
   23       -7.287793   1.000000
   24       -7.166299   1.000000
   25       -6.403443   1.000000
   26       -6.387236   1.000000
   27       -5.824085   1.000000
   28       -5.719368   1.000000
   29       -5.688331   1.000000
   30       -5.678093   1.000000
   31       -5.439593   1.000000
   32       -5.382809   1.000000
   33       -5.365847   1.000000
   34       -5.205596   1.000000
   35       -5.195314   1.000000
   36       -5.084720   1.000000
   37       -5.025066   1.000000
   38       -4.960909   1.000000
   39       -4.868158   1.000000
   40       -4.788662   1.000000
   41       -4.688861   1.000000
   42       -4.667022   1.000000
   43       -4.610682   1.000000
   44       -4.281697   1.000000
   45       -3.991417   1.000000
   46       -3.957663   1.000000
   47       -3.916693   1.000000
   48       -3.723582   1.000000
   49       -3.265684   1.000000
   50       -3.102271   1.000000
   51       -3.001252   1.000000
   52       -2.850030   1.000000
   53       -2.756344   1.000000
   54       -2.628980   1.000000
   55       -2.460264   1.000000
   56       -2.431246   1.000000
   57       -2.344613   1.000000
   58       -2.303889   1.000000
   59       -2.196066   1.000000
   60       -2.094942   1.000000
   61       -1.934794   1.000000
   62       -1.881756   1.000000
   63       -1.767173   1.000000
   64       -1.639109   1.000000
   65       -1.604606   1.000000
   66       -1.580082   1.000000
   67       -1.552647   1.000000
   68       -1.425582   1.000000
   69       -1.371331   1.000000
   70       -1.322623   1.000000
   71       -1.283893   1.000000
   72       -1.228132   1.000000
   73       -1.148650   1.000000
   74       -1.123914   1.000000
   75       -1.091911   1.000000
   76       -0.990276   1.000000
   77       -0.972823   1.000000
   78       -0.927946   1.000000
   79       -0.898175   1.000000
   80       -0.868310   1.000000
   81       -0.822665   1.000000
   82       -0.808730   1.000000
   83       -0.778697   1.000000
   84       -0.751135   1.000000
   85       -0.682046   1.000000
   86       -0.655017   1.000000
   87       -0.633039   1.000000
   88       -0.557742   1.000000
   89       -0.393003   1.000000
   90       -0.366954   1.000000
   91       -0.277981   1.000000
   92       -0.162055   1.000000
   93       -0.029034   1.000000
   94        0.005006   1.000000
   95        0.060416   1.000000
   96        0.074975   1.000000
   97        0.151928   1.000000
   98        0.226830   1.000000
   99        0.356211   1.000000
  100        0.419696   1.000000
  101        0.447327   1.000000
  102        0.622782   1.000000
  103        0.665196   1.000000
  104        0.676443   1.000000
  105        0.780165   1.000000
  106        0.841321   1.000000
  107        0.950040   1.000000
  108        1.019021   1.000000
  109        1.059337   1.000000
  110        1.179898   1.000000
  111        1.243099   1.000000
  112        1.273013   1.000000
  113        1.351350   1.000000
  114        1.480192   1.000000
  115        1.515657   1.000000
  116        1.658534   1.000000
  117        1.670954   1.000000
  118        1.731331   1.000000
  119        1.860254   1.000000
  120        1.885380   1.000000
  121        1.939875   1.000000
  122        1.965668   1.000000
  123        2.009331   1.000000
  124        2.053318   1.000000
  125        2.106607   1.000000
  126        2.164062   1.000000
  127        2.256317   1.000000
  128        2.383334   1.000000
  129        2.420749   1.000000
  130        2.429297   1.000000
  131        2.458096   1.000000
  132        2.606583   1.000000
  133        2.628054   1.000000
  134        2.687306   1.000000
  135        2.732292   1.000000
  136        2.896811   1.000000
  137        2.920657   1.000000
  138        2.978793   1.000000
  139        3.043902   1.000000
  140        3.077123   1.000000
  141        3.098148   1.000000
  142        3.142951   1.000000
  143        3.164657   1.000000
  144        3.204769   1.000000
  145        3.214619   1.000000
  146        3.280216   1.000000
  147        3.349069   1.000000
  148        3.359814   1.000000
  149        3.375035   1.000000
  150        3.426530   1.000000
  151        3.470127   1.000000
  152        3.578084   1.000000
  153        3.605143   1.000000
  154        3.644397   1.000000
  155        3.671599   1.000000
  156        3.713529   1.000000
  157        3.760995   1.000000
  158        3.795667   1.000000
  159        3.877261   1.000000
  160        3.957459   1.000000
  161        3.979327   1.000000
  162        4.006772   1.000000
  163        4.016452   1.000000
  164        4.077193   1.000000
  165        4.129325   1.000000
  166        4.176720   1.000000
  167        4.189518   1.000000
  168        4.243415   1.000000
  169        4.278112   1.000000
  170        4.364926   1.000000
  171        4.381951   1.000000
  172        4.411120   1.000000
  173        4.438708   1.000000
  174        4.482057   1.000000
  175        4.522773   1.000000
  176        4.548750   1.000000
  177        4.601213   1.000000
  178        4.627223   1.000000
  179        4.661388   1.000000
  180        4.719871   1.000000
  181        4.776298   1.000000
  182        4.850957   1.000000
  183        4.874294   1.000000
  184        4.939090   1.000000
  185        4.955214   1.000000
  186        5.004550   1.000000
  187        5.049710   1.000000
  188        5.138933   1.000000
  189        5.194857   1.000000
  190        5.251260   1.000000
  191        5.335143   1.045876
  192        5.410155   0.070648
  193        6.789650   0.000000
  194        6.889306   0.000000
  195        6.971803   0.000000
  196        7.730143   0.000000
  197        7.759320   0.000000
  198        7.922180   0.000000
  199        8.314624   0.000000
  200        8.830515   0.000000
  201        8.991413   0.000000
  202        9.115057   0.000000
  203        9.296916   0.000000
  204        9.364627   0.000000
  205        9.525001   0.000000
  206        9.591673   0.000000
  207        9.607590   0.000000
  208        9.689521   0.000000
  209        9.922206   0.000000
  210       10.091516   0.000000
  211       10.267132   0.000000
  212       10.365676   0.000000
  213       10.482769   0.000000
  214       10.648604   0.000000
  215       10.705929   0.000000
  216       10.731565   0.000000
  217       10.750481   0.000000
  218       10.869942   0.000000
  219       11.021844   0.000000
  220       11.058821   0.000000
  221       11.069450   0.000000
  222       11.118290   0.000000
  223       11.130553   0.000000
  224       11.185734   0.000000
  225       11.194154   0.000000
  226       11.213737   0.000000
  227       11.259331   0.000000
  228       11.337901   0.000000
  229       11.404984   0.000000
  230       11.489995   0.000000
  231       11.544500   0.000000
  232       11.558443   0.000000
  233       11.596937   0.000000
  234       11.645578   0.000000
  235       11.700101   0.000000
  236       11.722820   0.000000
  237       11.883922   0.000000
  238       11.910142   0.000000
  239       12.034927   0.000000
  240       12.158522   0.000000
  241       12.208977   0.000000
  242       12.225911   0.000000
  243       12.351461   0.000000
  244       12.389910   0.000000
  245       12.417679   0.000000
  246       12.452525   0.000000
  247       12.507443   0.000000
  248       12.606791   0.000000
  249       12.615612   0.000000
  250       12.737842   0.000000
  251       12.849950   0.000000
  252       12.988838   0.000000
  253       13.507189   0.000000
  254       13.756248   0.000000
  255       13.851743   0.000000
  256       13.891456   0.000000
 
 -0.3333333E+00  0.1666667E+00  0.5000000E+00  0.9259259E-02
    1      -11.434447   1.000000
    2      -11.332606   1.000000
    3      -11.245777   1.000000
    4       -9.916402   1.000000
    5       -9.878111   1.000000
    6       -9.753029   1.000000
    7       -9.610604   1.000000
    8       -9.433071   1.000000
    9       -9.347336   1.000000
   10       -9.261279   1.000000
   11       -9.122214   1.000000
   12       -8.669523   1.000000
   13       -8.637640   1.000000
   14       -8.449441   1.000000
   15       -8.282618   1.000000
   16       -8.163756   1.000000
   17       -8.020283   1.000000
   18       -7.905392   1.000000
   19       -7.862737   1.000000
   20       -7.643589   1.000000
   21       -7.547712   1.000000
   22       -7.415571   1.000000
   23       -7.315580   1.000000
   24       -7.252188   1.000000
   25       -6.459131   1.000000
   26       -6.266567   1.000000
   27       -5.995130   1.000000
   28       -5.811064   1.000000
   29       -5.712860   1.000000
   30       -5.608909   1.000000
   31       -5.489037   1.000000
   32       -5.339400   1.000000
   33       -5.304059   1.000000
   34       -5.219078   1.000000
   35       -5.138715   1.000000
   36       -5.071592   1.000000
   37       -4.991891   1.000000
   38       -4.857388   1.000000
   39       -4.820052   1.000000
   40       -4.719176   1.000000
   41       -4.628232   1.000000
   42       -4.607430   1.000000
   43       -4.540297   1.000000
   44       -4.362851   1.000000
   45       -4.028649   1.000000
   46       -3.995585   1.000000
   47       -3.970473   1.000000
   48       -3.796032   1.000000
   49       -3.198012   1.000000
   50       -3.029302   1.000000
   51       -2.844702   1.000000
   52       -2.789100   1.000000
   53       -2.728899   1.000000
   54       -2.709307   1.000000
   55       -2.478524   1.000000
   56       -2.427281   1.000000
   57       -2.300779   1.000000
   58       -2.146906   1.000000
   59       -2.105793   1.000000
   60       -2.031096   1.000000
   61       -2.002875   1.000000
   62       -1.934994   1.000000
   63       -1.839296   1.000000
   64       -1.748796   1.000000
   65       -1.727871   1.000000
   66       -1.629178   1.000000
   67       -1.612762   1.000000
   68       -1.577062   1.000000
   69       -1.542246   1.000000
   70       -1.522990   1.000000
   71       -1.434833   1.000000
   72       -1.382069   1.000000
   73       -1.367295   1.000000
   74       -1.228396   1.000000
   75       -1.163369   1.000000
   76       -1.149693   1.000000
   77       -1.095217   1.000000
   78       -0.984346   1.000000
   79       -0.913281   1.000000
   80       -0.877607   1.000000
   81       -0.714607   1.000000
   82       -0.693959   1.000000
   83       -0.638767   1.000000
   84       -0.616618   1.000000
   85       -0.582274   1.000000
   86       -0.577572   1.000000
   87       -0.535748   1.000000
   88       -0.504345   1.000000
   89       -0.462813   1.000000
   90       -0.397392   1.000000
   91       -0.246511   1.000000
   92       -0.213406   1.000000
   93       -0.088946   1.000000
   94        0.112791   1.000000
   95        0.206826   1.000000
   96        0.245149   1.000000
   97        0.295181   1.000000
   98        0.362203   1.000000
   99        0.429343   1.000000
  100        0.497118   1.000000
  101        0.543768   1.000000
  102        0.573404   1.000000
  103        0.662253   1.000000
  104        0.741026   1.000000
  105        0.804554   1.000000
  106        0.828873   1.000000
  107        0.943695   1.000000
  108        1.053702   1.000000
  109        1.111010   1.000000
  110        1.190975   1.000000
  111        1.262801   1.000000
  112        1.350178   1.000000
  113        1.454931   1.000000
  114        1.463187   1.000000
  115        1.583225   1.000000
  116        1.601251   1.000000
  117        1.644370   1.000000
  118        1.807936   1.000000
  119        1.829554   1.000000
  120        1.868291   1.000000
  121        1.937522   1.000000
  122        1.977082   1.000000
  123        2.103631   1.000000
  124        2.128204   1.000000
  125        2.262019   1.000000
  126        2.314050   1.000000
  127        2.370167   1.000000
  128        2.378843   1.000000
  129        2.416684   1.000000
  130        2.501030   1.000000
  131        2.507662   1.000000
  132        2.538843   1.000000
  133        2.602362   1.000000
  134        2.649080   1.000000
  135        2.710086   1.000000
  136        2.772975   1.000000
  137        2.817946   1.000000
  138        2.905409   1.000000
  139        2.915258   1.000000
  140        2.970634   1.000000
  141        3.027266   1.000000
  142        3.055469   1.000000
  143        3.082509   1.000000
  144        3.166963   1.000000
  145        3.227855   1.000000
  146        3.257840   1.000000
  147        3.274336   1.000000
  148        3.350439   1.000000
  149        3.452104   1.000000
  150        3.462311   1.000000
  151        3.509903   1.000000
  152        3.521054   1.000000
  153        3.578422   1.000000
  154        3.601862   1.000000
  155        3.619318   1.000000
  156        3.653298   1.000000
  157        3.671563   1.000000
  158        3.722179   1.000000
  159        3.803931   1.000000
  160        3.825534   1.000000
  161        3.914804   1.000000
  162        3.941310   1.000000
  163        3.986663   1.000000
  164        4.046132   1.000000
  165        4.092460   1.000000
  166        4.158285   1.000000
  167        4.179714   1.000000
  168        4.194200   1.000000
  169        4.264402   1.000000
  170        4.299215   1.000000
  171        4.357757   1.000000
  172        4.405489   1.000000
  173        4.426832   1.000000
  174        4.536595   1.000000
  175        4.574168   1.000000
  176        4.630376   1.000000
  177        4.659422   1.000000
  178        4.692960   1.000000
  179        4.725482   1.000000
  180        4.733237   1.000000
  181        4.782476   1.000000
  182        4.854599   1.000000
  183        4.908359   1.000000
  184        4.932979   1.000000
  185        4.971773   1.000000
  186        5.062475   1.000000
  187        5.095867   1.000000
  188        5.124931   1.000000
  189        5.219787   1.001067
  190        5.336161   1.027468
  191        5.371287   0.620273
  192        5.446309   0.000000
  193        6.768248   0.000000
  194        6.917655   0.000000
  195        7.006580   0.000000
  196        7.675478   0.000000
  197        7.781529   0.000000
  198        7.871465   0.000000
  199        8.366878   0.000000
  200        8.766816   0.000000
  201        8.907646   0.000000
  202        9.080948   0.000000
  203        9.132422   0.000000
  204        9.331093   0.000000
  205        9.431833   0.000000
  206        9.597069   0.000000
  207        9.718486   0.000000
  208        9.905578   0.000000
  209       10.093378   0.000000
  210       10.149992   0.000000
  211       10.214783   0.000000
  212       10.298341   0.000000
  213       10.357389   0.000000
  214       10.483890   0.000000
  215       10.529662   0.000000
  216       10.690977   0.000000
  217       10.759312   0.000000
  218       10.818901   0.000000
  219       10.923386   0.000000
  220       11.046494   0.000000
  221       11.079413   0.000000
  222       11.089998   0.000000
  223       11.109633   0.000000
  224       11.193671   0.000000
  225       11.356294   0.000000
  226       11.385448   0.000000
  227       11.417553   0.000000
  228       11.452505   0.000000
  229       11.486231   0.000000
  230       11.530378   0.000000
  231       11.558624   0.000000
  232       11.596505   0.000000
  233       11.656578   0.000000
  234       11.698944   0.000000
  235       11.770282   0.000000
  236       11.797184   0.000000
  237       11.851385   0.000000
  238       11.941786   0.000000
  239       11.960227   0.000000
  240       12.072015   0.000000
  241       12.147750   0.000000
  242       12.328808   0.000000
  243       12.410653   0.000000
  244       12.445064   0.000000
  245       12.505776   0.000000
  246       12.556945   0.000000
  247       12.601107   0.000000
  248       12.679534   0.000000
  249       12.706352   0.000000
  250       12.723011   0.000000
  251       12.856842   0.000000
  252       13.124667   0.000000
  253       13.542207   0.000000
  254       13.727554   0.000000
  255       13.780049   0.000000
  256       13.818892   0.000000
 
 -0.1666667E+00  0.1666667E+00  0.5000000E+00  0.9259259E-02
    1      -11.481951   1.000000
    2      -11.298354   1.000000
    3      -11.215182   1.000000
    4      -10.000386   1.000000
    5       -9.817012   1.000000
    6       -9.798215   1.000000
    7       -9.582074   1.000000
    8       -9.432565   1.000000
    9       -9.272409   1.000000
   10       -9.259996   1.000000
   11       -9.179538   1.000000
   12       -8.666980   1.000000
   13       -8.619021   1.000000
   14       -8.365190   1.000000
   15       -8.333185   1.000000
   16       -8.209169   1.000000
   17       -8.048213   1.000000
   18       -7.982723   1.000000
   19       -7.785196   1.000000
   20       -7.650417   1.000000
   21       -7.509524   1.000000
   22       -7.496635   1.000000
   23       -7.348031   1.000000
   24       -7.145673   1.000000
   25       -6.410500   1.000000
   26       -6.146625   1.000000
   27       -6.057381   1.000000
   28       -5.903774   1.000000
   29       -5.780696   1.000000
   30       -5.628057   1.000000
   31       -5.573235   1.000000
   32       -5.399147   1.000000
   33       -5.372184   1.000000
   34       -5.234089   1.000000
   35       -5.126168   1.000000
   36       -5.045929   1.000000
   37       -4.948290   1.000000
   38       -4.926956   1.000000
   39       -4.770151   1.000000
   40       -4.709100   1.000000
   41       -4.543207   1.000000
   42       -4.465796   1.000000
   43       -4.345622   1.000000
   44       -4.202627   1.000000
   45       -4.118128   1.000000
   46       -4.013814   1.000000
   47       -3.967139   1.000000
   48       -3.816463   1.000000
   49       -3.097638   1.000000
   50       -3.010307   1.000000
   51       -2.871835   1.000000
   52       -2.740677   1.000000
   53       -2.640219   1.000000
   54       -2.572692   1.000000
   55       -2.455038   1.000000
   56       -2.393148   1.000000
   57       -2.335139   1.000000
   58       -2.310142   1.000000
   59       -2.278394   1.000000
   60       -2.192226   1.000000
   61       -2.051628   1.000000
   62       -2.028021   1.000000
   63       -1.922477   1.000000
   64       -1.889850   1.000000
   65       -1.866401   1.000000
   66       -1.733794   1.000000
   67       -1.710458   1.000000
   68       -1.622262   1.000000
   69       -1.605614   1.000000
   70       -1.553908   1.000000
   71       -1.450862   1.000000
   72       -1.407609   1.000000
   73       -1.307392   1.000000
   74       -1.268455   1.000000
   75       -1.211076   1.000000
   76       -1.173082   1.000000
   77       -1.121824   1.000000
   78       -1.048873   1.000000
   79       -1.035802   1.000000
   80       -0.985475   1.000000
   81       -0.839441   1.000000
   82       -0.747126   1.000000
   83       -0.728999   1.000000
   84       -0.696128   1.000000
   85       -0.589286   1.000000
   86       -0.502953   1.000000
   87       -0.379364   1.000000
   88       -0.356876   1.000000
   89       -0.288360   1.000000
   90       -0.242727   1.000000
   91       -0.132291   1.000000
   92       -0.041542   1.000000
   93        0.025034   1.000000
   94        0.154942   1.000000
   95        0.312557   1.000000
   96        0.395724   1.000000
   97        0.461085   1.000000
   98        0.508760   1.000000
   99        0.526621   1.000000
  100        0.565177   1.000000
  101        0.619647   1.000000
  102        0.665832   1.000000
  103        0.722703   1.000000
  104        0.843052   1.000000
  105        0.874950   1.000000
  106        0.934981   1.000000
  107        1.046711   1.000000
  108        1.080129   1.000000
  109        1.157252   1.000000
  110        1.194153   1.000000
  111        1.238983   1.000000
  112        1.332695   1.000000
  113        1.436402   1.000000
  114        1.489679   1.000000
  115        1.596716   1.000000
  116        1.680020   1.000000
  117        1.704176   1.000000
  118        1.774470   1.000000
  119        1.846353   1.000000
  120        1.902798   1.000000
  121        1.943724   1.000000
  122        1.960869   1.000000
  123        1.991268   1.000000
  124        2.058939   1.000000
  125        2.147518   1.000000
  126        2.204870   1.000000
  127        2.254656   1.000000
  128        2.333868   1.000000
  129        2.425560   1.000000
  130        2.480356   1.000000
  131        2.532984   1.000000
  132        2.549146   1.000000
  133        2.570300   1.000000
  134        2.591602   1.000000
  135        2.674365   1.000000
  136        2.720078   1.000000
  137        2.770225   1.000000
  138        2.797568   1.000000
  139        2.850004   1.000000
  140        2.930053   1.000000
  141        2.994591   1.000000
  142        3.048006   1.000000
  143        3.054394   1.000000
  144        3.126261   1.000000
  145        3.191276   1.000000
  146        3.210231   1.000000
  147        3.236387   1.000000
  148        3.249441   1.000000
  149        3.260564   1.000000
  150        3.316615   1.000000
  151        3.387100   1.000000
  152        3.426514   1.000000
  153        3.514358   1.000000
  154        3.573607   1.000000
  155        3.624653   1.000000
  156        3.638861   1.000000
  157        3.656741   1.000000
  158        3.700057   1.000000
  159        3.711286   1.000000
  160        3.779640   1.000000
  161        3.815926   1.000000
  162        3.941861   1.000000
  163        4.016655   1.000000
  164        4.034325   1.000000
  165        4.068884   1.000000
  166        4.096080   1.000000
  167        4.180519   1.000000
  168        4.225961   1.000000
  169        4.252051   1.000000
  170        4.320347   1.000000
  171        4.430824   1.000000
  172        4.463728   1.000000
  173        4.523576   1.000000
  174        4.594017   1.000000
  175        4.660397   1.000000
  176        4.675113   1.000000
  177        4.701306   1.000000
  178        4.719598   1.000000
  179        4.773946   1.000000
  180        4.796640   1.000000
  181        4.829807   1.000000
  182        4.840221   1.000000
  183        4.910919   1.000000
  184        4.923276   1.000000
  185        5.108613   1.000000
  186        5.126052   1.000000
  187        5.184869   1.000000
  188        5.215852   1.000000
  189        5.332586   1.002460
  190        5.383600   0.795543
  191        5.414798  -0.026253
  192        5.440829   0.000000
  193        6.748336   0.000000
  194        6.913226   0.000000
  195        7.058427   0.000000
  196        7.641794   0.000000
  197        7.813883   0.000000
  198        7.857611   0.000000
  199        8.447257   0.000000
  200        8.614144   0.000000
  201        8.784255   0.000000
  202        8.868530   0.000000
  203        9.050622   0.000000
  204        9.295395   0.000000
  205        9.393434   0.000000
  206        9.676470   0.000000
  207        9.745477   0.000000
  208        9.990170   0.000000
  209       10.016537   0.000000
  210       10.026462   0.000000
  211       10.071690   0.000000
  212       10.208865   0.000000
  213       10.229098   0.000000
  214       10.381705   0.000000
  215       10.415552   0.000000
  216       10.556861   0.000000
  217       10.670017   0.000000
  218       10.897431   0.000000
  219       10.901345   0.000000
  220       11.016756   0.000000
  221       11.112852   0.000000
  222       11.155678   0.000000
  223       11.256349   0.000000
  224       11.312351   0.000000
  225       11.317838   0.000000
  226       11.350808   0.000000
  227       11.495237   0.000000
  228       11.554204   0.000000
  229       11.603102   0.000000
  230       11.609387   0.000000
  231       11.650793   0.000000
  232       11.756428   0.000000
  233       11.826397   0.000000
  234       11.867826   0.000000
  235       11.909914   0.000000
  236       11.930810   0.000000
  237       11.952606   0.000000
  238       11.981261   0.000000
  239       12.072126   0.000000
  240       12.100086   0.000000
  241       12.166731   0.000000
  242       12.296193   0.000000
  243       12.391635   0.000000
  244       12.600547   0.000000
  245       12.612584   0.000000
  246       12.666939   0.000000
  247       12.717496   0.000000
  248       12.761446   0.000000
  249       12.916562   0.000000
  250       12.958886   0.000000
  251       13.232652   0.000000
  252       13.321362   0.000000
  253       13.406335   0.000000
  254       13.499694   0.000000
  255       13.534107   0.000000
  256       13.608470   0.000000
 
  0.0000000E+00  0.3333333E+00  0.5000000E+00  0.9259259E-02
    1      -11.484370   1.000000
    2      -11.312357   1.000000
    3      -11.199070   1.000000
    4       -9.986402   1.000000
    5       -9.860035   1.000000
    6       -9.740241   1.000000
    7       -9.610866   1.000000
    8       -9.417139   1.000000
    9       -9.285599   1.000000
   10       -9.217820   1.000000
   11       -9.148912   1.000000
   12       -8.696534   1.000000
   13       -8.629191   1.000000
   14       -8.478799   1.000000
   15       -8.374475   1.000000
   16       -8.274512   1.000000
   17       -8.010931   1.000000
   18       -7.972385   1.000000
   19       -7.764021   1.000000
   20       -7.655681   1.000000
   21       -7.479508   1.000000
   22       -7.443995   1.000000
   23       -7.259016   1.000000
   24       -7.146949   1.000000
   25       -6.247944   1.000000
   26       -6.171177   1.000000
   27       -6.091282   1.000000
   28       -5.843307   1.000000
   29       -5.812520   1.000000
   30       -5.771461   1.000000
   31       -5.639227   1.000000
   32       -5.565997   1.000000
   33       -5.325897   1.000000
   34       -5.249289   1.000000
   35       -5.125254   1.000000
   36       -5.002008   1.000000
   37       -4.949130   1.000000
   38       -4.913983   1.000000
   39       -4.770397   1.000000
   40       -4.765311   1.000000
   41       -4.432022   1.000000
   42       -4.292247   1.000000
   43       -4.251718   1.000000
   44       -4.217895   1.000000
   45       -4.133243   1.000000
   46       -4.066488   1.000000
   47       -3.855539   1.000000
   48       -3.817834   1.000000
   49       -3.111718   1.000000
   50       -3.044267   1.000000
   51       -2.969021   1.000000
   52       -2.792367   1.000000
   53       -2.757398   1.000000
   54       -2.667790   1.000000
   55       -2.549708   1.000000
   56       -2.489334   1.000000
   57       -2.407604   1.000000
   58       -2.284600   1.000000
   59       -2.245887   1.000000
   60       -2.205102   1.000000
   61       -2.120208   1.000000
   62       -2.025703   1.000000
   63       -1.959036   1.000000
   64       -1.928278   1.000000
   65       -1.811838   1.000000
   66       -1.743041   1.000000
   67       -1.708381   1.000000
   68       -1.602112   1.000000
   69       -1.522298   1.000000
   70       -1.494304   1.000000
   71       -1.432138   1.000000
   72       -1.320191   1.000000
   73       -1.248497   1.000000
   74       -1.233010   1.000000
   75       -1.155758   1.000000
   76       -1.117293   1.000000
   77       -1.084084   1.000000
   78       -1.000646   1.000000
   79       -0.977799   1.000000
   80       -0.933422   1.000000
   81       -0.876743   1.000000
   82       -0.829242   1.000000
   83       -0.803994   1.000000
   84       -0.718175   1.000000
   85       -0.607061   1.000000
   86       -0.564613   1.000000
   87       -0.424742   1.000000
   88       -0.339038   1.000000
   89       -0.323857   1.000000
   90       -0.230071   1.000000
   91       -0.124221   1.000000
   92        0.004004   1.000000
   93        0.117294   1.000000
   94        0.161066   1.000000
   95        0.280216   1.000000
   96        0.381667   1.000000
   97        0.440685   1.000000
   98        0.528017   1.000000
   99        0.570760   1.000000
  100        0.655584   1.000000
  101        0.712440   1.000000
  102        0.752172   1.000000
  103        0.816069   1.000000
  104        0.866299   1.000000
  105        0.944313   1.000000
  106        0.982728   1.000000
  107        1.014702   1.000000
  108        1.101817   1.000000
  109        1.151942   1.000000
  110        1.282584   1.000000
  111        1.327266   1.000000
  112        1.376102   1.000000
  113        1.419098   1.000000
  114        1.425353   1.000000
  115        1.491975   1.000000
  116        1.611258   1.000000
  117        1.655472   1.000000
  118        1.757189   1.000000
  119        1.802458   1.000000
  120        1.880797   1.000000
  121        1.898244   1.000000
  122        1.976682   1.000000
  123        2.086452   1.000000
  124        2.099519   1.000000
  125        2.150100   1.000000
  126        2.204408   1.000000
  127        2.297055   1.000000
  128        2.362842   1.000000
  129        2.389389   1.000000
  130        2.400632   1.000000
  131        2.478830   1.000000
  132        2.500679   1.000000
  133        2.526300   1.000000
  134        2.561892   1.000000
  135        2.615893   1.000000
  136        2.630293   1.000000
  137        2.735369   1.000000
  138        2.775955   1.000000
  139        2.835830   1.000000
  140        2.868733   1.000000
  141        2.900966   1.000000
  142        2.921176   1.000000
  143        3.067653   1.000000
  144        3.088393   1.000000
  145        3.126589   1.000000
  146        3.141766   1.000000
  147        3.201544   1.000000
  148        3.283896   1.000000
  149        3.295127   1.000000
  150        3.337575   1.000000
  151        3.378653   1.000000
  152        3.411110   1.000000
  153        3.442892   1.000000
  154        3.520611   1.000000
  155        3.590749   1.000000
  156        3.619243   1.000000
  157        3.690159   1.000000
  158        3.743711   1.000000
  159        3.851874   1.000000
  160        3.911457   1.000000
  161        3.978289   1.000000
  162        3.985715   1.000000
  163        4.016517   1.000000
  164        4.046555   1.000000
  165        4.077300   1.000000
  166        4.107924   1.000000
  167        4.143770   1.000000
  168        4.174756   1.000000
  169        4.258564   1.000000
  170        4.301333   1.000000
  171        4.323893   1.000000
  172        4.370605   1.000000
  173        4.478009   1.000000
  174        4.576082   1.000000
  175        4.625521   1.000000
  176        4.691623   1.000000
  177        4.707036   1.000000
  178        4.720126   1.000000
  179        4.791090   1.000000
  180        4.796485   1.000000
  181        4.871917   1.000000
  182        4.906354   1.000000
  183        4.951292   1.000000
  184        4.958556   1.000000
  185        5.075538   1.000000
  186        5.150514   1.000000
  187        5.233488   1.000000
  188        5.328784   1.000000
  189        5.353624   1.000000
  190        5.367107   0.936030
  191        5.421651   0.089520
  192        5.430251  -0.001731
  193        6.810891   0.000000
  194        6.951857   0.000000
  195        7.074076   0.000000
  196        7.572620   0.000000
  197        7.768951   0.000000
  198        7.810990   0.000000
  199        8.555019   0.000000
  200        8.661948   0.000000
  201        8.674759   0.000000
  202        8.963315   0.000000
  203        9.113879   0.000000
  204        9.324385   0.000000
  205        9.458887   0.000000
  206        9.722457   0.000000
  207        9.788879   0.000000
  208        9.890095   0.000000
  209        9.969041   0.000000
  210       10.100151   0.000000
  211       10.135330   0.000000
  212       10.186399   0.000000
  213       10.220124   0.000000
  214       10.308409   0.000000
  215       10.477472   0.000000
  216       10.604395   0.000000
  217       10.660998   0.000000
  218       10.809128   0.000000
  219       10.909916   0.000000
  220       10.985677   0.000000
  221       11.032778   0.000000
  222       11.042807   0.000000
  223       11.095718   0.000000
  224       11.142316   0.000000
  225       11.221716   0.000000
  226       11.247787   0.000000
  227       11.286138   0.000000
  228       11.310094   0.000000
  229       11.341591   0.000000
  230       11.508765   0.000000
  231       11.534505   0.000000
  232       11.892412   0.000000
  233       11.970192   0.000000
  234       11.978374   0.000000
  235       12.003168   0.000000
  236       12.038509   0.000000
  237       12.105423   0.000000
  238       12.165061   0.000000
  239       12.234524   0.000000
  240       12.303408   0.000000
  241       12.347604   0.000000
  242       12.407132   0.000000
  243       12.450083   0.000000
  244       12.454948   0.000000
  245       12.637714   0.000000
  246       12.649239   0.000000
  247       12.737938   0.000000
  248       12.931327   0.000000
  249       13.127354   0.000000
  250       13.148914   0.000000
  251       13.226524   0.000000
  252       13.399236   0.000000
  253       13.403488   0.000000
  254       13.540786   0.000000
  255       13.704464   0.000000
  256       13.730663   0.000000
 
  0.1666667E+00  0.3333333E+00  0.5000000E+00  0.9259259E-02
    1      -11.483434   1.000000
    2      -11.300059   1.000000
    3      -11.217410   1.000000
    4      -10.029243   1.000000
    5       -9.888392   1.000000
    6       -9.612982   1.000000
    7       -9.534579   1.000000
    8       -9.379778   1.000000
    9       -9.304462   1.000000
   10       -9.215965   1.000000
   11       -9.180941   1.000000
   12       -8.817375   1.000000
   13       -8.735622   1.000000
   14       -8.567077   1.000000
   15       -8.418186   1.000000
   16       -8.236569   1.000000
   17       -8.061108   1.000000
   18       -7.861658   1.000000
   19       -7.754444   1.000000
   20       -7.578634   1.000000
   21       -7.499778   1.000000
   22       -7.440567   1.000000
   23       -7.145089   1.000000
   24       -7.031430   1.000000
   25       -6.214443   1.000000
   26       -6.011540   1.000000
   27       -5.992085   1.000000
   28       -5.967491   1.000000
   29       -5.886503   1.000000
   30       -5.724640   1.000000
   31       -5.674339   1.000000
   32       -5.586519   1.000000
   33       -5.454782   1.000000
   34       -5.338616   1.000000
   35       -5.134021   1.000000
   36       -5.055270   1.000000
   37       -5.025527   1.000000
   38       -4.953224   1.000000
   39       -4.876312   1.000000
   40       -4.711546   1.000000
   41       -4.421838   1.000000
   42       -4.327643   1.000000
   43       -4.267963   1.000000
   44       -4.206701   1.000000
   45       -4.123374   1.000000
   46       -4.036498   1.000000
   47       -3.876369   1.000000
   48       -3.698672   1.000000
   49       -3.137938   1.000000
   50       -3.079931   1.000000
   51       -3.038349   1.000000
   52       -2.846031   1.000000
   53       -2.718457   1.000000
   54       -2.649421   1.000000
   55       -2.606867   1.000000
   56       -2.575119   1.000000
   57       -2.518094   1.000000
   58       -2.427280   1.000000
   59       -2.214398   1.000000
   60       -2.143452   1.000000
   61       -2.116726   1.000000
   62       -2.033600   1.000000
   63       -1.927639   1.000000
   64       -1.841060   1.000000
   65       -1.749275   1.000000
   66       -1.673294   1.000000
   67       -1.625753   1.000000
   68       -1.547701   1.000000
   69       -1.504009   1.000000
   70       -1.410805   1.000000
   71       -1.344978   1.000000
   72       -1.300017   1.000000
   73       -1.237375   1.000000
   74       -1.147337   1.000000
   75       -1.126897   1.000000
   76       -1.059488   1.000000
   77       -0.987172   1.000000
   78       -0.957160   1.000000
   79       -0.915017   1.000000
   80       -0.811448   1.000000
   81       -0.787374   1.000000
   82       -0.671327   1.000000
   83       -0.592391   1.000000
   84       -0.562572   1.000000
   85       -0.487678   1.000000
   86       -0.467863   1.000000
   87       -0.404290   1.000000
   88       -0.346645   1.000000
   89       -0.274079   1.000000
   90       -0.173485   1.000000
   91       -0.140511   1.000000
   92       -0.052700   1.000000
   93        0.021660   1.000000
   94        0.110721   1.000000
   95        0.167307   1.000000
   96        0.233649   1.000000
   97        0.375054   1.000000
   98        0.456451   1.000000
   99        0.488026   1.000000
  100        0.524285   1.000000
  101        0.542761   1.000000
  102        0.582370   1.000000
  103        0.709405   1.000000
  104        0.789486   1.000000
  105        0.852044   1.000000
  106        0.883667   1.000000
  107        0.969226   1.000000
  108        0.982736   1.000000
  109        1.089506   1.000000
  110        1.125726   1.000000
  111        1.173958   1.000000
  112        1.221491   1.000000
  113        1.295389   1.000000
  114        1.314752   1.000000
  115        1.488839   1.000000
  116        1.517019   1.000000
  117        1.592180   1.000000
  118        1.658782   1.000000
  119        1.695390   1.000000
  120        1.833790   1.000000
  121        1.903967   1.000000
  122        1.967943   1.000000
  123        2.101218   1.000000
  124        2.182165   1.000000
  125        2.191907   1.000000
  126        2.262426   1.000000
  127        2.302638   1.000000
  128        2.333518   1.000000
  129        2.368701   1.000000
  130        2.400492   1.000000
  131        2.486837   1.000000
  132        2.512754   1.000000
  133        2.574646   1.000000
  134        2.619998   1.000000
  135        2.644252   1.000000
  136        2.736860   1.000000
  137        2.752113   1.000000
  138        2.825787   1.000000
  139        2.896549   1.000000
  140        2.967767   1.000000
  141        3.000470   1.000000
  142        3.015342   1.000000
  143        3.039542   1.000000
  144        3.121653   1.000000
  145        3.162841   1.000000
  146        3.220350   1.000000
  147        3.248814   1.000000
  148        3.300162   1.000000
  149        3.319850   1.000000
  150        3.395775   1.000000
  151        3.431794   1.000000
  152        3.451524   1.000000
  153        3.459104   1.000000
  154        3.502555   1.000000
  155        3.614614   1.000000
  156        3.637951   1.000000
  157        3.688102   1.000000
  158        3.734454   1.000000
  159        3.907655   1.000000
  160        3.915171   1.000000
  161        3.940800   1.000000
  162        4.021911   1.000000
  163        4.066835   1.000000
  164        4.105133   1.000000
  165        4.121290   1.000000
  166        4.167678   1.000000
  167        4.169918   1.000000
  168        4.281739   1.000000
  169        4.314351   1.000000
  170        4.346050   1.000000
  171        4.405022   1.000000
  172        4.462957   1.000000
  173        4.503253   1.000000
  174        4.620612   1.000000
  175        4.686050   1.000000
  176        4.693786   1.000000
  177        4.730544   1.000000
  178        4.792622   1.000000
  179        4.804505   1.000000
  180        4.837383   1.000000
  181        4.873605   1.000000
  182        4.885112   1.000000
  183        4.925066   1.000000
  184        4.969045   1.000000
  185        5.086096   1.000000
  186        5.104561   1.000000
  187        5.130690   1.000000
  188        5.181406   1.000000
  189        5.232223   1.000000
  190        5.278327   1.024090
  191        5.301841   1.042388
  192        5.389921   0.322232
  193        6.796427   0.000000
  194        6.945488   0.000000
  195        7.048139   0.000000
  196        7.592394   0.000000
  197        7.817857   0.000000
  198        7.879553   0.000000
  199        8.540757   0.000000
  200        8.660950   0.000000
  201        8.736110   0.000000
  202        8.918861   0.000000
  203        9.155682   0.000000
  204        9.402575   0.000000
  205        9.460686   0.000000
  206        9.660496   0.000000
  207        9.735884   0.000000
  208        9.866308   0.000000
  209        9.936713   0.000000
  210       10.026409   0.000000
  211       10.056455   0.000000
  212       10.178506   0.000000
  213       10.276351   0.000000
  214       10.378646   0.000000
  215       10.510968   0.000000
  216       10.524598   0.000000
  217       10.626015   0.000000
  218       10.784754   0.000000
  219       10.881554   0.000000
  220       11.013741   0.000000
  221       11.079177   0.000000
  222       11.091403   0.000000
  223       11.161819   0.000000
  224       11.186514   0.000000
  225       11.225641   0.000000
  226       11.282011   0.000000
  227       11.339022   0.000000
  228       11.474309   0.000000
  229       11.478380   0.000000
  230       11.553907   0.000000
  231       11.583047   0.000000
  232       11.681815   0.000000
  233       11.744471   0.000000
  234       11.886619   0.000000
  235       11.915698   0.000000
  236       12.041250   0.000000
  237       12.084110   0.000000
  238       12.104150   0.000000
  239       12.127414   0.000000
  240       12.188341   0.000000
  241       12.247355   0.000000
  242       12.364970   0.000000
  243       12.420443   0.000000
  244       12.483272   0.000000
  245       12.528671   0.000000
  246       12.595325   0.000000
  247       12.642526   0.000000
  248       12.865253   0.000000
  249       12.960426   0.000000
  250       13.160403   0.000000
  251       13.216777   0.000000
  252       13.289974   0.000000
  253       13.513035   0.000000
  254       13.678334   0.000000
  255       13.707581   0.000000
  256       13.794090   0.000000
 
  0.3333333E+00  0.3333333E+00  0.5000000E+00  0.9259259E-02
    1      -11.456360   1.000000
    2      -11.308100   1.000000
    3      -11.250575   1.000000
    4      -10.038032   1.000000
    5       -9.886306   1.000000
    6       -9.535422   1.000000
    7       -9.416951   1.000000
    8       -9.347340   1.000000
    9       -9.321887   1.000000
   10       -9.256446   1.000000
   11       -9.204707   1.000000
   12       -8.926720   1.000000
   13       -8.861340   1.000000
   14       -8.652453   1.000000
   15       -8.394100   1.000000
   16       -8.211599   1.000000
   17       -8.080327   1.000000
   18       -7.802582   1.000000
   19       -7.664006   1.000000
   20       -7.619610   1.000000
   21       -7.473178   1.000000
   22       -7.385792   1.000000
   23       -7.082748   1.000000
   24       -6.990351   1.000000
   25       -6.218090   1.000000
   26       -6.118663   1.000000
   27       -5.911757   1.000000
   28       -5.819762   1.000000
   29       -5.805193   1.000000
   30       -5.787829   1.000000
   31       -5.695761   1.000000
   32       -5.521001   1.000000
   33       -5.432466   1.000000
   34       -5.403255   1.000000
   35       -5.190213   1.000000
   36       -5.159281   1.000000
   37       -5.097790   1.000000
   38       -5.041742   1.000000
   39       -4.908834   1.000000
   40       -4.779161   1.000000
   41       -4.493861   1.000000
   42       -4.384206   1.000000
   43       -4.343797   1.000000
   44       -4.182264   1.000000
   45       -4.099799   1.000000
   46       -3.994300   1.000000
   47       -3.864562   1.000000
   48       -3.646350   1.000000
   49       -3.247669   1.000000
   50       -3.137333   1.000000
   51       -2.933562   1.000000
   52       -2.888427   1.000000
   53       -2.833619   1.000000
   54       -2.683640   1.000000
   55       -2.633123   1.000000
   56       -2.570937   1.000000
   57       -2.503319   1.000000
   58       -2.466680   1.000000
   59       -2.306126   1.000000
   60       -2.136090   1.000000
   61       -2.097162   1.000000
   62       -1.973800   1.000000
   63       -1.788711   1.000000
   64       -1.722530   1.000000
   65       -1.608434   1.000000
   66       -1.599969   1.000000
   67       -1.551705   1.000000
   68       -1.504312   1.000000
   69       -1.435191   1.000000
   70       -1.297587   1.000000
   71       -1.256642   1.000000
   72       -1.185505   1.000000
   73       -1.148190   1.000000
   74       -1.074448   1.000000
   75       -1.029265   1.000000
   76       -0.899658   1.000000
   77       -0.835360   1.000000
   78       -0.772566   1.000000
   79       -0.737531   1.000000
   80       -0.724899   1.000000
   81       -0.677292   1.000000
   82       -0.670905   1.000000
   83       -0.594115   1.000000
   84       -0.563074   1.000000
   85       -0.512734   1.000000
   86       -0.412759   1.000000
   87       -0.387675   1.000000
   88       -0.328070   1.000000
   89       -0.216263   1.000000
   90       -0.165883   1.000000
   91       -0.136197   1.000000
   92       -0.065926   1.000000
   93       -0.036270   1.000000
   94       -0.000667   1.000000
   95        0.059936   1.000000
   96        0.115132   1.000000
   97        0.153887   1.000000
   98        0.226240   1.000000
   99        0.327748   1.000000
  100        0.359070   1.000000
  101        0.453309   1.000000
  102        0.466380   1.000000
  103        0.560676   1.000000
  104        0.657510   1.000000
  105        0.697244   1.000000
  106        0.813371   1.000000
  107        0.864785   1.000000
  108        0.866929   1.000000
  109        0.905960   1.000000
  110        0.917211   1.000000
  111        1.110123   1.000000
  112        1.139102   1.000000
  113        1.215336   1.000000
  114        1.264592   1.000000
  115        1.376678   1.000000
  116        1.401286   1.000000
  117        1.483339   1.000000
  118        1.597588   1.000000
  119        1.720906   1.000000
  120        1.762756   1.000000
  121        1.812610   1.000000
  122        1.938866   1.000000
  123        2.091743   1.000000
  124        2.101510   1.000000
  125        2.143458   1.000000
  126        2.237931   1.000000
  127        2.278666   1.000000
  128        2.345043   1.000000
  129        2.396197   1.000000
  130        2.492842   1.000000
  131        2.521460   1.000000
  132        2.561461   1.000000
  133        2.627183   1.000000
  134        2.679617   1.000000
  135        2.782665   1.000000
  136        2.870685   1.000000
  137        2.913465   1.000000
  138        2.963557   1.000000
  139        2.984606   1.000000
  140        3.027786   1.000000
  141        3.106519   1.000000
  142        3.134934   1.000000
  143        3.151692   1.000000
  144        3.190440   1.000000
  145        3.205742   1.000000
  146        3.235290   1.000000
  147        3.267226   1.000000
  148        3.347002   1.000000
  149        3.402526   1.000000
  150        3.458682   1.000000
  151        3.486476   1.000000
  152        3.557930   1.000000
  153        3.587210   1.000000
  154        3.640614   1.000000
  155        3.671284   1.000000
  156        3.770960   1.000000
  157        3.805623   1.000000
  158        3.829085   1.000000
  159        3.867867   1.000000
  160        3.885046   1.000000
  161        3.896494   1.000000
  162        3.993594   1.000000
  163        4.056650   1.000000
  164        4.143246   1.000000
  165        4.162933   1.000000
  166        4.173521   1.000000
  167        4.243518   1.000000
  168        4.326254   1.000000
  169        4.364837   1.000000
  170        4.382984   1.000000
  171        4.464719   1.000000
  172        4.518321   1.000000
  173        4.587566   1.000000
  174        4.620485   1.000000
  175        4.671533   1.000000
  176        4.700769   1.000000
  177        4.767271   1.000000
  178        4.777311   1.000000
  179        4.788828   1.000000
  180        4.793511   1.000000
  181        4.845650   1.000000
  182        4.863913   1.000000
  183        4.911697   1.000000
  184        4.918987   1.000000
  185        4.980195   1.000000
  186        5.010331   1.000000
  187        5.028438   1.000000
  188        5.076698   1.000000
  189        5.097679   1.000000
  190        5.173957   1.000000
  191        5.214160   1.014860
  192        5.268711   1.103101
  193        6.783905   0.000000
  194        6.940764   0.000000
  195        6.998867   0.000000
  196        7.664257   0.000000
  197        7.794639   0.000000
  198        7.943110   0.000000
  199        8.520109   0.000000
  200        8.764216   0.000000
  201        8.793606   0.000000
  202        8.893182   0.000000
  203        9.214663   0.000000
  204        9.403723   0.000000
  205        9.588003   0.000000
  206        9.672333   0.000000
  207        9.742121   0.000000
  208        9.785639   0.000000
  209        9.842445   0.000000
  210       10.083449   0.000000
  211       10.098891   0.000000
  212       10.148857   0.000000
  213       10.351113   0.000000
  214       10.393194   0.000000
  215       10.516711   0.000000
  216       10.558200   0.000000
  217       10.777044   0.000000
  218       10.825153   0.000000
  219       10.862555   0.000000
  220       11.058949   0.000000
  221       11.113156   0.000000
  222       11.161764   0.000000
  223       11.188641   0.000000
  224       11.233779   0.000000
  225       11.276394   0.000000
  226       11.321413   0.000000
  227       11.341135   0.000000
  228       11.350494   0.000000
  229       11.419975   0.000000
  230       11.460243   0.000000
  231       11.504055   0.000000
  232       11.600430   0.000000
  233       11.632780   0.000000
  234       11.703830   0.000000
  235       11.837075   0.000000
  236       11.919748   0.000000
  237       11.937679   0.000000
  238       11.985123   0.000000
  239       12.052427   0.000000
  240       12.118934   0.000000
  241       12.151080   0.000000
  242       12.184915   0.000000
  243       12.227770   0.000000
  244       12.387679   0.000000
  245       12.450530   0.000000
  246       12.653356   0.000000
  247       12.714026   0.000000
  248       12.767012   0.000000
  249       12.941745   0.000000
  250       13.058144   0.000000
  251       13.256934   0.000000
  252       13.451768   0.000000
  253       13.517946   0.000000
  254       13.551278   0.000000
  255       13.622230   0.000000
  256       13.705237   0.000000
 
  0.5000000E+00  0.3333333E+00  0.5000000E+00  0.9259259E-02
    1      -11.409715   1.000000
    2      -11.357308   1.000000
    3      -11.257189   1.000000
    4      -10.022935   1.000000
    5       -9.849466   1.000000
    6       -9.544603   1.000000
    7       -9.491942   1.000000
    8       -9.388466   1.000000
    9       -9.339307   1.000000
   10       -9.215043   1.000000
   11       -9.164094   1.000000
   12       -8.896478   1.000000
   13       -8.847394   1.000000
   14       -8.697600   1.000000
   15       -8.315036   1.000000
   16       -8.291107   1.000000
   17       -8.012367   1.000000
   18       -7.787887   1.000000
   19       -7.666858   1.000000
   20       -7.609476   1.000000
   21       -7.456371   1.000000
   22       -7.421499   1.000000
   23       -7.136937   1.000000
   24       -7.017968   1.000000
   25       -6.259433   1.000000
   26       -6.238261   1.000000
   27       -5.850021   1.000000
   28       -5.837440   1.000000
   29       -5.792752   1.000000
   30       -5.675002   1.000000
   31       -5.575984   1.000000
   32       -5.493141   1.000000
   33       -5.416298   1.000000
   34       -5.332276   1.000000
   35       -5.327045   1.000000
   36       -5.182224   1.000000
   37       -5.125122   1.000000
   38       -4.970837   1.000000
   39       -4.902129   1.000000
   40       -4.749031   1.000000
   41       -4.576876   1.000000
   42       -4.473665   1.000000
   43       -4.443071   1.000000
   44       -4.105410   1.000000
   45       -4.077873   1.000000
   46       -4.030807   1.000000
   47       -3.900633   1.000000
   48       -3.650804   1.000000
   49       -3.244147   1.000000
   50       -3.138311   1.000000
   51       -2.930207   1.000000
   52       -2.867553   1.000000
   53       -2.796019   1.000000
   54       -2.764123   1.000000
   55       -2.682003   1.000000
   56       -2.502214   1.000000
   57       -2.463356   1.000000
   58       -2.377713   1.000000
   59       -2.276711   1.000000
   60       -2.158569   1.000000
   61       -2.089207   1.000000
   62       -1.923732   1.000000
   63       -1.853886   1.000000
   64       -1.744569   1.000000
   65       -1.716698   1.000000
   66       -1.549771   1.000000
   67       -1.427981   1.000000
   68       -1.415995   1.000000
   69       -1.397634   1.000000
   70       -1.197927   1.000000
   71       -1.115765   1.000000
   72       -1.080948   1.000000
   73       -1.034292   1.000000
   74       -1.020019   1.000000
   75       -0.967946   1.000000
   76       -0.904610   1.000000
   77       -0.889369   1.000000
   78       -0.866894   1.000000
   79       -0.806209   1.000000
   80       -0.801253   1.000000
   81       -0.680133   1.000000
   82       -0.608098   1.000000
   83       -0.594050   1.000000
   84       -0.520417   1.000000
   85       -0.499198   1.000000
   86       -0.474428   1.000000
   87       -0.447518   1.000000
   88       -0.414626   1.000000
   89       -0.367132   1.000000
   90       -0.322567   1.000000
   91       -0.298441   1.000000
   92       -0.264379   1.000000
   93       -0.088332   1.000000
   94       -0.003482   1.000000
   95        0.066428   1.000000
   96        0.100103   1.000000
   97        0.255900   1.000000
   98        0.341270   1.000000
   99        0.361679   1.000000
  100        0.441504   1.000000
  101        0.481808   1.000000
  102        0.550987   1.000000
  103        0.571319   1.000000
  104        0.636941   1.000000
  105        0.672788   1.000000
  106        0.708996   1.000000
  107        0.796274   1.000000
  108        0.846772   1.000000
  109        0.889018   1.000000
  110        0.956004   1.000000
  111        0.983599   1.000000
  112        1.034382   1.000000
  113        1.192827   1.000000
  114        1.312625   1.000000
  115        1.404520   1.000000
  116        1.519906   1.000000
  117        1.566589   1.000000
  118        1.576896   1.000000
  119        1.610508   1.000000
  120        1.647586   1.000000
  121        1.780681   1.000000
  122        1.910585   1.000000
  123        1.997488   1.000000
  124        2.027894   1.000000
  125        2.060624   1.000000
  126        2.118429   1.000000
  127        2.286685   1.000000
  128        2.356434   1.000000
  129        2.424508   1.000000
  130        2.480172   1.000000
  131        2.661121   1.000000
  132        2.680728   1.000000
  133        2.709853   1.000000
  134        2.731889   1.000000
  135        2.842826   1.000000
  136        2.848670   1.000000
  137        2.970142   1.000000
  138        3.007207   1.000000
  139        3.040807   1.000000
  140        3.085677   1.000000
  141        3.096101   1.000000
  142        3.162134   1.000000
  143        3.200123   1.000000
  144        3.245986   1.000000
  145        3.260955   1.000000
  146        3.266793   1.000000
  147        3.320304   1.000000
  148        3.384820   1.000000
  149        3.419657   1.000000
  150        3.472173   1.000000
  151        3.531773   1.000000
  152        3.612254   1.000000
  153        3.629346   1.000000
  154        3.674911   1.000000
  155        3.717943   1.000000
  156        3.770585   1.000000
  157        3.801693   1.000000
  158        3.910145   1.000000
  159        3.978261   1.000000
  160        4.001754   1.000000
  161        4.013776   1.000000
  162        4.093054   1.000000
  163        4.141599   1.000000
  164        4.164879   1.000000
  165        4.177447   1.000000
  166        4.201168   1.000000
  167        4.261318   1.000000
  168        4.281722   1.000000
  169        4.313111   1.000000
  170        4.355180   1.000000
  171        4.376668   1.000000
  172        4.417926   1.000000
  173        4.435019   1.000000
  174        4.476362   1.000000
  175        4.530006   1.000000
  176        4.558256   1.000000
  177        4.657744   1.000000
  178        4.660336   1.000000
  179        4.715440   1.000000
  180        4.754224   1.000000
  181        4.793155   1.000000
  182        4.881546   1.000000
  183        4.924623   1.000000
  184        4.937362   1.000000
  185        4.958705   1.000000
  186        4.992942   1.000000
  187        5.017020   1.000000
  188        5.064029   1.000000
  189        5.088763   1.000000
  190        5.150017   1.000000
  191        5.252261   1.012864
  192        5.337377   0.979741
  193        6.831621   0.000000
  194        6.893914   0.000000
  195        6.996685   0.000000
  196        7.696316   0.000000
  197        7.731223   0.000000
  198        7.936241   0.000000
  199        8.511434   0.000000
  200        8.758545   0.000000
  201        8.933833   0.000000
  202        8.972852   0.000000
  203        9.230634   0.000000
  204        9.405234   0.000000
  205        9.458317   0.000000
  206        9.717357   0.000000
  207        9.774672   0.000000
  208        9.857443   0.000000
  209        9.905094   0.000000
  210        9.950193   0.000000
  211       10.096242   0.000000
  212       10.426545   0.000000
  213       10.464420   0.000000
  214       10.513755   0.000000
  215       10.540128   0.000000
  216       10.599498   0.000000
  217       10.746080   0.000000
  218       10.883665   0.000000
  219       10.919941   0.000000
  220       10.973460   0.000000
  221       11.036407   0.000000
  222       11.087263   0.000000
  223       11.124160   0.000000
  224       11.146596   0.000000
  225       11.176630   0.000000
  226       11.236654   0.000000
  227       11.332484   0.000000
  228       11.358754   0.000000
  229       11.421624   0.000000
  230       11.486845   0.000000
  231       11.543613   0.000000
  232       11.597616   0.000000
  233       11.652558   0.000000
  234       11.699458   0.000000
  235       11.747050   0.000000
  236       11.787175   0.000000
  237       11.815959   0.000000
  238       11.845989   0.000000
  239       11.879681   0.000000
  240       12.095850   0.000000
  241       12.129638   0.000000
  242       12.148518   0.000000
  243       12.366161   0.000000
  244       12.395504   0.000000
  245       12.482262   0.000000
  246       12.504244   0.000000
  247       12.747952   0.000000
  248       12.826828   0.000000
  249       12.920926   0.000000
  250       13.069208   0.000000
  251       13.268334   0.000000
  252       13.391732   0.000000
  253       13.449585   0.000000
  254       13.591944   0.000000
  255       13.652868   0.000000
  256       13.719270   0.000000
 
 -0.3333333E+00  0.3333333E+00  0.5000000E+00  0.9259259E-02
    1      -11.414657   1.000000
    2      -11.361351   1.000000
    3      -11.243909   1.000000
    4       -9.981073   1.000000
    5       -9.797531   1.000000
    6       -9.728848   1.000000
    7       -9.549813   1.000000
    8       -9.428871   1.000000
    9       -9.337197   1.000000
   10       -9.208106   1.000000
   11       -9.134208   1.000000
   12       -8.770550   1.000000
   13       -8.697312   1.000000
   14       -8.666181   1.000000
   15       -8.347881   1.000000
   16       -8.217569   1.000000
   17       -7.967898   1.000000
   18       -7.857694   1.000000
   19       -7.755645   1.000000
   20       -7.581792   1.000000
   21       -7.550174   1.000000
   22       -7.390469   1.000000
   23       -7.257095   1.000000
   24       -7.107231   1.000000
   25       -6.312976   1.000000
   26       -6.166285   1.000000
   27       -6.018751   1.000000
   28       -5.946984   1.000000
   29       -5.759961   1.000000
   30       -5.663966   1.000000
   31       -5.571284   1.000000
   32       -5.447581   1.000000
   33       -5.297970   1.000000
   34       -5.282133   1.000000
   35       -5.211853   1.000000
   36       -5.099386   1.000000
   37       -4.985604   1.000000
   38       -4.954936   1.000000
   39       -4.822834   1.000000
   40       -4.816093   1.000000
   41       -4.531344   1.000000
   42       -4.480143   1.000000
   43       -4.420379   1.000000
   44       -4.169850   1.000000
   45       -4.075800   1.000000
   46       -4.044837   1.000000
   47       -3.979023   1.000000
   48       -3.732469   1.000000
   49       -3.110324   1.000000
   50       -3.004491   1.000000
   51       -2.946620   1.000000
   52       -2.888819   1.000000
   53       -2.796326   1.000000
   54       -2.716641   1.000000
   55       -2.635122   1.000000
   56       -2.440298   1.000000
   57       -2.385150   1.000000
   58       -2.297376   1.000000
   59       -2.292894   1.000000
   60       -2.129599   1.000000
   61       -2.010253   1.000000
   62       -1.955248   1.000000
   63       -1.895947   1.000000
   64       -1.820191   1.000000
   65       -1.735086   1.000000
   66       -1.718698   1.000000
   67       -1.635589   1.000000
   68       -1.564017   1.000000
   69       -1.431203   1.000000
   70       -1.395191   1.000000
   71       -1.294684   1.000000
   72       -1.180415   1.000000
   73       -1.171295   1.000000
   74       -1.115175   1.000000
   75       -1.080392   1.000000
   76       -0.989677   1.000000
   77       -0.913690   1.000000
   78       -0.904953   1.000000
   79       -0.836519   1.000000
   80       -0.817935   1.000000
   81       -0.799024   1.000000
   82       -0.710726   1.000000
   83       -0.649184   1.000000
   84       -0.635139   1.000000
   85       -0.526885   1.000000
   86       -0.421109   1.000000
   87       -0.403782   1.000000
   88       -0.386473   1.000000
   89       -0.312038   1.000000
   90       -0.256550   1.000000
   91       -0.217750   1.000000
   92       -0.163863   1.000000
   93       -0.070077   1.000000
   94        0.013279   1.000000
   95        0.058343   1.000000
   96        0.248641   1.000000
   97        0.250639   1.000000
   98        0.394326   1.000000
   99        0.488465   1.000000
  100        0.508623   1.000000
  101        0.538146   1.000000
  102        0.611419   1.000000
  103        0.671335   1.000000
  104        0.692000   1.000000
  105        0.706022   1.000000
  106        0.774326   1.000000
  107        0.922776   1.000000
  108        1.001878   1.000000
  109        1.021726   1.000000
  110        1.053414   1.000000
  111        1.075654   1.000000
  112        1.192001   1.000000
  113        1.248769   1.000000
  114        1.291175   1.000000
  115        1.419993   1.000000
  116        1.524967   1.000000
  117        1.536193   1.000000
  118        1.716987   1.000000
  119        1.784560   1.000000
  120        1.791060   1.000000
  121        1.872027   1.000000
  122        1.935346   1.000000
  123        1.996178   1.000000
  124        2.078271   1.000000
  125        2.162270   1.000000
  126        2.172989   1.000000
  127        2.222831   1.000000
  128        2.296324   1.000000
  129        2.428212   1.000000
  130        2.494851   1.000000
  131        2.584603   1.000000
  132        2.637259   1.000000
  133        2.666376   1.000000
  134        2.727123   1.000000
  135        2.783527   1.000000
  136        2.812186   1.000000
  137        2.890293   1.000000
  138        2.958891   1.000000
  139        2.996635   1.000000
  140        3.005752   1.000000
  141        3.080892   1.000000
  142        3.166660   1.000000
  143        3.190003   1.000000
  144        3.233210   1.000000
  145        3.251456   1.000000
  146        3.268401   1.000000
  147        3.294890   1.000000
  148        3.309721   1.000000
  149        3.383781   1.000000
  150        3.415739   1.000000
  151        3.454236   1.000000
  152        3.560412   1.000000
  153        3.589290   1.000000
  154        3.671593   1.000000
  155        3.701482   1.000000
  156        3.727087   1.000000
  157        3.760940   1.000000
  158        3.844227   1.000000
  159        3.865164   1.000000
  160        3.941931   1.000000
  161        3.962086   1.000000
  162        4.013542   1.000000
  163        4.064551   1.000000
  164        4.116592   1.000000
  165        4.139176   1.000000
  166        4.189575   1.000000
  167        4.202949   1.000000
  168        4.234301   1.000000
  169        4.259572   1.000000
  170        4.308343   1.000000
  171        4.351060   1.000000
  172        4.394274   1.000000
  173        4.444671   1.000000
  174        4.460337   1.000000
  175        4.482940   1.000000
  176        4.547089   1.000000
  177        4.590627   1.000000
  178        4.662616   1.000000
  179        4.706965   1.000000
  180        4.749347   1.000000
  181        4.795096   1.000000
  182        4.885784   1.000000
  183        4.938403   1.000000
  184        4.994382   1.000000
  185        5.016440   1.000000
  186        5.048499   1.000000
  187        5.078943   1.000000
  188        5.118543   1.000000
  189        5.162959   1.000000
  190        5.271589   1.033639
  191        5.321810   0.987176
  192        5.395764   0.301820
  193        6.830160   0.000000
  194        6.929076   0.000000
  195        7.024796   0.000000
  196        7.610944   0.000000
  197        7.729241   0.000000
  198        7.884538   0.000000
  199        8.540629   0.000000
  200        8.743124   0.000000
  201        8.903816   0.000000
  202        9.040485   0.000000
  203        9.136551   0.000000
  204        9.319614   0.000000
  205        9.428996   0.000000
  206        9.691797   0.000000
  207        9.796752   0.000000
  208        9.945570   0.000000
  209       10.022866   0.000000
  210       10.095450   0.000000
  211       10.170260   0.000000
  212       10.285215   0.000000
  213       10.448479   0.000000
  214       10.603065   0.000000
  215       10.639060   0.000000
  216       10.668785   0.000000
  217       10.739398   0.000000
  218       10.769588   0.000000
  219       10.799302   0.000000
  220       10.848761   0.000000
  221       10.866819   0.000000
  222       11.029854   0.000000
  223       11.111042   0.000000
  224       11.155590   0.000000
  225       11.243639   0.000000
  226       11.303109   0.000000
  227       11.376453   0.000000
  228       11.459263   0.000000
  229       11.494158   0.000000
  230       11.516309   0.000000
  231       11.527718   0.000000
  232       11.603622   0.000000
  233       11.605846   0.000000
  234       11.672213   0.000000
  235       11.686943   0.000000
  236       11.749663   0.000000
  237       11.893542   0.000000
  238       11.946784   0.000000
  239       12.001931   0.000000
  240       12.060483   0.000000
  241       12.195229   0.000000
  242       12.243132   0.000000
  243       12.259307   0.000000
  244       12.404784   0.000000
  245       12.627570   0.000000
  246       12.708184   0.000000
  247       12.743016   0.000000
  248       12.822685   0.000000
  249       12.984807   0.000000
  250       13.157283   0.000000
  251       13.316320   0.000000
  252       13.404391   0.000000
  253       13.489978   0.000000
  254       13.580008   0.000000
  255       13.665486   0.000000
  256       13.737996   0.000000
 
 -0.1666667E+00  0.3333333E+00  0.5000000E+00  0.9259259E-02
    1      -11.459810   1.000000
    2      -11.330684   1.000000
    3      -11.215159   1.000000
    4       -9.927354   1.000000
    5       -9.859420   1.000000
    6       -9.768365   1.000000
    7       -9.642050   1.000000
    8       -9.421861   1.000000
    9       -9.302507   1.000000
   10       -9.212067   1.000000
   11       -9.139722   1.000000
   12       -8.691840   1.000000
   13       -8.645098   1.000000
   14       -8.488853   1.000000
   15       -8.356496   1.000000
   16       -8.170588   1.000000
   17       -8.060581   1.000000
   18       -7.916603   1.000000
   19       -7.806703   1.000000
   20       -7.653032   1.000000
   21       -7.512935   1.000000
   22       -7.381180   1.000000
   23       -7.288360   1.000000
   24       -7.225539   1.000000
   25       -6.286128   1.000000
   26       -6.189236   1.000000
   27       -6.069265   1.000000
   28       -5.973757   1.000000
   29       -5.735342   1.000000
   30       -5.708620   1.000000
   31       -5.674472   1.000000
   32       -5.441781   1.000000
   33       -5.282135   1.000000
   34       -5.200224   1.000000
   35       -5.072501   1.000000
   36       -4.992499   1.000000
   37       -4.953270   1.000000
   38       -4.914713   1.000000
   39       -4.864816   1.000000
   40       -4.724171   1.000000
   41       -4.561349   1.000000
   42       -4.399000   1.000000
   43       -4.221568   1.000000
   44       -4.182384   1.000000
   45       -4.139748   1.000000
   46       -4.092048   1.000000
   47       -3.970557   1.000000
   48       -3.811119   1.000000
   49       -3.081557   1.000000
   50       -2.938938   1.000000
   51       -2.895441   1.000000
   52       -2.875797   1.000000
   53       -2.743040   1.000000
   54       -2.621349   1.000000
   55       -2.563134   1.000000
   56       -2.492272   1.000000
   57       -2.399389   1.000000
   58       -2.327728   1.000000
   59       -2.281458   1.000000
   60       -2.158792   1.000000
   61       -2.069195   1.000000
   62       -2.004903   1.000000
   63       -1.959613   1.000000
   64       -1.814671   1.000000
   65       -1.753863   1.000000
   66       -1.736235   1.000000
   67       -1.691948   1.000000
   68       -1.652782   1.000000
   69       -1.555167   1.000000
   70       -1.470851   1.000000
   71       -1.390564   1.000000
   72       -1.329730   1.000000
   73       -1.210357   1.000000
   74       -1.180205   1.000000
   75       -1.165659   1.000000
   76       -1.122578   1.000000
   77       -1.086862   1.000000
   78       -1.045870   1.000000
   79       -0.993306   1.000000
   80       -0.916358   1.000000
   81       -0.899294   1.000000
   82       -0.851312   1.000000
   83       -0.810049   1.000000
   84       -0.745897   1.000000
   85       -0.639410   1.000000
   86       -0.454662   1.000000
   87       -0.428468   1.000000
   88       -0.404832   1.000000
   89       -0.218797   1.000000
   90       -0.150111   1.000000
   91        0.000317   1.000000
   92        0.010617   1.000000
   93        0.129490   1.000000
   94        0.157191   1.000000
   95        0.171855   1.000000
   96        0.258659   1.000000
   97        0.374471   1.000000
   98        0.485300   1.000000
   99        0.541346   1.000000
  100        0.581801   1.000000
  101        0.597690   1.000000
  102        0.692208   1.000000
  103        0.766743   1.000000
  104        0.819703   1.000000
  105        0.833972   1.000000
  106        0.937896   1.000000
  107        0.964466   1.000000
  108        1.000692   1.000000
  109        1.064110   1.000000
  110        1.189501   1.000000
  111        1.237643   1.000000
  112        1.327042   1.000000
  113        1.458317   1.000000
  114        1.507558   1.000000
  115        1.555204   1.000000
  116        1.657089   1.000000
  117        1.697986   1.000000
  118        1.753944   1.000000
  119        1.763997   1.000000
  120        1.924055   1.000000
  121        1.955403   1.000000
  122        2.004027   1.000000
  123        2.031295   1.000000
  124        2.070009   1.000000
  125        2.157914   1.000000
  126        2.247717   1.000000
  127        2.281794   1.000000
  128        2.343237   1.000000
  129        2.423461   1.000000
  130        2.451206   1.000000
  131        2.489787   1.000000
  132        2.542774   1.000000
  133        2.592919   1.000000
  134        2.671363   1.000000
  135        2.696491   1.000000
  136        2.712507   1.000000
  137        2.757504   1.000000
  138        2.812985   1.000000
  139        2.828837   1.000000
  140        2.900672   1.000000
  141        2.926658   1.000000
  142        3.027341   1.000000
  143        3.088724   1.000000
  144        3.115434   1.000000
  145        3.161843   1.000000
  146        3.205639   1.000000
  147        3.243200   1.000000
  148        3.292562   1.000000
  149        3.327872   1.000000
  150        3.340335   1.000000
  151        3.369963   1.000000
  152        3.404350   1.000000
  153        3.457793   1.000000
  154        3.480010   1.000000
  155        3.644440   1.000000
  156        3.747714   1.000000
  157        3.770059   1.000000
  158        3.786726   1.000000
  159        3.801812   1.000000
  160        3.833847   1.000000
  161        3.996481   1.000000
  162        4.006403   1.000000
  163        4.029038   1.000000
  164        4.049529   1.000000
  165        4.080641   1.000000
  166        4.111239   1.000000
  167        4.147606   1.000000
  168        4.169031   1.000000
  169        4.223133   1.000000
  170        4.267691   1.000000
  171        4.319584   1.000000
  172        4.373156   1.000000
  173        4.464729   1.000000
  174        4.525658   1.000000
  175        4.569451   1.000000
  176        4.632073   1.000000
  177        4.646094   1.000000
  178        4.657640   1.000000
  179        4.735604   1.000000
  180        4.798789   1.000000
  181        4.838293   1.000000
  182        4.904912   1.000000
  183        4.946877   1.000000
  184        4.964430   1.000000
  185        5.107097   1.000000
  186        5.143120   1.000000
  187        5.188947   1.000000
  188        5.246476   1.000000
  189        5.268866   1.000000
  190        5.344554   0.964096
  191        5.433623   0.004920
  192        5.445614  -0.023990
  193        6.814175   0.000000
  194        6.954309   0.000000
  195        7.064557   0.000000
  196        7.585950   0.000000
  197        7.712021   0.000000
  198        7.826375   0.000000
  199        8.583366   0.000000
  200        8.659623   0.000000
  201        8.787139   0.000000
  202        8.952197   0.000000
  203        9.134257   0.000000
  204        9.297075   0.000000
  205        9.463994   0.000000
  206        9.709834   0.000000
  207        9.809898   0.000000
  208        9.856166   0.000000
  209       10.040094   0.000000
  210       10.138695   0.000000
  211       10.301009   0.000000
  212       10.346894   0.000000
  213       10.395620   0.000000
  214       10.407657   0.000000
  215       10.456612   0.000000
  216       10.519518   0.000000
  217       10.607066   0.000000
  218       10.771118   0.000000
  219       10.915120   0.000000
  220       10.949213   0.000000
  221       10.958100   0.000000
  222       11.001462   0.000000
  223       11.026791   0.000000
  224       11.085157   0.000000
  225       11.176220   0.000000
  226       11.255138   0.000000
  227       11.379375   0.000000
  228       11.404467   0.000000
  229       11.447936   0.000000
  230       11.474949   0.000000
  231       11.602857   0.000000
  232       11.749350   0.000000
  233       11.802253   0.000000
  234       11.885654   0.000000
  235       11.933718   0.000000
  236       11.950623   0.000000
  237       12.023765   0.000000
  238       12.082070   0.000000
  239       12.107385   0.000000
  240       12.117633   0.000000
  241       12.187322   0.000000
  242       12.270746   0.000000
  243       12.411043   0.000000
  244       12.561028   0.000000
  245       12.573136   0.000000
  246       12.740381   0.000000
  247       12.801181   0.000000
  248       13.078891   0.000000
  249       13.089378   0.000000
  250       13.223472   0.000000
  251       13.360122   0.000000
  252       13.414235   0.000000
  253       13.456744   0.000000
  254       13.466590   0.000000
  255       13.591354   0.000000
  256       13.719830   0.000000
 
  0.0000000E+00  0.5000000E+00  0.5000000E+00  0.4629630E-02
    1      -11.470226   1.000000
    2      -11.331376   1.000000
    3      -11.199952   1.000000
    4       -9.938990   1.000000
    5       -9.809184   1.000000
    6       -9.802859   1.000000
    7       -9.663907   1.000000
    8       -9.455748   1.000000
    9       -9.211511   1.000000
   10       -9.196225   1.000000
   11       -9.177551   1.000000
   12       -8.626107   1.000000
   13       -8.611353   1.000000
   14       -8.593668   1.000000
   15       -8.389541   1.000000
   16       -8.157925   1.000000
   17       -8.145778   1.000000
   18       -7.912549   1.000000
   19       -7.777508   1.000000
   20       -7.666939   1.000000
   21       -7.459521   1.000000
   22       -7.350411   1.000000
   23       -7.300219   1.000000
   24       -7.223554   1.000000
   25       -6.239663   1.000000
   26       -6.188887   1.000000
   27       -5.995528   1.000000
   28       -5.986391   1.000000
   29       -5.759329   1.000000
   30       -5.746613   1.000000
   31       -5.654845   1.000000
   32       -5.653022   1.000000
   33       -5.249229   1.000000
   34       -5.184800   1.000000
   35       -5.051378   1.000000
   36       -5.049021   1.000000
   37       -4.903113   1.000000
   38       -4.883393   1.000000
   39       -4.819278   1.000000
   40       -4.778693   1.000000
   41       -4.505227   1.000000
   42       -4.330896   1.000000
   43       -4.220193   1.000000
   44       -4.194627   1.000000
   45       -4.187140   1.000000
   46       -3.968442   1.000000
   47       -3.846445   1.000000
   48       -3.831385   1.000000
   49       -3.080932   1.000000
   50       -3.060999   1.000000
   51       -2.944339   1.000000
   52       -2.934070   1.000000
   53       -2.789449   1.000000
   54       -2.770407   1.000000
   55       -2.578252   1.000000
   56       -2.565092   1.000000
   57       -2.256804   1.000000
   58       -2.249872   1.000000
   59       -2.206744   1.000000
   60       -2.116005   1.000000
   61       -2.082133   1.000000
   62       -2.074329   1.000000
   63       -1.971170   1.000000
   64       -1.919219   1.000000
   65       -1.868745   1.000000
   66       -1.842388   1.000000
   67       -1.684325   1.000000
   68       -1.528121   1.000000
   69       -1.427736   1.000000
   70       -1.414301   1.000000
   71       -1.364777   1.000000
   72       -1.236753   1.000000
   73       -1.216101   1.000000
   74       -1.172200   1.000000
   75       -1.126830   1.000000
   76       -1.125288   1.000000
   77       -1.092419   1.000000
   78       -1.055983   1.000000
   79       -1.043380   1.000000
   80       -1.041940   1.000000
   81       -0.986360   1.000000
   82       -0.916765   1.000000
   83       -0.769708   1.000000
   84       -0.768196   1.000000
   85       -0.707309   1.000000
   86       -0.688742   1.000000
   87       -0.494642   1.000000
   88       -0.220824   1.000000
   89       -0.101852   1.000000
   90       -0.087817   1.000000
   91       -0.019997   1.000000
   92        0.058226   1.000000
   93        0.097179   1.000000
   94        0.132591   1.000000
   95        0.132787   1.000000
   96        0.365929   1.000000
   97        0.408029   1.000000
   98        0.427340   1.000000
   99        0.460764   1.000000
  100        0.536092   1.000000
  101        0.713666   1.000000
  102        0.740848   1.000000
  103        0.801831   1.000000
  104        0.804849   1.000000
  105        0.878215   1.000000
  106        0.985622   1.000000
  107        1.111977   1.000000
  108        1.191706   1.000000
  109        1.239024   1.000000
  110        1.314979   1.000000
  111        1.343891   1.000000
  112        1.351535   1.000000
  113        1.439983   1.000000
  114        1.448663   1.000000
  115        1.553151   1.000000
  116        1.714522   1.000000
  117        1.742750   1.000000
  118        1.763945   1.000000
  119        1.813442   1.000000
  120        1.892258   1.000000
  121        1.922898   1.000000
  122        1.988156   1.000000
  123        2.028966   1.000000
  124        2.057249   1.000000
  125        2.263345   1.000000
  126        2.285990   1.000000
  127        2.286463   1.000000
  128        2.306085   1.000000
  129        2.353656   1.000000
  130        2.358749   1.000000
  131        2.448148   1.000000
  132        2.458899   1.000000
  133        2.497737   1.000000
  134        2.537310   1.000000
  135        2.561404   1.000000
  136        2.566572   1.000000
  137        2.770343   1.000000
  138        2.812252   1.000000
  139        2.874353   1.000000
  140        2.897588   1.000000
  141        2.904663   1.000000
  142        2.909108   1.000000
  143        3.141788   1.000000
  144        3.171762   1.000000
  145        3.205906   1.000000
  146        3.219644   1.000000
  147        3.248934   1.000000
  148        3.251395   1.000000
  149        3.278301   1.000000
  150        3.280451   1.000000
  151        3.301498   1.000000
  152        3.373680   1.000000
  153        3.403913   1.000000
  154        3.428765   1.000000
  155        3.555194   1.000000
  156        3.644424   1.000000
  157        3.748111   1.000000
  158        3.852989   1.000000
  159        3.907379   1.000000
  160        3.932726   1.000000
  161        4.014715   1.000000
  162        4.029942   1.000000
  163        4.037902   1.000000
  164        4.045108   1.000000
  165        4.065837   1.000000
  166        4.090209   1.000000
  167        4.100479   1.000000
  168        4.160714   1.000000
  169        4.184203   1.000000
  170        4.239484   1.000000
  171        4.269220   1.000000
  172        4.290596   1.000000
  173        4.368455   1.000000
  174        4.432457   1.000000
  175        4.552393   1.000000
  176        4.623498   1.000000
  177        4.684685   1.000000
  178        4.783151   1.000000
  179        4.786592   1.000000
  180        4.808575   1.000000
  181        4.826438   1.000000
  182        4.939623   1.000000
  183        5.002547   1.000000
  184        5.018567   1.000000
  185        5.168407   1.000000
  186        5.187376   1.000000
  187        5.274605   1.000000
  188        5.275409   1.000000
  189        5.356692   1.000000
  190        5.362570   0.925175
  191        5.413591   0.064970
  192        5.421200   0.000557
  193        6.845767   0.000000
  194        6.976251   0.000000
  195        7.068358   0.000000
  196        7.565911   0.000000
  197        7.678794   0.000000
  198        7.801092   0.000000
  199        8.560390   0.000000
  200        8.704556   0.000000
  201        8.714908   0.000000
  202        9.033198   0.000000
  203        9.220116   0.000000
  204        9.459381   0.000000
  205        9.474374   0.000000
  206        9.508537   0.000000
  207        9.856923   0.000000
  208        9.878772   0.000000
  209        9.908538   0.000000
  210       10.137985   0.000000
  211       10.187420   0.000000
  212       10.300509   0.000000
  213       10.439080   0.000000
  214       10.544514   0.000000
  215       10.615602   0.000000
  216       10.668068   0.000000
  217       10.744941   0.000000
  218       10.760925   0.000000
  219       10.785517   0.000000
  220       10.805727   0.000000
  221       10.807141   0.000000
  222       10.967070   0.000000
  223       10.973385   0.000000
  224       11.006575   0.000000
  225       11.021214   0.000000
  226       11.073079   0.000000
  227       11.100749   0.000000
  228       11.125501   0.000000
  229       11.403158   0.000000
  230       11.452487   0.000000
  231       11.762166   0.000000
  232       11.832129   0.000000
  233       11.893823   0.000000
  234       11.971907   0.000000
  235       12.085487   0.000000
  236       12.119186   0.000000
  237       12.228490   0.000000
  238       12.239128   0.000000
  239       12.257640   0.000000
  240       12.338221   0.000000
  241       12.362895   0.000000
  242       12.419591   0.000000
  243       12.499781   0.000000
  244       12.512292   0.000000
  245       12.560799   0.000000
  246       12.596269   0.000000
  247       12.699424   0.000000
  248       12.710481   0.000000
  249       13.263731   0.000000
  250       13.310242   0.000000
  251       13.346883   0.000000
  252       13.357806   0.000000
  253       13.513386   0.000000
  254       13.517026   0.000000
  255       13.813097   0.000000
  256       13.861724   0.000000
 
  0.1666667E+00  0.5000000E+00  0.5000000E+00  0.9259259E-02
    1      -11.460576   1.000000
    2      -11.331590   1.000000
    3      -11.216152   1.000000
    4       -9.978856   1.000000
    5       -9.831835   1.000000
    6       -9.715679   1.000000
    7       -9.605925   1.000000
    8       -9.447928   1.000000
    9       -9.223796   1.000000
   10       -9.190503   1.000000
   11       -9.181282   1.000000
   12       -8.724998   1.000000
   13       -8.686976   1.000000
   14       -8.636627   1.000000
   15       -8.413304   1.000000
   16       -8.219137   1.000000
   17       -7.976240   1.000000
   18       -7.910615   1.000000
   19       -7.804029   1.000000
   20       -7.570235   1.000000
   21       -7.507697   1.000000
   22       -7.392793   1.000000
   23       -7.234501   1.000000
   24       -7.116423   1.000000
   25       -6.187420   1.000000
   26       -6.124074   1.000000
   27       -6.078369   1.000000
   28       -5.879963   1.000000
   29       -5.851295   1.000000
   30       -5.811928   1.000000
   31       -5.670995   1.000000
   32       -5.554909   1.000000
   33       -5.313513   1.000000
   34       -5.233941   1.000000
   35       -5.132507   1.000000
   36       -5.025522   1.000000
   37       -4.970462   1.000000
   38       -4.898074   1.000000
   39       -4.868947   1.000000
   40       -4.804078   1.000000
   41       -4.418993   1.000000
   42       -4.329828   1.000000
   43       -4.260149   1.000000
   44       -4.215487   1.000000
   45       -4.142212   1.000000
   46       -4.064977   1.000000
   47       -3.847802   1.000000
   48       -3.785065   1.000000
   49       -3.137275   1.000000
   50       -3.064565   1.000000
   51       -2.899169   1.000000
   52       -2.866846   1.000000
   53       -2.742685   1.000000
   54       -2.701152   1.000000
   55       -2.632827   1.000000
   56       -2.579213   1.000000
   57       -2.521859   1.000000
   58       -2.438543   1.000000
   59       -2.223632   1.000000
   60       -2.086991   1.000000
   61       -2.014441   1.000000
   62       -1.986369   1.000000
   63       -1.918373   1.000000
   64       -1.887913   1.000000
   65       -1.832816   1.000000
   66       -1.716847   1.000000
   67       -1.703172   1.000000
   68       -1.534431   1.000000
   69       -1.457045   1.000000
   70       -1.432695   1.000000
   71       -1.369413   1.000000
   72       -1.228721   1.000000
   73       -1.166318   1.000000
   74       -1.141007   1.000000
   75       -1.101140   1.000000
   76       -1.041206   1.000000
   77       -0.973352   1.000000
   78       -0.956769   1.000000
   79       -0.926220   1.000000
   80       -0.868765   1.000000
   81       -0.851729   1.000000
   82       -0.809464   1.000000
   83       -0.770882   1.000000
   84       -0.754813   1.000000
   85       -0.678623   1.000000
   86       -0.538904   1.000000
   87       -0.385677   1.000000
   88       -0.297015   1.000000
   89       -0.209120   1.000000
   90       -0.142920   1.000000
   91       -0.059825   1.000000
   92       -0.009128   1.000000
   93        0.087197   1.000000
   94        0.119284   1.000000
   95        0.263883   1.000000
   96        0.300099   1.000000
   97        0.336364   1.000000
   98        0.432115   1.000000
   99        0.446846   1.000000
  100        0.515455   1.000000
  101        0.623293   1.000000
  102        0.697942   1.000000
  103        0.740157   1.000000
  104        0.795019   1.000000
  105        0.829169   1.000000
  106        0.855287   1.000000
  107        1.026742   1.000000
  108        1.035774   1.000000
  109        1.082509   1.000000
  110        1.136971   1.000000
  111        1.192358   1.000000
  112        1.277668   1.000000
  113        1.288458   1.000000
  114        1.339636   1.000000
  115        1.454556   1.000000
  116        1.504843   1.000000
  117        1.635259   1.000000
  118        1.657723   1.000000
  119        1.734753   1.000000
  120        1.843286   1.000000
  121        1.925543   1.000000
  122        2.021090   1.000000
  123        2.051797   1.000000
  124        2.131525   1.000000
  125        2.157923   1.000000
  126        2.253512   1.000000
  127        2.299927   1.000000
  128        2.367477   1.000000
  129        2.376096   1.000000
  130        2.457031   1.000000
  131        2.528010   1.000000
  132        2.580828   1.000000
  133        2.617577   1.000000
  134        2.669663   1.000000
  135        2.691418   1.000000
  136        2.735477   1.000000
  137        2.766097   1.000000
  138        2.814959   1.000000
  139        2.854290   1.000000
  140        2.873997   1.000000
  141        2.972547   1.000000
  142        3.010195   1.000000
  143        3.119813   1.000000
  144        3.155315   1.000000
  145        3.176690   1.000000
  146        3.185681   1.000000
  147        3.219075   1.000000
  148        3.263317   1.000000
  149        3.307206   1.000000
  150        3.353078   1.000000
  151        3.422782   1.000000
  152        3.492342   1.000000
  153        3.561813   1.000000
  154        3.587245   1.000000
  155        3.622027   1.000000
  156        3.725410   1.000000
  157        3.794786   1.000000
  158        3.821245   1.000000
  159        3.854827   1.000000
  160        3.884592   1.000000
  161        3.955080   1.000000
  162        3.984281   1.000000
  163        4.007718   1.000000
  164        4.049811   1.000000
  165        4.078671   1.000000
  166        4.133298   1.000000
  167        4.179249   1.000000
  168        4.200457   1.000000
  169        4.257049   1.000000
  170        4.278578   1.000000
  171        4.303377   1.000000
  172        4.364792   1.000000
  173        4.383332   1.000000
  174        4.476080   1.000000
  175        4.565128   1.000000
  176        4.621734   1.000000
  177        4.693101   1.000000
  178        4.705164   1.000000
  179        4.741359   1.000000
  180        4.830891   1.000000
  181        4.848745   1.000000
  182        4.981130   1.000000
  183        5.004438   1.000000
  184        5.045161   1.000000
  185        5.089892   1.000000
  186        5.152370   1.000000
  187        5.167301   1.000000
  188        5.233530   1.000000
  189        5.261119   1.000000
  190        5.291361   1.064822
  191        5.362433   0.704856
  192        5.379839   0.320245
  193        6.842929   0.000000
  194        6.969055   0.000000
  195        7.054578   0.000000
  196        7.555393   0.000000
  197        7.720556   0.000000
  198        7.839060   0.000000
  199        8.621518   0.000000
  200        8.690194   0.000000
  201        8.752537   0.000000
  202        9.003428   0.000000
  203        9.175301   0.000000
  204        9.441423   0.000000
  205        9.498724   0.000000
  206        9.574717   0.000000
  207        9.791321   0.000000
  208        9.867450   0.000000
  209        9.940602   0.000000
  210       10.106332   0.000000
  211       10.225090   0.000000
  212       10.334747   0.000000
  213       10.434793   0.000000
  214       10.486124   0.000000
  215       10.528138   0.000000
  216       10.611472   0.000000
  217       10.625867   0.000000
  218       10.699691   0.000000
  219       10.742734   0.000000
  220       10.881354   0.000000
  221       10.952308   0.000000
  222       10.992866   0.000000
  223       11.031397   0.000000
  224       11.048914   0.000000
  225       11.137249   0.000000
  226       11.181743   0.000000
  227       11.258160   0.000000
  228       11.295164   0.000000
  229       11.389934   0.000000
  230       11.518028   0.000000
  231       11.702454   0.000000
  232       11.745953   0.000000
  233       11.803087   0.000000
  234       11.822613   0.000000
  235       11.873716   0.000000
  236       11.983439   0.000000
  237       12.152027   0.000000
  238       12.205947   0.000000
  239       12.253933   0.000000
  240       12.263611   0.000000
  241       12.320820   0.000000
  242       12.334087   0.000000
  243       12.373091   0.000000
  244       12.388588   0.000000
  245       12.449280   0.000000
  246       12.556662   0.000000
  247       12.775735   0.000000
  248       12.798078   0.000000
  249       13.177438   0.000000
  250       13.281385   0.000000
  251       13.358813   0.000000
  252       13.474410   0.000000
  253       13.603304   0.000000
  254       13.693403   0.000000
  255       13.742547   0.000000
  256       13.773228   0.000000
 
  0.3333333E+00  0.5000000E+00  0.5000000E+00  0.9259259E-02
    1      -11.432801   1.000000
    2      -11.343317   1.000000
    3      -11.244819   1.000000
    4      -10.022483   1.000000
    5       -9.850055   1.000000
    6       -9.570754   1.000000
    7       -9.494186   1.000000
    8       -9.409639   1.000000
    9       -9.237156   1.000000
   10       -9.208234   1.000000
   11       -9.174275   1.000000
   12       -8.922597   1.000000
   13       -8.862237   1.000000
   14       -8.711422   1.000000
   15       -8.406158   1.000000
   16       -8.226467   1.000000
   17       -8.014064   1.000000
   18       -7.795393   1.000000
   19       -7.678942   1.000000
   20       -7.597719   1.000000
   21       -7.473436   1.000000
   22       -7.390774   1.000000
   23       -7.116597   1.000000
   24       -6.998530   1.000000
   25       -6.100795   1.000000
   26       -6.073814   1.000000
   27       -6.008515   1.000000
   28       -5.945031   1.000000
   29       -5.933264   1.000000
   30       -5.706693   1.000000
   31       -5.615698   1.000000
   32       -5.583230   1.000000
   33       -5.432165   1.000000
   34       -5.352281   1.000000
   35       -5.226845   1.000000
   36       -5.155582   1.000000
   37       -5.103569   1.000000
   38       -5.008832   1.000000
   39       -4.871572   1.000000
   40       -4.713880   1.000000
   41       -4.409462   1.000000
   42       -4.379257   1.000000
   43       -4.301484   1.000000
   44       -4.183634   1.000000
   45       -4.154973   1.000000
   46       -4.087033   1.000000
   47       -3.807097   1.000000
   48       -3.735435   1.000000
   49       -3.150276   1.000000
   50       -3.016946   1.000000
   51       -2.960929   1.000000
   52       -2.902740   1.000000
   53       -2.847753   1.000000
   54       -2.804254   1.000000
   55       -2.740206   1.000000
   56       -2.565576   1.000000
   57       -2.494300   1.000000
   58       -2.370769   1.000000
   59       -2.296734   1.000000
   60       -2.195042   1.000000
   61       -2.039626   1.000000
   62       -2.021022   1.000000
   63       -1.916981   1.000000
   64       -1.787392   1.000000
   65       -1.618105   1.000000
   66       -1.524464   1.000000
   67       -1.500482   1.000000
   68       -1.459125   1.000000
   69       -1.417759   1.000000
   70       -1.358583   1.000000
   71       -1.294973   1.000000
   72       -1.258067   1.000000
   73       -1.196085   1.000000
   74       -1.071446   1.000000
   75       -0.954939   1.000000
   76       -0.939561   1.000000
   77       -0.881810   1.000000
   78       -0.802902   1.000000
   79       -0.796609   1.000000
   80       -0.723674   1.000000
   81       -0.700101   1.000000
   82       -0.646732   1.000000
   83       -0.573601   1.000000
   84       -0.516506   1.000000
   85       -0.469024   1.000000
   86       -0.442034   1.000000
   87       -0.382966   1.000000
   88       -0.303491   1.000000
   89       -0.207840   1.000000
   90       -0.092510   1.000000
   91       -0.055957   1.000000
   92       -0.024250   1.000000
   93        0.053661   1.000000
   94        0.081294   1.000000
   95        0.135709   1.000000
   96        0.175023   1.000000
   97        0.242851   1.000000
   98        0.270904   1.000000
   99        0.367785   1.000000
  100        0.429872   1.000000
  101        0.449042   1.000000
  102        0.530282   1.000000
  103        0.580125   1.000000
  104        0.602169   1.000000
  105        0.657365   1.000000
  106        0.714355   1.000000
  107        0.768604   1.000000
  108        0.800510   1.000000
  109        0.854495   1.000000
  110        0.897907   1.000000
  111        0.962936   1.000000
  112        1.017513   1.000000
  113        1.171364   1.000000
  114        1.241454   1.000000
  115        1.376897   1.000000
  116        1.457799   1.000000
  117        1.517064   1.000000
  118        1.688239   1.000000
  119        1.714213   1.000000
  120        1.774115   1.000000
  121        1.818743   1.000000
  122        1.837265   1.000000
  123        1.939145   1.000000
  124        2.067711   1.000000
  125        2.161698   1.000000
  126        2.177070   1.000000
  127        2.239529   1.000000
  128        2.255446   1.000000
  129        2.320176   1.000000
  130        2.483290   1.000000
  131        2.594257   1.000000
  132        2.634738   1.000000
  133        2.675825   1.000000
  134        2.767002   1.000000
  135        2.897129   1.000000
  136        2.915585   1.000000
  137        2.944453   1.000000
  138        2.975929   1.000000
  139        3.014390   1.000000
  140        3.075013   1.000000
  141        3.099715   1.000000
  142        3.140107   1.000000
  143        3.145514   1.000000
  144        3.191430   1.000000
  145        3.250392   1.000000
  146        3.334224   1.000000
  147        3.363811   1.000000
  148        3.419107   1.000000
  149        3.451907   1.000000
  150        3.482518   1.000000
  151        3.528530   1.000000
  152        3.563012   1.000000
  153        3.580517   1.000000
  154        3.587927   1.000000
  155        3.614500   1.000000
  156        3.751824   1.000000
  157        3.779581   1.000000
  158        3.815218   1.000000
  159        3.876456   1.000000
  160        3.914262   1.000000
  161        3.932872   1.000000
  162        3.968773   1.000000
  163        4.052739   1.000000
  164        4.088878   1.000000
  165        4.178825   1.000000
  166        4.226519   1.000000
  167        4.250526   1.000000
  168        4.265389   1.000000
  169        4.291585   1.000000
  170        4.363651   1.000000
  171        4.399620   1.000000
  172        4.441763   1.000000
  173        4.492368   1.000000
  174        4.514541   1.000000
  175        4.615397   1.000000
  176        4.645674   1.000000
  177        4.677669   1.000000
  178        4.740792   1.000000
  179        4.776393   1.000000
  180        4.813096   1.000000
  181        4.847734   1.000000
  182        4.896042   1.000000
  183        4.931043   1.000000
  184        4.973505   1.000000
  185        4.999429   1.000000
  186        5.059204   1.000000
  187        5.072622   1.000000
  188        5.082023   1.000000
  189        5.145447   1.000000
  190        5.163175   1.000000
  191        5.233512   1.051123
  192        5.257458   1.098028
  193        6.843675   0.000000
  194        6.938665   0.000000
  195        7.015756   0.000000
  196        7.602782   0.000000
  197        7.762375   0.000000
  198        7.903745   0.000000
  199        8.661750   0.000000
  200        8.725699   0.000000
  201        8.865951   0.000000
  202        8.903022   0.000000
  203        9.116449   0.000000
  204        9.414653   0.000000
  205        9.509201   0.000000
  206        9.734756   0.000000
  207        9.795938   0.000000
  208        9.917355   0.000000
  209       10.022188   0.000000
  210       10.045316   0.000000
  211       10.067702   0.000000
  212       10.104385   0.000000
  213       10.410780   0.000000
  214       10.434765   0.000000
  215       10.483774   0.000000
  216       10.575322   0.000000
  217       10.689864   0.000000
  218       10.774294   0.000000
  219       10.822797   0.000000
  220       10.903166   0.000000
  221       10.987926   0.000000
  222       11.122775   0.000000
  223       11.161547   0.000000
  224       11.232302   0.000000
  225       11.286493   0.000000
  226       11.297847   0.000000
  227       11.321259   0.000000
  228       11.401364   0.000000
  229       11.444070   0.000000
  230       11.483071   0.000000
  231       11.569835   0.000000
  232       11.596958   0.000000
  233       11.660682   0.000000
  234       11.708205   0.000000
  235       11.746369   0.000000
  236       11.895570   0.000000
  237       11.977386   0.000000
  238       11.991249   0.000000
  239       12.031818   0.000000
  240       12.067180   0.000000
  241       12.167078   0.000000
  242       12.192276   0.000000
  243       12.273654   0.000000
  244       12.318517   0.000000
  245       12.492309   0.000000
  246       12.530604   0.000000
  247       12.809964   0.000000
  248       12.826805   0.000000
  249       13.194124   0.000000
  250       13.321883   0.000000
  251       13.360750   0.000000
  252       13.505668   0.000000
  253       13.515692   0.000000
  254       13.563533   0.000000
  255       13.651669   0.000000
  256       13.727003   0.000000
 
  0.5000000E+00  0.5000000E+00  0.5000000E+00  0.4629630E-02
    1      -11.403829   1.000000
    2      -11.367949   1.000000
    3      -11.255055   1.000000
    4      -10.038235   1.000000
    5       -9.855774   1.000000
    6       -9.508867   1.000000
    7       -9.402891   1.000000
    8       -9.362744   1.000000
    9       -9.236589   1.000000
   10       -9.229136   1.000000
   11       -9.170506   1.000000
   12       -9.055672   1.000000
   13       -8.959251   1.000000
   14       -8.745017   1.000000
   15       -8.335060   1.000000
   16       -8.325717   1.000000
   17       -7.993679   1.000000
   18       -7.751960   1.000000
   19       -7.639534   1.000000
   20       -7.609989   1.000000
   21       -7.411350   1.000000
   22       -7.403205   1.000000
   23       -7.066259   1.000000
   24       -6.953303   1.000000
   25       -6.052284   1.000000
   26       -6.052045   1.000000
   27       -6.039631   1.000000
   28       -6.020372   1.000000
   29       -5.721763   1.000000
   30       -5.702900   1.000000
   31       -5.615757   1.000000
   32       -5.612684   1.000000
   33       -5.418618   1.000000
   34       -5.385751   1.000000
   35       -5.363014   1.000000
   36       -5.320068   1.000000
   37       -5.138868   1.000000
   38       -5.096138   1.000000
   39       -4.756088   1.000000
   40       -4.753847   1.000000
   41       -4.379738   1.000000
   42       -4.351199   1.000000
   43       -4.319132   1.000000
   44       -4.290845   1.000000
   45       -4.141136   1.000000
   46       -4.066784   1.000000
   47       -3.769376   1.000000
   48       -3.706486   1.000000
   49       -3.195993   1.000000
   50       -3.111675   1.000000
   51       -2.897364   1.000000
   52       -2.897092   1.000000
   53       -2.853919   1.000000
   54       -2.772235   1.000000
   55       -2.710639   1.000000
   56       -2.707922   1.000000
   57       -2.585932   1.000000
   58       -2.512962   1.000000
   59       -2.212842   1.000000
   60       -2.147855   1.000000
   61       -1.968243   1.000000
   62       -1.897637   1.000000
   63       -1.838792   1.000000
   64       -1.826399   1.000000
   65       -1.786059   1.000000
   66       -1.632916   1.000000
   67       -1.360835   1.000000
   68       -1.349474   1.000000
   69       -1.269758   1.000000
   70       -1.266280   1.000000
   71       -1.106443   1.000000
   72       -1.049257   1.000000
   73       -0.973420   1.000000
   74       -0.961108   1.000000
   75       -0.935938   1.000000
   76       -0.934929   1.000000
   77       -0.923744   1.000000
   78       -0.905477   1.000000
   79       -0.850190   1.000000
   80       -0.830832   1.000000
   81       -0.690780   1.000000
   82       -0.632121   1.000000
   83       -0.471092   1.000000
   84       -0.432423   1.000000
   85       -0.430898   1.000000
   86       -0.386852   1.000000
   87       -0.299580   1.000000
   88       -0.232326   1.000000
   89       -0.175561   1.000000
   90       -0.101669   1.000000
   91       -0.017749   1.000000
   92        0.030572   1.000000
   93        0.058176   1.000000
   94        0.077724   1.000000
   95        0.124472   1.000000
   96        0.153256   1.000000
   97        0.225551   1.000000
   98        0.235336   1.000000
   99        0.256753   1.000000
  100        0.303266   1.000000
  101        0.387682   1.000000
  102        0.390875   1.000000
  103        0.435368   1.000000
  104        0.488439   1.000000
  105        0.592682   1.000000
  106        0.631782   1.000000
  107        0.646697   1.000000
  108        0.711133   1.000000
  109        0.781059   1.000000
  110        0.794626   1.000000
  111        0.905407   1.000000
  112        0.946491   1.000000
  113        1.158160   1.000000
  114        1.183786   1.000000
  115        1.280456   1.000000
  116        1.350332   1.000000
  117        1.472632   1.000000
  118        1.559117   1.000000
  119        1.563435   1.000000
  120        1.657898   1.000000
  121        1.823489   1.000000
  122        1.840668   1.000000
  123        1.979474   1.000000
  124        2.035115   1.000000
  125        2.185970   1.000000
  126        2.195294   1.000000
  127        2.325454   1.000000
  128        2.374457   1.000000
  129        2.417273   1.000000
  130        2.450876   1.000000
  131        2.563830   1.000000
  132        2.577078   1.000000
  133        2.644314   1.000000
  134        2.734869   1.000000
  135        2.962392   1.000000
  136        2.963784   1.000000
  137        2.994516   1.000000
  138        3.007952   1.000000
  139        3.104505   1.000000
  140        3.107592   1.000000
  141        3.117016   1.000000
  142        3.125236   1.000000
  143        3.237126   1.000000
  144        3.241288   1.000000
  145        3.304239   1.000000
  146        3.386053   1.000000
  147        3.387671   1.000000
  148        3.433689   1.000000
  149        3.445712   1.000000
  150        3.474216   1.000000
  151        3.569180   1.000000
  152        3.592368   1.000000
  153        3.643421   1.000000
  154        3.696449   1.000000
  155        3.714260   1.000000
  156        3.743480   1.000000
  157        3.826209   1.000000
  158        3.872999   1.000000
  159        3.884259   1.000000
  160        3.908700   1.000000
  161        3.988388   1.000000
  162        4.126136   1.000000
  163        4.155687   1.000000
  164        4.162274   1.000000
  165        4.189594   1.000000
  166        4.204728   1.000000
  167        4.252214   1.000000
  168        4.269466   1.000000
  169        4.308796   1.000000
  170        4.328061   1.000000
  171        4.413323   1.000000
  172        4.471308   1.000000
  173        4.482007   1.000000
  174        4.528627   1.000000
  175        4.643530   1.000000
  176        4.692295   1.000000
  177        4.737704   1.000000
  178        4.773013   1.000000
  179        4.792585   1.000000
  180        4.796309   1.000000
  181        4.851726   1.000000
  182        4.852174   1.000000
  183        4.918228   1.000000
  184        4.922131   1.000000
  185        4.943509   1.000000
  186        4.968442   1.000000
  187        4.985757   1.000000
  188        5.023422   1.000000
  189        5.023937   1.000000
  190        5.057822   1.000000
  191        5.217509   1.000000
  192        5.231149   1.010282
  193        6.873988   0.000000
  194        6.883229   0.000000
  195        6.997519   0.000000
  196        7.704538   0.000000
  197        7.714469   0.000000
  198        7.935092   0.000000
  199        8.705392   0.000000
  200        8.741514   0.000000
  201        8.763302   0.000000
  202        9.019609   0.000000
  203        9.063899   0.000000
  204        9.406923   0.000000
  205        9.524780   0.000000
  206        9.768137   0.000000
  207        9.858310   0.000000
  208        9.901333   0.000000
  209        9.986610   0.000000
  210       10.005839   0.000000
  211       10.126774   0.000000
  212       10.169104   0.000000
  213       10.209107   0.000000
  214       10.234631   0.000000
  215       10.673030   0.000000
  216       10.702300   0.000000
  217       10.718594   0.000000
  218       10.798163   0.000000
  219       10.851841   0.000000
  220       10.865809   0.000000
  221       11.011569   0.000000
  222       11.098502   0.000000
  223       11.124477   0.000000
  224       11.179326   0.000000
  225       11.186993   0.000000
  226       11.317130   0.000000
  227       11.328827   0.000000
  228       11.415980   0.000000
  229       11.477467   0.000000
  230       11.623432   0.000000
  231       11.656520   0.000000
  232       11.702441   0.000000
  233       11.730767   0.000000
  234       11.754503   0.000000
  235       11.761539   0.000000
  236       11.789698   0.000000
  237       11.806823   0.000000
  238       11.819450   0.000000
  239       11.906627   0.000000
  240       12.004612   0.000000
  241       12.073295   0.000000
  242       12.087984   0.000000
  243       12.170457   0.000000
  244       12.179084   0.000000
  245       12.647061   0.000000
  246       12.679391   0.000000
  247       12.728868   0.000000
  248       12.816739   0.000000
  249       13.269804   0.000000
  250       13.295220   0.000000
  251       13.400167   0.000000
  252       13.443983   0.000000
  253       13.452919   0.000000
  254       13.454342   0.000000
  255       13.595319   0.000000
  256       13.610549   0.000000
