 B  C 
 1.0000000000000000
    10.1236948266838560    0.0000000000000000    0.0000000000000000
     5.2472230338509398    9.5998855187494971    0.0000000000000000
     4.1485552377343851    3.3722256598258360    8.4394775565801279
 B   C  
 101  19
Cartesian
  5.3505209646076146  5.2253353753875365  3.4002434873406968
  7.4670371094158829  6.9025623504806877  7.6105671786248239
  7.9733182848532467 10.0222634970295381  3.4015696734308998
 10.0896346558531231 11.7028968701996643  7.6132838151066373
 10.4038920560750512  5.2223325525278019  3.4006251666629592
 12.5260787352784497  6.9028804240980595  7.6099231914455219
 13.0765669804935776 10.0133950649731354  3.3949288628447709
 15.1432773586629672 11.7011860781328494  7.6098302757440779
  6.8370620769822406  4.3913789353362098  1.3103586019226359
  8.9087807357685822  6.0785918548134683  5.5592456380481723
  9.4584206303396883  9.1889081479296593  1.3070420124281719
 11.5353180542321958 10.8772322614685848  5.5588365246840832
 11.8961170760979886  4.3900273581061207  1.3070420124281719
 13.9711693819296681  6.0819837949527598  5.5588365246840850
 14.5331322767083044  9.2017767179294410  1.3517081376520073
 16.5937797024995284 10.8781986317570727  5.5587194168923242
  6.5605580405847244  2.8432407183661765  3.4002434873406968
  8.6505472586646555  4.5726889449244856  7.6105671786248221
  9.1774329805362083  7.6367557705414093  3.4006251666629588
 11.2729958004224624  9.3697157163263647  7.6099231914455219
 11.6195636946150547  2.8442175666860332  3.4015696734308993
 13.7119773109672991  4.5719062121817879  7.6132838151066347
 14.2582682225722586  7.6870826974962414  3.3949288628447709
 16.3302633411933407  9.3644701021685339  7.6098302757440761
  4.4092154326715773  1.2607202139001312  0.8194952909493673
  6.4412545255976950  2.9557188986328158  5.0486491562453679
  7.0336411462768851  6.0636776110076269  0.8181691048591647
  9.0658800130113910  7.7552698976633385  5.0459325197635545
  9.4795393197433935  1.2637230367598644  0.8191136116271053
 11.5059078782743818  2.9554008250154440  5.0492931434246699
 12.0540874291758069  6.0725460430640261  0.8248099154452921
 14.1359322887408023  7.7569806897301499  5.0493860591261130
  2.9226744099240300  2.0946766033680797  2.9093800497752862
  4.9995110511003915  3.7796893943000338  7.0999706968220195
  5.5485388904175235  6.8970329095241283  2.9126966392697491
  7.6201967664877186  8.5809345063944154  7.1003798101861086
  7.9873142374921384  2.0960281805981693  2.9126966392697495
 10.0608172316231617  3.7762974541607424  7.1003798101861086
 10.5975220707327633  6.8841643395243475  2.8680305140459130
 12.6854299449042411  8.5799681361059292  7.1004969179778676
  3.1991784298415329  3.6428147269232292  0.8194952909493681
  5.2577444494959877  5.2855921601907569  5.0486491562453697
  5.8295266024493220  8.4491853374957557  0.8191136116271053
  7.8825190202974538 10.0884510515366355  5.0492931434246699
  8.2638676024950595  3.6418378786033747  0.8181691048591647
 10.3200092238772019  5.2863748929334555  5.0459325197635563
 10.8723861870971259  8.3988584105409210  0.8248099154452930
 12.9489463062104289 10.0936966656944662  5.0493860591261130
  8.0718387417387749  6.4284904800657889  4.1941146941689427
 10.1532537830836240  8.1340433891424695  8.4082608055830441
 10.7023567859146613 11.2236671233560497  4.1843182881545626
 12.7768684216440533 12.9370671578316419  8.4052707087866558
 13.1415167551269079  6.4432626620501825  4.1855253076282093
 15.2177356508853094  8.1148577523967358  8.3977468470666459
 15.7601520487984104 11.2311041345893265  4.1900524885754740
 17.8434915053279362 12.9335228858119482  8.4207039337299925
  9.0101384182688271  5.8913484502768716  2.8527166354493247
 11.1052319688866490  7.5900185977947379  7.0676672659891056
 11.6614763411513600 10.6955620216999456  2.8415402956382958
 13.7259751984537814 12.3950031772604454  7.0687161505602312
 14.0904485871724585  5.9138558044522069  2.8415402956382958
 16.1694063813851336  7.5848329095766385  7.0687161505602312
 16.7121372659892486 10.7005477639605520  2.8411209108238351
 18.7865342179830641 12.3882764443607023  7.0775098330925248
  8.8423122790400779  4.9117262973652380  4.1941146941689427
 10.9356819405632830  6.5937451863536660  8.4082608055830441
 11.4819889156957959  9.7102306566422971  4.1855253076282084
 13.5466124809264006 11.4046524648184313  8.3977468470666459
 13.9047629373808519  4.9193689043449105  4.1843182881545626
 16.0001207107767414  6.5917309622652844  8.4052707087866558
 16.5316006434803882  9.7124204413027755  4.1900524885754740
 18.6223720828909904 11.4002084947860070  8.4207039337299925
  1.6878980813963815  0.0575652778592939  0.0256241938343094
  3.7550382238547080  1.7242379847695193  4.2509555292871477
  4.3046030028575455  4.8622740285200390  0.0354205998486872
  6.3786465509313306  6.5210996100313556  4.2539456260835351
  6.7419153502582985  0.0427930958748966  0.0342135803750412
  8.8142516383030767  1.7434236215152539  4.2614694878035460
  9.3705030222238506  4.8548370172867648  0.0296863994277769
 11.4357187494974983  6.5246438820510546  4.2385124011402011
  0.7495983929160045  0.5947073143926840  1.3670222694329441
  2.8030602667175231  2.2682629784507840  5.5915495752497222
  3.3454834356705256  5.3903791369206173  1.3781986092439718
  5.4295400027874461  7.0631637929360869  5.5905006906785957
  5.7929829190882218  0.5721999602173482  1.3781986092439720
  7.8625805492948890  2.2734486666688847  5.5905006906785948
  8.4185172059084863  5.3853933946600092  1.3786179940584340
 10.4926756783340096  7.0698905258358273  5.5817070081463021
  0.9174245343420988  1.5743294797596830  0.0256241938343094
  2.9726100566220701  3.2645362067581649  4.2509555292871486
  3.5249711676623217  6.3757110712269034  0.0342135803750421
  5.6089027862348946  8.0535148790376798  4.2614694878035451
  5.9786685710771712  1.5666868727800094  0.0354205998486872
  8.0318659814844597  3.2665504308465469  4.2539456260835360
  8.5990541349535778  6.3735212865664241  0.0296863994277769
 10.6568378793461545  8.0579588490701024  4.2385124011402011
  6.9541458934344877  4.9291406245567515  6.3296081674350955
  9.5777574103599576  9.7290833839314992  6.3296081674350972
 12.0159933067764157  4.9291406245567515  6.3296081674350955
 12.5653272048346931  8.0429705540185825  2.1098693891450320
 14.6396048237018856  9.7290833839315010  6.3296081674350972
  5.9565934683524633  3.9584439467004144  2.5738257128806623
  8.1195788777914473  5.7037435329506643  6.8344458321860637
  8.5781990758642479  8.7583188293711771  2.5745110493310102
 10.7376422788402941 10.5001847991191184  6.8317970443177378
 11.0172999156419991  3.9566733312948901  2.5745110493310106
 13.1760391956512937  5.6999250529105572  6.8317970443177378
 13.7326738015324548  8.8186366622999905  2.6132817263154373
 15.7983330186635005 10.4991859050796368  6.8310655062313836
  3.8031433735743172  2.5276118371689820  1.6459131920016046
  5.7887131396413709  4.1545378601611684  5.8247705026841290
  6.4287607212051014  7.3276223292493894  1.6452278555512574
  8.4178726937350934  8.9579819687438835  5.8274192905524540
  8.8661316011131657  2.5293824525745068  1.6452278555512574
 10.8559474966099057  4.1583563402012738  5.8274192905524540
 11.3979806703652802  7.2673044963205760  1.6064571785668302
 13.4808766287402690  8.9589808627833634  5.8281508286388082
  4.8798682745672952  3.2430277946438326  2.1098693891450315
  7.5034797914927651  8.0429705540185825  2.1098693891450320
  9.9417156879092232  3.2430277946438326  2.1098693891450315
