  15  15   0   0
  0.7259949E+01  0.5164258E-09  0.5047802E-09  0.5423352E-09  0.5000000E-15
  1.000000000000000E-004
  CAR 
 unknown system                          
     15.12591675    -13.48742486  301      7.20292239      1.00000000
    -13.487  0.0000E+00  0.0000E+00
    -13.392  0.0000E+00  0.0000E+00
    -13.297  0.0000E+00  0.0000E+00
    -13.201  0.0000E+00  0.0000E+00
    -13.106  0.0000E+00  0.0000E+00
    -13.011  0.0000E+00  0.0000E+00
    -12.915  0.0000E+00  0.0000E+00
    -12.820  0.0000E+00  0.0000E+00
    -12.724  0.0000E+00  0.0000E+00
    -12.629  0.0000E+00  0.0000E+00
    -12.534  0.0000E+00  0.0000E+00
    -12.438  0.0000E+00  0.0000E+00
    -12.343  0.0000E+00  0.0000E+00
    -12.248  0.0000E+00  0.0000E+00
    -12.152  0.0000E+00  0.0000E+00
    -12.057  0.0000E+00  0.0000E+00
    -11.961  0.0000E+00  0.0000E+00
    -11.866  0.0000E+00  0.0000E+00
    -11.771  0.0000E+00  0.0000E+00
    -11.675  0.0000E+00  0.0000E+00
    -11.580  0.0000E+00  0.0000E+00
    -11.484  0.2787E-04  0.2726E-07
    -11.389  0.5705E-02  0.3180E-03
    -11.294  0.8427E-02  0.9896E-03
    -11.198  0.1085E-01  0.1911E-02
    -11.103  0.1341E-01  0.3067E-02
    -11.008  0.1621E-01  0.4474E-02
    -10.912  0.2013E-01  0.6196E-02
    -10.817  0.2757E-01  0.8448E-02
    -10.721  0.2903E-01  0.1116E-01
    -10.626  0.3526E-01  0.1417E-01
    -10.531  0.2806E-01  0.1719E-01
    -10.435  0.1297E-01  0.1948E-01
    -10.340  0.4974E-02  0.2015E-01
    -10.245  0.1290E-01  0.2109E-01
    -10.149  0.2561E-01  0.2266E-01
    -10.054  0.3828E-01  0.2583E-01
     -9.958  0.3323E-01  0.2985E-01
     -9.863  0.2486E-01  0.3261E-01
     -9.768  0.2023E-01  0.3473E-01
     -9.672  0.1724E-01  0.3650E-01
     -9.577  0.1158E-01  0.3784E-01
     -9.482  0.8393E-02  0.3878E-01
     -9.386  0.5802E-02  0.3945E-01
     -9.291  0.3080E-02  0.3988E-01
     -9.195  0.0000E+00  0.4000E-01
     -9.100  0.0000E+00  0.4000E-01
     -9.005  0.0000E+00  0.4000E-01
     -8.909  0.0000E+00  0.4000E-01
     -8.814  0.0000E+00  0.4000E-01
     -8.719  0.0000E+00  0.4000E-01
     -8.623  0.1794E-02  0.4002E-01
     -8.528  0.2307E-01  0.4083E-01
     -8.432  0.3039E-01  0.4365E-01
     -8.337  0.2958E-01  0.4651E-01
     -8.242  0.2989E-01  0.4934E-01
     -8.146  0.3047E-01  0.5222E-01
     -8.051  0.3030E-01  0.5519E-01
     -7.956  0.2637E-01  0.5783E-01
     -7.860  0.1155E-01  0.5972E-01
     -7.765  0.0000E+00  0.6000E-01
     -7.669  0.0000E+00  0.6000E-01
     -7.574  0.0000E+00  0.6000E-01
     -7.479  0.0000E+00  0.6000E-01
     -7.383  0.7223E-02  0.6036E-01
     -7.288  0.1020E-01  0.6120E-01
     -7.192  0.1084E-01  0.6220E-01
     -7.097  0.1236E-01  0.6330E-01
     -7.002  0.1563E-01  0.6461E-01
     -6.906  0.2584E-01  0.6643E-01
     -6.811  0.1967E-01  0.6852E-01
     -6.716  0.1672E-01  0.7024E-01
     -6.620  0.1646E-01  0.7179E-01
     -6.525  0.1602E-01  0.7338E-01
     -6.429  0.1451E-01  0.7482E-01
     -6.334  0.1416E-01  0.7617E-01
     -6.239  0.1585E-01  0.7760E-01
     -6.143  0.1778E-01  0.7928E-01
     -6.048  0.1474E-01  0.8077E-01
     -5.953  0.1261E-01  0.8207E-01
     -5.857  0.2714E-01  0.8364E-01
     -5.762  0.6214E-01  0.8769E-01
     -5.666  0.4782E-01  0.9471E-01
     -5.571  0.2135E-01  0.9784E-01
     -5.476  0.1188E-01  0.9939E-01
     -5.380  0.4813E-02  0.1001E+00
     -5.285  0.2752E-01  0.1016E+00
     -5.190  0.1509E-01  0.1031E+00
     -5.094  0.2088E-01  0.1047E+00
     -4.999  0.2424E-01  0.1068E+00
     -4.903  0.3567E-01  0.1096E+00
     -4.808  0.3660E-01  0.1133E+00
     -4.713  0.1867E-01  0.1158E+00
     -4.617  0.1248E-01  0.1172E+00
     -4.522  0.8828E-02  0.1183E+00
     -4.427  0.5712E-02  0.1189E+00
     -4.331  0.3762E-02  0.1194E+00
     -4.236  0.2747E-02  0.1197E+00
     -4.140  0.1839E-02  0.1199E+00
     -4.045  0.0000E+00  0.1200E+00
     -3.950  0.0000E+00  0.1200E+00
     -3.854  0.2801E-02  0.1201E+00
     -3.759  0.7170E-02  0.1206E+00
     -3.664  0.1640E-01  0.1217E+00
     -3.568  0.2216E-01  0.1236E+00
     -3.473  0.2601E-01  0.1259E+00
     -3.377  0.3199E-01  0.1286E+00
     -3.282  0.3391E-01  0.1319E+00
     -3.187  0.3240E-01  0.1350E+00
     -3.091  0.2845E-01  0.1379E+00
     -2.996  0.3141E-01  0.1408E+00
     -2.900  0.2939E-01  0.1436E+00
     -2.805  0.2521E-01  0.1461E+00
     -2.710  0.2660E-01  0.1485E+00
     -2.614  0.3203E-01  0.1513E+00
     -2.519  0.3622E-01  0.1546E+00
     -2.424  0.4009E-01  0.1583E+00
     -2.328  0.4174E-01  0.1622E+00
     -2.233  0.3985E-01  0.1662E+00
     -2.137  0.4033E-01  0.1700E+00
     -2.042  0.3922E-01  0.1737E+00
     -1.947  0.3502E-01  0.1773E+00
     -1.851  0.3381E-01  0.1806E+00
     -1.756  0.3766E-01  0.1840E+00
     -1.661  0.4207E-01  0.1878E+00
     -1.565  0.4783E-01  0.1921E+00
     -1.470  0.4158E-01  0.1964E+00
     -1.374  0.3842E-01  0.2003E+00
     -1.279  0.4025E-01  0.2039E+00
     -1.184  0.4897E-01  0.2084E+00
     -1.088  0.4432E-01  0.2128E+00
     -0.993  0.4119E-01  0.2169E+00
     -0.898  0.3823E-01  0.2207E+00
     -0.802  0.3877E-01  0.2243E+00
     -0.707  0.4538E-01  0.2283E+00
     -0.611  0.4668E-01  0.2327E+00
     -0.516  0.4737E-01  0.2373E+00
     -0.421  0.4187E-01  0.2414E+00
     -0.325  0.3687E-01  0.2451E+00
     -0.230  0.3676E-01  0.2485E+00
     -0.135  0.3947E-01  0.2523E+00
     -0.039  0.4124E-01  0.2562E+00
      0.056  0.4319E-01  0.2602E+00
      0.152  0.4829E-01  0.2645E+00
      0.247  0.3794E-01  0.2684E+00
      0.342  0.3559E-01  0.2720E+00
      0.438  0.3594E-01  0.2754E+00
      0.533  0.3772E-01  0.2790E+00
      0.628  0.3641E-01  0.2826E+00
      0.724  0.4233E-01  0.2863E+00
      0.819  0.4344E-01  0.2904E+00
      0.915  0.3734E-01  0.2943E+00
      1.010  0.3074E-01  0.2975E+00
      1.105  0.3039E-01  0.3004E+00
      1.201  0.3647E-01  0.3035E+00
      1.296  0.4309E-01  0.3071E+00
      1.392  0.5350E-01  0.3119E+00
      1.487  0.5192E-01  0.3172E+00
      1.582  0.3445E-01  0.3208E+00
      1.678  0.5135E-01  0.3252E+00
      1.773  0.5150E-01  0.3300E+00
      1.868  0.3579E-01  0.3339E+00
      1.964  0.4774E-01  0.3377E+00
      2.059  0.7049E-01  0.3435E+00
      2.155  0.6190E-01  0.3501E+00
      2.250  0.5887E-01  0.3560E+00
      2.345  0.6431E-01  0.3614E+00
      2.441  0.5781E-01  0.3676E+00
      2.536  0.4719E-01  0.3724E+00
      2.631  0.4738E-01  0.3768E+00
      2.727  0.4716E-01  0.3812E+00
      2.822  0.5919E-01  0.3862E+00
      2.918  0.6317E-01  0.3918E+00
      3.013  0.6681E-01  0.3981E+00
      3.108  0.5646E-01  0.4040E+00
      3.204  0.4639E-01  0.4087E+00
      3.299  0.5572E-01  0.4136E+00
      3.394  0.6772E-01  0.4194E+00
      3.490  0.6531E-01  0.4257E+00
      3.585  0.4652E-01  0.4308E+00
      3.681  0.4886E-01  0.4353E+00
      3.776  0.6024E-01  0.4404E+00
      3.871  0.4978E-01  0.4460E+00
      3.967  0.4077E-01  0.4501E+00
      4.062  0.4263E-01  0.4540E+00
      4.157  0.4528E-01  0.4582E+00
      4.253  0.5110E-01  0.4627E+00
      4.348  0.5626E-01  0.4680E+00
      4.444  0.4089E-01  0.4728E+00
      4.539  0.3461E-01  0.4760E+00
      4.634  0.1579E-01  0.4781E+00
      4.730  0.1378E-01  0.4795E+00
      4.825  0.0000E+00  0.4800E+00
      4.920  0.0000E+00  0.4800E+00
      5.016  0.0000E+00  0.4800E+00
      5.111  0.0000E+00  0.4800E+00
      5.207  0.0000E+00  0.4800E+00
      5.302  0.0000E+00  0.4800E+00
      5.397  0.0000E+00  0.4800E+00
      5.493  0.0000E+00  0.4800E+00
      5.588  0.0000E+00  0.4800E+00
      5.684  0.0000E+00  0.4800E+00
      5.779  0.0000E+00  0.4800E+00
      5.874  0.0000E+00  0.4800E+00
      5.970  0.0000E+00  0.4800E+00
      6.065  0.0000E+00  0.4800E+00
      6.160  0.0000E+00  0.4800E+00
      6.256  0.0000E+00  0.4800E+00
      6.351  0.0000E+00  0.4800E+00
      6.447  0.0000E+00  0.4800E+00
      6.542  0.0000E+00  0.4800E+00
      6.637  0.0000E+00  0.4800E+00
      6.733  0.3233E-02  0.4800E+00
      6.828  0.1333E-01  0.4807E+00
      6.923  0.2142E-01  0.4826E+00
      7.019  0.2442E-01  0.4848E+00
      7.114  0.2923E-01  0.4873E+00
      7.210  0.3004E-01  0.4902E+00
      7.305  0.2937E-01  0.4930E+00
      7.400  0.2615E-01  0.4957E+00
      7.496  0.2436E-01  0.4982E+00
      7.591  0.2406E-01  0.5004E+00
      7.686  0.2629E-01  0.5029E+00
      7.782  0.3305E-01  0.5057E+00
      7.877  0.3029E-01  0.5087E+00
      7.973  0.3581E-01  0.5120E+00
      8.068  0.2856E-01  0.5153E+00
      8.163  0.1775E-01  0.5175E+00
      8.259  0.1243E-01  0.5189E+00
      8.354  0.5920E-02  0.5199E+00
      8.449  0.0000E+00  0.5200E+00
      8.545  0.1211E-02  0.5200E+00
      8.640  0.7054E-02  0.5205E+00
      8.736  0.1142E-01  0.5213E+00
      8.831  0.2302E-01  0.5229E+00
      8.926  0.2626E-01  0.5254E+00
      9.022  0.2362E-01  0.5278E+00
      9.117  0.2084E-01  0.5299E+00
      9.212  0.2118E-01  0.5320E+00
      9.308  0.2382E-01  0.5340E+00
      9.403  0.2686E-01  0.5365E+00
      9.499  0.2767E-01  0.5392E+00
      9.594  0.2812E-01  0.5418E+00
      9.689  0.2755E-01  0.5445E+00
      9.785  0.2905E-01  0.5472E+00
      9.880  0.3264E-01  0.5501E+00
      9.976  0.3076E-01  0.5532E+00
     10.071  0.3139E-01  0.5561E+00
     10.166  0.3116E-01  0.5591E+00
     10.262  0.3024E-01  0.5620E+00
     10.357  0.2904E-01  0.5649E+00
     10.452  0.3370E-01  0.5679E+00
     10.548  0.3734E-01  0.5713E+00
     10.643  0.3767E-01  0.5749E+00
     10.739  0.3778E-01  0.5786E+00
     10.834  0.3639E-01  0.5821E+00
     10.929  0.3489E-01  0.5855E+00
     11.025  0.3552E-01  0.5889E+00
     11.120  0.3478E-01  0.5924E+00
     11.215  0.3165E-01  0.5957E+00
     11.311  0.3507E-01  0.5988E+00
     11.406  0.3373E-01  0.6023E+00
     11.502  0.3427E-01  0.6054E+00
     11.597  0.3519E-01  0.6088E+00
     11.692  0.3100E-01  0.6119E+00
     11.788  0.2780E-01  0.6147E+00
     11.883  0.2430E-01  0.6173E+00
     11.978  0.2229E-01  0.6195E+00
     12.074  0.2742E-01  0.6219E+00
     12.169  0.3318E-01  0.6248E+00
     12.265  0.3620E-01  0.6281E+00
     12.360  0.3420E-01  0.6316E+00
     12.455  0.2223E-01  0.6342E+00
     12.551  0.1462E-01  0.6359E+00
     12.646  0.1115E-01  0.6372E+00
     12.741  0.9565E-02  0.6382E+00
     12.837  0.7635E-02  0.6390E+00
     12.932  0.5063E-02  0.6396E+00
     13.028  0.1711E-02  0.6399E+00
     13.123  0.2212E-05  0.6400E+00
     13.218  0.0000E+00  0.6400E+00
     13.314  0.0000E+00  0.6400E+00
     13.409  0.0000E+00  0.6400E+00
     13.504  0.0000E+00  0.6400E+00
     13.600  0.0000E+00  0.6400E+00
     13.695  0.0000E+00  0.6400E+00
     13.791  0.0000E+00  0.6400E+00
     13.886  0.0000E+00  0.6400E+00
     13.981  0.0000E+00  0.6400E+00
     14.077  0.0000E+00  0.6400E+00
     14.172  0.0000E+00  0.6400E+00
     14.268  0.0000E+00  0.6400E+00
     14.363  0.0000E+00  0.6400E+00
     14.458  0.0000E+00  0.6400E+00
     14.554  0.0000E+00  0.6400E+00
     14.649  0.0000E+00  0.6400E+00
     14.744  0.0000E+00  0.6400E+00
     14.840  0.0000E+00  0.6400E+00
     14.935  0.0000E+00  0.6400E+00
     15.031  0.0000E+00  0.6400E+00
     15.126  0.0000E+00  0.6400E+00
