  15  15   0   0
  0.7732546E+01  0.5286795E-09  0.4859497E-09  0.5508377E-09  0.5000000E-15
  1.000000000000000E-004
  CAR 
 unknown system                          
     13.97150075    -13.62253371  301      6.95930780      1.00000000
    -13.623  0.0000E+00  0.0000E+00
    -13.531  0.0000E+00  0.0000E+00
    -13.439  0.0000E+00  0.0000E+00
    -13.347  0.0000E+00  0.0000E+00
    -13.255  0.0000E+00  0.0000E+00
    -13.163  0.0000E+00  0.0000E+00
    -13.071  0.0000E+00  0.0000E+00
    -12.979  0.0000E+00  0.0000E+00
    -12.887  0.0000E+00  0.0000E+00
    -12.795  0.0000E+00  0.0000E+00
    -12.703  0.0000E+00  0.0000E+00
    -12.611  0.0000E+00  0.0000E+00
    -12.519  0.0000E+00  0.0000E+00
    -12.427  0.0000E+00  0.0000E+00
    -12.335  0.0000E+00  0.0000E+00
    -12.243  0.0000E+00  0.0000E+00
    -12.151  0.0000E+00  0.0000E+00
    -12.059  0.0000E+00  0.0000E+00
    -11.967  0.0000E+00  0.0000E+00
    -11.875  0.0000E+00  0.0000E+00
    -11.783  0.0000E+00  0.0000E+00
    -11.691  0.0000E+00  0.0000E+00
    -11.599  0.2518E-02  0.1978E-04
    -11.507  0.7881E-02  0.5386E-03
    -11.415  0.1176E-01  0.1440E-02
    -11.323  0.1572E-01  0.2696E-02
    -11.231  0.2098E-01  0.4371E-02
    -11.139  0.3022E-01  0.6672E-02
    -11.047  0.5781E-01  0.1047E-01
    -10.955  0.4792E-01  0.1535E-01
    -10.863  0.2850E-01  0.1955E-01
    -10.771  0.0000E+00  0.2000E-01
    -10.679  0.0000E+00  0.2000E-01
    -10.587  0.0000E+00  0.2000E-01
    -10.495  0.0000E+00  0.2000E-01
    -10.403  0.4001E-02  0.2010E-01
    -10.311  0.1818E-01  0.2113E-01
    -10.219  0.3240E-01  0.2324E-01
    -10.127  0.4995E-01  0.2731E-01
    -10.035  0.6356E-01  0.3283E-01
     -9.943  0.2841E-01  0.3676E-01
     -9.851  0.1409E-01  0.3853E-01
     -9.759  0.8118E-02  0.3955E-01
     -9.667  0.1837E-03  0.4000E-01
     -9.575  0.0000E+00  0.4000E-01
     -9.483  0.0000E+00  0.4000E-01
     -9.391  0.0000E+00  0.4000E-01
     -9.299  0.0000E+00  0.4000E-01
     -9.207  0.0000E+00  0.4000E-01
     -9.116  0.0000E+00  0.4000E-01
     -9.024  0.0000E+00  0.4000E-01
     -8.932  0.0000E+00  0.4000E-01
     -8.840  0.4347E-02  0.4011E-01
     -8.748  0.3396E-01  0.4143E-01
     -8.656  0.3673E-01  0.4485E-01
     -8.564  0.3650E-01  0.4820E-01
     -8.472  0.3754E-01  0.5161E-01
     -8.380  0.3702E-01  0.5514E-01
     -8.288  0.2634E-01  0.5808E-01
     -8.196  0.1025E-01  0.5997E-01
     -8.104  0.0000E+00  0.6000E-01
     -8.012  0.0000E+00  0.6000E-01
     -7.920  0.0000E+00  0.6000E-01
     -7.828  0.0000E+00  0.6000E-01
     -7.736  0.0000E+00  0.6000E-01
     -7.644  0.0000E+00  0.6000E-01
     -7.552  0.0000E+00  0.6000E-01
     -7.460  0.6459E-02  0.6021E-01
     -7.368  0.1250E-01  0.6118E-01
     -7.276  0.1448E-01  0.6239E-01
     -7.184  0.1960E-01  0.6399E-01
     -7.092  0.1717E-01  0.6570E-01
     -7.000  0.1363E-01  0.6714E-01
     -6.908  0.1251E-01  0.6833E-01
     -6.816  0.1184E-01  0.6946E-01
     -6.724  0.1142E-01  0.7052E-01
     -6.632  0.1426E-01  0.7162E-01
     -6.540  0.1395E-01  0.7295E-01
     -6.448  0.1506E-01  0.7424E-01
     -6.356  0.3091E-01  0.7631E-01
     -6.264  0.3451E-01  0.7932E-01
     -6.172  0.3644E-01  0.8254E-01
     -6.080  0.4769E-01  0.8642E-01
     -5.988  0.5211E-01  0.9115E-01
     -5.896  0.4489E-01  0.9568E-01
     -5.804  0.3722E-01  0.9907E-01
     -5.712  0.3731E-01  0.1024E+00
     -5.620  0.4124E-01  0.1059E+00
     -5.528  0.2778E-01  0.1091E+00
     -5.436  0.3097E-01  0.1118E+00
     -5.344  0.2662E-01  0.1147E+00
     -5.252  0.1871E-01  0.1167E+00
     -5.160  0.1080E-01  0.1181E+00
     -5.068  0.6060E-02  0.1189E+00
     -4.976  0.4289E-02  0.1194E+00
     -4.884  0.2950E-02  0.1197E+00
     -4.792  0.1777E-02  0.1199E+00
     -4.700  0.9256E-06  0.1200E+00
     -4.608  0.0000E+00  0.1200E+00
     -4.517  0.0000E+00  0.1200E+00
     -4.425  0.0000E+00  0.1200E+00
     -4.333  0.0000E+00  0.1200E+00
     -4.241  0.0000E+00  0.1200E+00
     -4.149  0.0000E+00  0.1200E+00
     -4.057  0.0000E+00  0.1200E+00
     -3.965  0.2416E-02  0.1201E+00
     -3.873  0.7249E-02  0.1205E+00
     -3.781  0.1599E-01  0.1215E+00
     -3.689  0.2392E-01  0.1234E+00
     -3.597  0.3092E-01  0.1259E+00
     -3.505  0.3701E-01  0.1289E+00
     -3.413  0.4561E-01  0.1327E+00
     -3.321  0.3989E-01  0.1368E+00
     -3.229  0.2872E-01  0.1398E+00
     -3.137  0.2822E-01  0.1424E+00
     -3.045  0.3605E-01  0.1456E+00
     -2.953  0.3346E-01  0.1487E+00
     -2.861  0.3372E-01  0.1518E+00
     -2.769  0.3888E-01  0.1551E+00
     -2.677  0.4580E-01  0.1590E+00
     -2.585  0.4573E-01  0.1633E+00
     -2.493  0.4427E-01  0.1675E+00
     -2.401  0.4379E-01  0.1716E+00
     -2.309  0.3902E-01  0.1753E+00
     -2.217  0.3760E-01  0.1788E+00
     -2.125  0.3339E-01  0.1821E+00
     -2.033  0.3651E-01  0.1852E+00
     -1.941  0.4398E-01  0.1889E+00
     -1.849  0.4495E-01  0.1930E+00
     -1.757  0.4104E-01  0.1970E+00
     -1.665  0.4082E-01  0.2007E+00
     -1.573  0.4387E-01  0.2046E+00
     -1.481  0.4478E-01  0.2087E+00
     -1.389  0.4856E-01  0.2131E+00
     -1.297  0.4381E-01  0.2173E+00
     -1.205  0.4136E-01  0.2212E+00
     -1.113  0.5026E-01  0.2252E+00
     -1.021  0.6602E-01  0.2306E+00
     -0.929  0.5668E-01  0.2365E+00
     -0.837  0.4168E-01  0.2411E+00
     -0.745  0.3648E-01  0.2447E+00
     -0.653  0.3090E-01  0.2477E+00
     -0.561  0.3405E-01  0.2507E+00
     -0.469  0.4270E-01  0.2542E+00
     -0.377  0.3937E-01  0.2580E+00
     -0.285  0.4022E-01  0.2616E+00
     -0.193  0.4680E-01  0.2656E+00
     -0.101  0.5081E-01  0.2702E+00
     -0.009  0.4834E-01  0.2748E+00
      0.083  0.5074E-01  0.2794E+00
      0.174  0.4337E-01  0.2839E+00
      0.266  0.3734E-01  0.2875E+00
      0.358  0.3836E-01  0.2910E+00
      0.450  0.3478E-01  0.2944E+00
      0.542  0.3069E-01  0.2974E+00
      0.634  0.2936E-01  0.3001E+00
      0.726  0.3220E-01  0.3029E+00
      0.818  0.4155E-01  0.3063E+00
      0.910  0.3970E-01  0.3100E+00
      1.002  0.3581E-01  0.3136E+00
      1.094  0.4351E-01  0.3171E+00
      1.186  0.4814E-01  0.3215E+00
      1.278  0.5137E-01  0.3262E+00
      1.370  0.4466E-01  0.3307E+00
      1.462  0.4678E-01  0.3349E+00
      1.554  0.4978E-01  0.3395E+00
      1.646  0.4519E-01  0.3436E+00
      1.738  0.5026E-01  0.3479E+00
      1.830  0.5824E-01  0.3530E+00
      1.922  0.5995E-01  0.3583E+00
      2.014  0.7087E-01  0.3641E+00
      2.106  0.7540E-01  0.3709E+00
      2.198  0.6380E-01  0.3774E+00
      2.290  0.6366E-01  0.3830E+00
      2.382  0.6454E-01  0.3890E+00
      2.474  0.5858E-01  0.3948E+00
      2.566  0.5099E-01  0.3997E+00
      2.658  0.5073E-01  0.4043E+00
      2.750  0.5265E-01  0.4090E+00
      2.842  0.6152E-01  0.4142E+00
      2.934  0.5386E-01  0.4196E+00
      3.026  0.5590E-01  0.4247E+00
      3.118  0.5439E-01  0.4299E+00
      3.210  0.5129E-01  0.4346E+00
      3.302  0.5250E-01  0.4392E+00
      3.394  0.5607E-01  0.4442E+00
      3.486  0.5441E-01  0.4492E+00
      3.578  0.5777E-01  0.4547E+00
      3.670  0.4755E-01  0.4595E+00
      3.762  0.4911E-01  0.4639E+00
      3.854  0.4861E-01  0.4685E+00
      3.946  0.3998E-01  0.4726E+00
      4.038  0.2785E-01  0.4757E+00
      4.130  0.2141E-01  0.4778E+00
      4.222  0.1428E-01  0.4795E+00
      4.314  0.1448E-04  0.4800E+00
      4.406  0.0000E+00  0.4800E+00
      4.498  0.0000E+00  0.4800E+00
      4.590  0.0000E+00  0.4800E+00
      4.682  0.0000E+00  0.4800E+00
      4.773  0.0000E+00  0.4800E+00
      4.865  0.0000E+00  0.4800E+00
      4.957  0.0000E+00  0.4800E+00
      5.049  0.0000E+00  0.4800E+00
      5.141  0.0000E+00  0.4800E+00
      5.233  0.0000E+00  0.4800E+00
      5.325  0.0000E+00  0.4800E+00
      5.417  0.0000E+00  0.4800E+00
      5.509  0.0000E+00  0.4800E+00
      5.601  0.0000E+00  0.4800E+00
      5.693  0.0000E+00  0.4800E+00
      5.785  0.0000E+00  0.4800E+00
      5.877  0.0000E+00  0.4800E+00
      5.969  0.0000E+00  0.4800E+00
      6.061  0.0000E+00  0.4800E+00
      6.153  0.0000E+00  0.4800E+00
      6.245  0.0000E+00  0.4800E+00
      6.337  0.0000E+00  0.4800E+00
      6.429  0.0000E+00  0.4800E+00
      6.521  0.3666E-02  0.4801E+00
      6.613  0.6750E-02  0.4805E+00
      6.705  0.2224E-01  0.4821E+00
      6.797  0.2579E-01  0.4843E+00
      6.889  0.3719E-01  0.4871E+00
      6.981  0.4245E-01  0.4910E+00
      7.073  0.4825E-01  0.4951E+00
      7.165  0.3625E-01  0.4990E+00
      7.257  0.2505E-01  0.5017E+00
      7.349  0.2720E-01  0.5040E+00
      7.441  0.3700E-01  0.5069E+00
      7.533  0.5094E-01  0.5108E+00
      7.625  0.4764E-01  0.5162E+00
      7.717  0.1968E-01  0.5191E+00
      7.809  0.1777E-02  0.5200E+00
      7.901  0.2899E-02  0.5202E+00
      7.993  0.6445E-02  0.5206E+00
      8.085  0.1670E-01  0.5214E+00
      8.177  0.2558E-01  0.5236E+00
      8.269  0.2342E-01  0.5258E+00
      8.361  0.2465E-01  0.5280E+00
      8.453  0.2656E-01  0.5304E+00
      8.545  0.2713E-01  0.5329E+00
      8.637  0.3740E-01  0.5359E+00
      8.729  0.3983E-01  0.5395E+00
      8.821  0.3589E-01  0.5429E+00
      8.913  0.3414E-01  0.5461E+00
      9.005  0.3359E-01  0.5492E+00
      9.097  0.2930E-01  0.5521E+00
      9.189  0.2856E-01  0.5548E+00
      9.281  0.2952E-01  0.5574E+00
      9.372  0.3337E-01  0.5603E+00
      9.464  0.3521E-01  0.5634E+00
      9.556  0.3790E-01  0.5667E+00
      9.648  0.3952E-01  0.5703E+00
      9.740  0.4008E-01  0.5740E+00
      9.832  0.3527E-01  0.5775E+00
      9.924  0.3138E-01  0.5805E+00
     10.016  0.2762E-01  0.5833E+00
     10.108  0.2491E-01  0.5858E+00
     10.200  0.2362E-01  0.5880E+00
     10.292  0.3236E-01  0.5904E+00
     10.384  0.4250E-01  0.5940E+00
     10.476  0.3924E-01  0.5977E+00
     10.568  0.3680E-01  0.6013E+00
     10.660  0.3725E-01  0.6047E+00
     10.752  0.4032E-01  0.6082E+00
     10.844  0.4201E-01  0.6120E+00
     10.936  0.4141E-01  0.6159E+00
     11.028  0.3943E-01  0.6196E+00
     11.120  0.4214E-01  0.6234E+00
     11.212  0.4746E-01  0.6276E+00
     11.304  0.3933E-01  0.6317E+00
     11.396  0.2431E-01  0.6347E+00
     11.488  0.1494E-01  0.6365E+00
     11.580  0.1148E-01  0.6377E+00
     11.672  0.9208E-02  0.6387E+00
     11.764  0.7068E-02  0.6394E+00
     11.856  0.3235E-02  0.6399E+00
     11.948  0.7051E-04  0.6400E+00
     12.040  0.0000E+00  0.6400E+00
     12.132  0.0000E+00  0.6400E+00
     12.224  0.0000E+00  0.6400E+00
     12.316  0.0000E+00  0.6400E+00
     12.408  0.0000E+00  0.6400E+00
     12.500  0.0000E+00  0.6400E+00
     12.592  0.0000E+00  0.6400E+00
     12.684  0.0000E+00  0.6400E+00
     12.776  0.0000E+00  0.6400E+00
     12.868  0.0000E+00  0.6400E+00
     12.960  0.0000E+00  0.6400E+00
     13.052  0.0000E+00  0.6400E+00
     13.144  0.0000E+00  0.6400E+00
     13.236  0.0000E+00  0.6400E+00
     13.328  0.0000E+00  0.6400E+00
     13.420  0.0000E+00  0.6400E+00
     13.512  0.0000E+00  0.6400E+00
     13.604  0.0000E+00  0.6400E+00
     13.696  0.0000E+00  0.6400E+00
     13.788  0.0000E+00  0.6400E+00
     13.880  0.0000E+00  0.6400E+00
     13.972  0.0000E+00  0.6400E+00
