 B  C 
 1.0000000000000000
     5.2867951596237548    0.0000000000000000    0.0000000000000000
     1.9130856353759622    4.4670809832658911    0.0000000000000000
     2.1104113673899958    1.3294340616558649    4.9113114273124783
 B   C  
  11   4
Cartesian
  4.8798900326406525  4.6575533297846174  3.9482003202984886
  6.4442188400477320  4.0028238839276220  1.5294416152661361
  6.5884321399299104  2.4788380284497795  3.9754804080993051
  4.4191875814888277  1.1427937463599682  0.9686030726997822
  2.8671699271630318  1.7923705194602537  3.3683263239661660
  2.7190637281762648  3.3231105633257449  0.9321458185100261
  7.5409526822179727  5.7514114315174698  4.8851232018206021
  8.5705179640972595  5.3205002936040700  3.2932136389716282
  8.6019474020758881  4.2693237385744105  4.8722494502537916
  1.7557057134134013  0.0601853379574521  0.0190161086244379
  0.7322217629854992  0.4885512138083664  1.6015227420370184
  0.6580962300992789  1.4411842674432600  0.0294125792372366
  5.7500332272787604  3.5379398294187001  3.0461580564047241
  3.6125343111707973  2.3019862132435294  1.8893824683965268
  4.6872204106505428  2.9052908979625554  2.4765602882512647
