 B  C 
 1.0000000000000000
    10.3681211562510303    0.0000000000000000    0.0000000000000000
     4.1925175466507287    8.8112012504060058    0.0000000000000000
     4.7617595846909557    2.3389607091271238    8.5965357173273667
 B   C  
 101  19
Cartesian
  5.2105609917633862  4.4913666976060922  3.4635218105110841
  7.6347573185331479  5.6535348570593174  7.7521993679759476
  7.3065027347667169  8.8940815217721241  3.4648726768432496
  9.7302281610964645 10.0592516336159772  7.7549665608964027
 10.3863521043681484  4.4885763731310222  3.4639105928621707
 12.8158344076337265  5.6538845034976593  7.7515433962346574
 12.5333253158594840  8.8865367295442468  3.4581082811785970
 14.9057167049456947 10.0579908464109451  7.7514487513776968
  6.6058104093780967  3.9131881738112297  1.3347442952973201
  8.9871393380635283  5.0810664154096807  5.6627028590906283
  8.6996941372101695  8.3168707209570982  1.3313659842753727
 11.0865098375962230  9.4855083419745032  5.6622861321518760
 11.7868127773016429  3.9122448185692003  1.3313659842753727
 14.1712918051423280  5.0842163472262634  5.6622861321518769
 13.9002575607746781  8.3246797664478631  1.3768633433556086
 16.2669711023464956  9.4864058129619053  5.6621668449912805
  6.7429618035833752  2.3049744349548016  3.4635218105110841
  9.1335642142156743  3.5150735780962052  7.7521993679759458
  8.8331543385045919  6.7046412247400005  3.4639105928621703
 11.2289199694124875  7.9180554843885913  7.7515433962346574
 11.9241376295503851  2.3057521970748076  3.4648726768432492
 14.3175924126461762  3.5141117275366218  7.7549665608964000
 14.0298413967636986  6.7513439294724567  3.4581082811785970
 16.4089254242154681  7.9132491524555721  7.7514487513776960
  4.4506379965111780  1.0837142821604735  0.8347460481525996
  6.7882012544323738  2.2605068318343724  5.1426042080151024
  6.5472138001585769  5.4922007084004463  0.8333951818204341
  8.8852479585197823  6.6659913056837192  5.1398370150946473
  9.6429681956792397  1.0865046066355433  0.8343572658015128
 11.9752454771046182  2.2601571853960305  5.1432601797563926
 11.6885125308386311  5.4997455006283236  0.8401595774850851
 14.0778807264433752  6.6672520928887486  5.1433548246133522
  3.0553886629918776  1.6618927708709299  2.9635234344183492
  5.4358193904237835  2.8329752734840077  7.2321007169004217
  5.1540224818105358  6.0694114741310665  2.9669017454402957
  7.5289664375418193  7.2397345973251896  7.2325174438391739
  8.2425074513193621  1.6628361261129594  2.9669017454402962
 10.6197880795960167  2.8298253416674246  7.2325174438391739
 10.3215802144970539  6.0616024286403043  2.9214043863600589
 12.7166263290425778  7.2388371263377902  7.2326367309997694
  2.9182372773252294  3.2701064126437642  0.8347460481526003
  5.2893944513838846  4.3989679786294857  5.1426042080151042
  5.0205623519424938  7.6816410054325717  0.8343572658015128
  7.3865563057255548  8.8071874549111051  5.1432601797563926
  8.1051826076092492  3.2693286505237604  0.8333951818204341
 10.4734874092044166  4.3999298291890696  5.1398370150946491
 10.1919964499344164  7.6349383007001137  0.8401595774850861
 12.5746720071736018  8.8119937868441216  5.1433548246133522
  7.9368151868207555  5.5245412072291167  4.2721669119055186
 10.3219973732814445  6.7123656596003087  8.5647380245050062
 10.0396565202983385  9.9266450845026952  4.2621881953748497
 12.4175513810197558 11.1210620990233284  8.5616922821902595
 13.1261329884534526  5.5388694221964299  4.2634176774070189
 15.5099609038747825  6.6956983314050644  8.5540284018641763
 15.2192824451054776  9.9329572917601290  4.2680291089146039
 17.6086362033009074 11.1164261176218453  8.5774127185051245
  8.8163660986472738  5.1517241126678943  2.9058055174201511
 11.2164925321810767  6.3331591720427820  7.1991961211970015
 10.9392661276208401  9.5622461326043737  2.8944211866093434
 13.3093086424435896 10.7432934185277631  7.2002645254457942
 14.0153363700845190  5.1733838156321035  2.8944211866093434
 16.4036898004149059  6.3283055320053077  7.2002645254457942
 16.1112104512900309  9.5668598471583834  2.8939939970691557
 18.4938445232795701 10.7363313681177583  7.2092218578717517
  8.9125491519085092  4.1323876823688508  4.2721669119055186
 11.3128707667635879  5.2986115659807913  8.5647380245050062
 11.0244934115598454  8.5374377304085218  4.2634176774070180
 13.3936369059275755  9.7152180149528142  8.5540284018641763
 14.0952097621867285  4.1402802115266706  4.2621881953748497
 16.4995043414933455  5.2970307487095019  8.5616922821902595
 16.1962512308044175  8.5390419548404886  4.2680291089146039
 18.5950169126726799  9.7090820765823658  8.5774127185051245
  1.7243842289030493  0.0505399174895280  0.0261010585131081
  4.1009615652304507  1.2016761438389731  4.3300655514860447
  3.8140603875734751  4.4596371760763613  0.0360797750437751
  6.1979250496401503  5.6041808402763662  4.3331112938007887
  6.9031880500867624  0.0362117025222126  0.0348502930116063
  9.2811196574535249  1.2183434720342181  4.3407751741268736
  9.0025560855827482  4.4533249688189285  0.0302388615040222
 11.3749618501754046  5.6088168216778520  4.3173908574859272
  0.8448333058637665  0.4233570167286870  1.3924624701916102
  3.2064666713000669  1.5808827717341378  5.6956079705861731
  2.9144507690382104  4.8240361326526191  1.4038468010024168
  5.3061680531855684  5.9819496611095708  5.6945395663373812
  6.0139840558919992  0.4016973137644762  1.4038468010024170
  8.3873904245317199  1.5857364117716124  5.6945395663373795
  8.1106274668345009  4.8194224180986049  1.4042739905426056
 10.4897531938150692  5.9889117115195729  5.6855822339114237
  0.7486502514640443  1.4426934599722583  0.0261010585131081
  3.1100881593970571  2.6154302550809585  4.3300655514860455
  2.8292237271266960  5.8488450588425893  0.0348502930116072
  5.2218397555470588  7.0100254530189376  4.3407751741268727
  5.9341106626513032  1.4348009308144387  0.0360797750437751
  8.2915756061327812  2.6170110723522484  4.3331112938007896
  8.0255869293476056  5.8472408344106217  0.0302388615040222
 10.3885807702674384  7.0161613913893843  4.3173908574859272
  7.2114793642436563  3.9570208444468449  6.4474017879955250
  9.3077381375690198  8.3626214696498469  6.4474017879955259
 12.3955399423691723  3.9570208444468449  6.4474017879955250
 12.1109189233490593  7.1931411150862852  2.1491339293318417
 14.4917987156945358  8.3626214696498486  6.4474017879955259
  5.8962981913554620  3.4026084882563952  2.6217244518534093
  8.3652392895711234  4.6227499115345543  6.9616344507863772
  7.9905863401339445  7.8080854037656993  2.6224225423731484
 10.4559556275282617  9.0253740549010502  6.9589363691379535
 11.0794835162539798  3.4009219293655057  2.6224225423731493
 13.5439613498679776  4.6194824851049061  6.9589363691379535
 13.2663510874704595  7.8599737504493152  2.6619147392831017
 15.6388740898093221  9.0245227749208574  6.9581912171725904
  3.7649012422769630  2.1724726587626524  1.6765435357583502
  6.0577196573258405  3.2912919095271964  5.9331691252046737
  5.8631305772614253  6.5781968614912936  1.6758454452386113
  8.1595208031316471  7.6998688843986463  5.9358672068530964
  8.9498369181076072  2.1741592176535423  1.6758454452386113
 11.2471185977581474  3.2945593359568432  5.9358672068530964
 10.9554868306540740  6.5263085148076785  1.6363532483286587
 13.3447233415797477  7.7007201643788390  5.9366123588184596
  4.8305995718981789  2.7875404898832818  2.1491339293318412
  6.9268583452235433  7.1931411150862852  2.1491339293318417
 10.0146601500236940  2.7875404898832818  2.1491339293318412
