 B  C                                   
   1.00000000000000     
    10.4457161885674701    0.0000000000000000    0.0000000000000000
     2.3095131579740240    4.3796217205614845    0.0000000000000000
     2.4159178791455354    1.6601419626256841    4.5548094216959489
   B    C 
    23     7
Direct
  0.1574780982988813  0.8043085033553368  0.8014132556813252
  0.6557569865689743  0.8037291000994742  0.8091282415435970
  0.4010749827859925  0.8043470743609191  0.3173046294131012
  0.9037861034089971  0.8038907999031011  0.3089370942128866
  0.4040437399659353  0.3087284727508717  0.8129110552861150
  0.9044804249918670  0.3092182641493295  0.8043476618333543
  0.3419650186850092  0.1969346601520456  0.1982912699648480
  0.8457831789340702  0.1930604831718981  0.1931798230675099
  0.0983429751813034  0.1992785471904952  0.6804611445737976
  0.5973362107000568  0.1912130800895255  0.6946988403201217
  0.5957282036311966  0.6880670955021486  0.1984063263196134
  0.3362505036960854  0.9883624487131257  0.9994558749789348
  0.8358455485932552  0.9924834163029956  0.9936258951104477
  0.4973009655516307  0.9911697722422659  0.6757838540595813
  0.9992283332818630  0.9894936261845686  0.6687348735512657
  0.4975671847992658  0.6673933431444183  0.9985998817656352
  0.9969789618095746  0.6701784202875132  0.9909572210002082
  0.1664255084033996  0.0080762469259668  0.0003635309111019
  0.6642830911902919  0.0042274989324156  0.0104082583288090
  0.0046122752819784  0.0046961380534043  0.3251433997028172
  0.5007926937689291  0.0066923877587044  0.3361850936158746
  0.0045619278956082  0.3264549663797922  0.0043516967819883
  0.5032379004641214  0.3266259880404760  0.0112210561215420
  0.0926885472063006  0.6997384451752708  0.1796855086129767
  0.3064958137020781  0.6001035354135595  0.6197756705475541
  0.8077781950825269  0.6077598307194023  0.6095777921840266
  0.1867833721397147  0.4176384543140585  0.3716481404522511
  0.6954088864107248  0.3876319147324594  0.3907651817015605
  0.2484707655556448  0.5102807613462872  0.4921566694421315
  0.7495137030147205  0.4982168826081548  0.5024812169149939
 
  0.00000000E+00  0.00000000E+00  0.00000000E+00
  0.00000000E+00  0.00000000E+00  0.00000000E+00
  0.00000000E+00  0.00000000E+00  0.00000000E+00
  0.00000000E+00  0.00000000E+00  0.00000000E+00
  0.00000000E+00  0.00000000E+00  0.00000000E+00
  0.00000000E+00  0.00000000E+00  0.00000000E+00
  0.00000000E+00  0.00000000E+00  0.00000000E+00
  0.00000000E+00  0.00000000E+00  0.00000000E+00
  0.00000000E+00  0.00000000E+00  0.00000000E+00
  0.00000000E+00  0.00000000E+00  0.00000000E+00
  0.00000000E+00  0.00000000E+00  0.00000000E+00
  0.00000000E+00  0.00000000E+00  0.00000000E+00
  0.00000000E+00  0.00000000E+00  0.00000000E+00
  0.00000000E+00  0.00000000E+00  0.00000000E+00
  0.00000000E+00  0.00000000E+00  0.00000000E+00
  0.00000000E+00  0.00000000E+00  0.00000000E+00
  0.00000000E+00  0.00000000E+00  0.00000000E+00
  0.00000000E+00  0.00000000E+00  0.00000000E+00
  0.00000000E+00  0.00000000E+00  0.00000000E+00
  0.00000000E+00  0.00000000E+00  0.00000000E+00
  0.00000000E+00  0.00000000E+00  0.00000000E+00
  0.00000000E+00  0.00000000E+00  0.00000000E+00
  0.00000000E+00  0.00000000E+00  0.00000000E+00
  0.00000000E+00  0.00000000E+00  0.00000000E+00
  0.00000000E+00  0.00000000E+00  0.00000000E+00
  0.00000000E+00  0.00000000E+00  0.00000000E+00
  0.00000000E+00  0.00000000E+00  0.00000000E+00
  0.00000000E+00  0.00000000E+00  0.00000000E+00
  0.00000000E+00  0.00000000E+00  0.00000000E+00
  0.00000000E+00  0.00000000E+00  0.00000000E+00
