 B  C 
 1.0000000000000000
    10.4457161885674701    0.0000000000000000    0.0000000000000000
     2.3095131579740240    4.3796217205614845    0.0000000000000000
     2.4159178791455354    1.6601419626256841    4.5548094216959489
 B   C  
  23   7
Cartesian
  5.4386812052997424  4.8530267664883597  3.6502846476493196
 10.6608616877628606  4.8632971711750326  3.6854249379430484
  6.8137475196662418  4.0495066479652397  1.4452621155985488
 12.0436561607723256  4.0336170421296362  1.4071495874322297
  6.8974650581316794  2.7016616797783084  3.7026549336179957
 12.1053273645908526  2.6895903320121470  3.6636503084376826
  4.5059481448705982  1.1916909732242744  0.9031789446759537
  9.7473933588189574  1.1662378160887241  0.8798972781894397
  3.1314374799613351  2.0024267537607030  3.0993708324027525
  8.3595489995216461  1.9907396550183767  3.1642208231313291
  8.2912411423789401  3.3428562646384483  0.9037030044446542
  8.2096167278012242  5.9878922860166357  4.5523310359234204
 13.4236774522847231  5.9962619709620233  4.5257765886901353
  9.1164226726929751  5.4628457970654196  3.0780666655005762
 14.3385126638629785  5.4438026030487094  3.0459599026679602
  9.1513346131641953  4.5807479493856169  4.5484321499705818
 14.3560164285624836  4.5802576318921533  4.5136212867093910
  1.7579640866902944  0.0359744193778274  0.0016558140189765
  6.9738216012351746  0.0357940325575786  0.0474076330995155
  0.8445440638333028  0.5603515099388710  1.4809662203686436
  6.0587900843741851  0.5874251079113787  1.5312590318353068
  0.8121179864705697  1.4369736959785102  0.0198211495029642
  6.0381364508014679  1.4491268178542704  0.0511097721437844
  3.0183588372016290  3.3628931461256597  0.8184332475726008
  6.0848424176355618  3.6571420763734230  2.8229600635479177
 11.3141409819473324  3.6737438277928929  2.7765106710964345
  3.8134989868990927  2.4460871191521671  1.6927864516876814
  9.1033414589998340  2.3464068290209164  1.7798609312849938
  4.9629653277865540  3.0518866451038367  2.2416798349255140
 10.1937992229220686  3.0161916342529094  2.2887061810296738
