  30  30   0   0
  0.7112307E+01  0.9872974E-09  0.4879697E-09  0.5892733E-09  0.5000000E-15
  1.000000000000000E-004
  CAR 
 unknown system                          
     16.90133339    -13.75105393  301      6.69383490      1.00000000
    -13.751  0.0000E+00  0.0000E+00
    -13.649  0.0000E+00  0.0000E+00
    -13.547  0.0000E+00  0.0000E+00
    -13.445  0.0000E+00  0.0000E+00
    -13.342  0.0000E+00  0.0000E+00
    -13.240  0.0000E+00  0.0000E+00
    -13.138  0.0000E+00  0.0000E+00
    -13.036  0.0000E+00  0.0000E+00
    -12.934  0.0000E+00  0.0000E+00
    -12.831  0.0000E+00  0.0000E+00
    -12.729  0.0000E+00  0.0000E+00
    -12.627  0.0000E+00  0.0000E+00
    -12.525  0.0000E+00  0.0000E+00
    -12.423  0.0000E+00  0.0000E+00
    -12.321  0.0000E+00  0.0000E+00
    -12.218  0.0000E+00  0.0000E+00
    -12.116  0.0000E+00  0.0000E+00
    -12.014  0.0000E+00  0.0000E+00
    -11.912  0.0000E+00  0.0000E+00
    -11.810  0.0000E+00  0.0000E+00
    -11.708  0.1145E-01  0.2657E-03
    -11.605  0.2542E-01  0.2450E-02
    -11.503  0.2839E-01  0.5178E-02
    -11.401  0.3555E-01  0.8380E-02
    -11.299  0.7733E-01  0.1321E-01
    -11.197  0.3828E-01  0.1791E-01
    -11.095  0.3612E-03  0.2000E-01
    -10.992  0.1588E-01  0.2093E-01
    -10.890  0.3489E-01  0.2339E-01
    -10.788  0.8047E-01  0.2890E-01
    -10.686  0.0000E+00  0.4000E-01
    -10.584  0.0000E+00  0.4000E-01
    -10.481  0.0000E+00  0.4000E-01
    -10.379  0.1328E-01  0.4086E-01
    -10.277  0.1797E-01  0.4250E-01
    -10.175  0.2451E-01  0.4459E-01
    -10.073  0.4227E-01  0.4801E-01
     -9.971  0.6460E-01  0.5338E-01
     -9.868  0.2591E-01  0.5786E-01
     -9.766  0.1041E-01  0.5964E-01
     -9.664  0.0000E+00  0.6000E-01
     -9.562  0.0000E+00  0.6000E-01
     -9.460  0.0000E+00  0.6000E-01
     -9.358  0.7793E-03  0.6000E-01
     -9.255  0.1608E-01  0.6085E-01
     -9.153  0.3842E-01  0.6393E-01
     -9.051  0.4491E-01  0.6810E-01
     -8.949  0.4167E-01  0.7309E-01
     -8.847  0.3740E-01  0.7736E-01
     -8.744  0.3070E-01  0.8091E-01
     -8.642  0.4477E-01  0.8454E-01
     -8.540  0.4596E-01  0.8952E-01
     -8.438  0.4112E-01  0.9395E-01
     -8.336  0.4791E-01  0.9849E-01
     -8.234  0.4777E-01  0.1035E+00
     -8.131  0.3828E-01  0.1079E+00
     -8.029  0.3755E-01  0.1117E+00
     -7.927  0.3168E-01  0.1151E+00
     -7.825  0.1728E-01  0.1177E+00
     -7.723  0.9697E-02  0.1190E+00
     -7.621  0.4576E-02  0.1198E+00
     -7.518  0.4682E-04  0.1200E+00
     -7.416  0.0000E+00  0.1200E+00
     -7.314  0.0000E+00  0.1200E+00
     -7.212  0.2159E-01  0.1204E+00
     -7.110  0.2022E-01  0.1225E+00
     -7.008  0.2497E-01  0.1248E+00
     -6.905  0.3622E-01  0.1280E+00
     -6.803  0.3614E-01  0.1314E+00
     -6.701  0.3984E-01  0.1358E+00
     -6.599  0.2089E-01  0.1391E+00
     -6.497  0.0000E+00  0.1400E+00
     -6.394  0.1083E-01  0.1401E+00
     -6.292  0.4271E-01  0.1433E+00
     -6.190  0.3407E-01  0.1471E+00
     -6.088  0.6519E-01  0.1523E+00
     -5.986  0.7042E-01  0.1608E+00
     -5.884  0.6172E-01  0.1676E+00
     -5.781  0.6079E-01  0.1751E+00
     -5.679  0.1631E-01  0.1791E+00
     -5.577  0.2325E-02  0.1800E+00
     -5.475  0.9141E-02  0.1806E+00
     -5.373  0.1889E-01  0.1820E+00
     -5.271  0.3198E-01  0.1846E+00
     -5.168  0.5653E-01  0.1891E+00
     -5.066  0.4750E-01  0.1946E+00
     -4.964  0.3587E-01  0.1986E+00
     -4.862  0.5281E-01  0.2029E+00
     -4.760  0.4184E-01  0.2078E+00
     -4.658  0.3402E-01  0.2117E+00
     -4.555  0.3595E-01  0.2152E+00
     -4.453  0.2941E-01  0.2184E+00
     -4.351  0.3006E-01  0.2214E+00
     -4.249  0.3508E-01  0.2247E+00
     -4.147  0.3340E-01  0.2285E+00
     -4.044  0.3666E-01  0.2318E+00
     -3.942  0.2715E-01  0.2351E+00
     -3.840  0.4253E-01  0.2383E+00
     -3.738  0.4059E-01  0.2429E+00
     -3.636  0.4993E-01  0.2472E+00
     -3.534  0.3650E-01  0.2513E+00
     -3.431  0.4717E-01  0.2557E+00
     -3.329  0.5451E-01  0.2609E+00
     -3.227  0.4939E-01  0.2661E+00
     -3.125  0.6005E-01  0.2719E+00
     -3.023  0.6080E-01  0.2788E+00
     -2.921  0.6182E-01  0.2848E+00
     -2.818  0.5971E-01  0.2914E+00
     -2.716  0.6596E-01  0.2976E+00
     -2.614  0.5868E-01  0.3042E+00
     -2.512  0.5170E-01  0.3100E+00
     -2.410  0.5183E-01  0.3158E+00
     -2.307  0.8377E-01  0.3224E+00
     -2.205  0.7014E-01  0.3304E+00
     -2.103  0.7460E-01  0.3375E+00
     -2.001  0.7452E-01  0.3450E+00
     -1.899  0.7143E-01  0.3525E+00
     -1.797  0.6692E-01  0.3596E+00
     -1.694  0.7882E-01  0.3664E+00
     -1.592  0.7663E-01  0.3750E+00
     -1.490  0.7317E-01  0.3823E+00
     -1.388  0.8535E-01  0.3904E+00
     -1.286  0.6913E-01  0.3981E+00
     -1.184  0.7022E-01  0.4054E+00
     -1.081  0.8888E-01  0.4134E+00
     -0.979  0.7251E-01  0.4218E+00
     -0.877  0.8644E-01  0.4294E+00
     -0.775  0.6647E-01  0.4374E+00
     -0.673  0.7394E-01  0.4446E+00
     -0.571  0.8332E-01  0.4520E+00
     -0.468  0.7523E-01  0.4615E+00
     -0.366  0.6820E-01  0.4680E+00
     -0.264  0.7103E-01  0.4758E+00
     -0.162  0.6622E-01  0.4827E+00
     -0.060  0.7735E-01  0.4898E+00
      0.043  0.7540E-01  0.4977E+00
      0.145  0.7205E-01  0.5053E+00
      0.247  0.8114E-01  0.5128E+00
      0.349  0.8577E-01  0.5216E+00
      0.451  0.7860E-01  0.5295E+00
      0.553  0.8313E-01  0.5383E+00
      0.656  0.7408E-01  0.5458E+00
      0.758  0.9383E-01  0.5546E+00
      0.860  0.7341E-01  0.5631E+00
      0.962  0.8162E-01  0.5713E+00
      1.064  0.6702E-01  0.5788E+00
      1.166  0.6532E-01  0.5856E+00
      1.269  0.7815E-01  0.5929E+00
      1.371  0.7047E-01  0.6003E+00
      1.473  0.7232E-01  0.6080E+00
      1.575  0.6420E-01  0.6149E+00
      1.677  0.6979E-01  0.6219E+00
      1.779  0.6671E-01  0.6289E+00
      1.882  0.8991E-01  0.6371E+00
      1.984  0.8600E-01  0.6455E+00
      2.086  0.1010E+00  0.6556E+00
      2.188  0.9043E-01  0.6654E+00
      2.290  0.1153E+00  0.6755E+00
      2.393  0.1125E+00  0.6862E+00
      2.495  0.1151E+00  0.6981E+00
      2.597  0.1226E+00  0.7100E+00
      2.699  0.1085E+00  0.7215E+00
      2.801  0.1160E+00  0.7331E+00
      2.903  0.1086E+00  0.7453E+00
      3.006  0.1070E+00  0.7562E+00
      3.108  0.1020E+00  0.7670E+00
      3.210  0.1069E+00  0.7775E+00
      3.312  0.9386E-01  0.7872E+00
      3.414  0.9788E-01  0.7976E+00
      3.516  0.8021E-01  0.8064E+00
      3.619  0.1000E+00  0.8162E+00
      3.721  0.9849E-01  0.8254E+00
      3.823  0.1019E+00  0.8352E+00
      3.925  0.9646E-01  0.8452E+00
      4.027  0.8767E-01  0.8529E+00
      4.130  0.9201E-01  0.8626E+00
      4.232  0.1141E+00  0.8740E+00
      4.334  0.1005E+00  0.8830E+00
      4.436  0.9222E-01  0.8945E+00
      4.538  0.7210E-01  0.9012E+00
      4.640  0.7852E-01  0.9109E+00
      4.743  0.8531E-01  0.9184E+00
      4.845  0.6885E-01  0.9256E+00
      4.947  0.6778E-01  0.9321E+00
      5.049  0.6628E-01  0.9390E+00
      5.151  0.5283E-01  0.9450E+00
      5.253  0.3320E-01  0.9496E+00
      5.356  0.1418E-01  0.9518E+00
      5.458  0.1526E-01  0.9532E+00
      5.560  0.1883E-01  0.9550E+00
      5.662  0.2132E-01  0.9572E+00
      5.764  0.1525E-01  0.9590E+00
      5.866  0.2778E-02  0.9600E+00
      5.969  0.0000E+00  0.9600E+00
      6.071  0.0000E+00  0.9600E+00
      6.173  0.0000E+00  0.9600E+00
      6.275  0.8684E-05  0.9600E+00
      6.377  0.3831E-02  0.9602E+00
      6.480  0.1055E-01  0.9608E+00
      6.582  0.4672E-01  0.9633E+00
      6.684  0.5093E-01  0.9695E+00
      6.786  0.4374E-01  0.9739E+00
      6.888  0.9468E-01  0.9813E+00
      6.990  0.6669E-01  0.9895E+00
      7.093  0.5055E-01  0.9955E+00
      7.195  0.2061E-01  0.9986E+00
      7.297  0.0000E+00  0.1000E+01
      7.399  0.0000E+00  0.1000E+01
      7.501  0.0000E+00  0.1000E+01
      7.603  0.7395E-01  0.1002E+01
      7.706  0.7270E-01  0.1011E+01
      7.808  0.4330E-01  0.1018E+01
      7.910  0.7710E-02  0.1020E+01
      8.012  0.6493E-01  0.1023E+01
      8.114  0.6873E-01  0.1030E+01
      8.216  0.3664E-01  0.1036E+01
      8.319  0.2121E-01  0.1039E+01
      8.421  0.6987E-02  0.1040E+01
      8.523  0.1635E-01  0.1041E+01
      8.625  0.1761E-01  0.1043E+01
      8.727  0.1904E-01  0.1045E+01
      8.830  0.2936E-01  0.1047E+01
      8.932  0.3915E-01  0.1051E+01
      9.034  0.5224E-01  0.1055E+01
      9.136  0.4584E-01  0.1060E+01
      9.238  0.5067E-01  0.1065E+01
      9.340  0.6312E-01  0.1071E+01
      9.443  0.5493E-01  0.1077E+01
      9.545  0.5336E-01  0.1082E+01
      9.647  0.6063E-01  0.1088E+01
      9.749  0.7061E-01  0.1095E+01
      9.851  0.6522E-01  0.1102E+01
      9.953  0.7081E-01  0.1109E+01
     10.056  0.7735E-01  0.1117E+01
     10.158  0.5879E-01  0.1124E+01
     10.260  0.8356E-01  0.1131E+01
     10.362  0.7798E-01  0.1139E+01
     10.464  0.8429E-01  0.1148E+01
     10.567  0.7294E-01  0.1155E+01
     10.669  0.9070E-01  0.1163E+01
     10.771  0.7899E-01  0.1173E+01
     10.873  0.7938E-01  0.1180E+01
     10.975  0.6544E-01  0.1188E+01
     11.077  0.6303E-01  0.1194E+01
     11.180  0.6003E-01  0.1201E+01
     11.282  0.5059E-01  0.1207E+01
     11.384  0.5773E-01  0.1212E+01
     11.486  0.7780E-01  0.1219E+01
     11.588  0.5780E-01  0.1226E+01
     11.690  0.5969E-01  0.1232E+01
     11.793  0.5566E-01  0.1238E+01
     11.895  0.4815E-01  0.1243E+01
     11.997  0.5193E-01  0.1248E+01
     12.099  0.4806E-01  0.1253E+01
     12.201  0.4143E-01  0.1258E+01
     12.303  0.3968E-01  0.1262E+01
     12.406  0.3636E-01  0.1266E+01
     12.508  0.4382E-01  0.1269E+01
     12.610  0.5830E-01  0.1275E+01
     12.712  0.6579E-01  0.1281E+01
     12.814  0.6597E-01  0.1288E+01
     12.917  0.7188E-01  0.1295E+01
     13.019  0.7961E-01  0.1303E+01
     13.121  0.9465E-01  0.1312E+01
     13.223  0.9322E-01  0.1321E+01
     13.325  0.1044E+00  0.1331E+01
     13.427  0.8324E-01  0.1341E+01
     13.530  0.1057E+00  0.1350E+01
     13.632  0.8521E-01  0.1359E+01
     13.734  0.1003E+00  0.1369E+01
     13.836  0.9740E-01  0.1379E+01
     13.938  0.9638E-01  0.1389E+01
     14.040  0.8108E-01  0.1398E+01
     14.143  0.8940E-01  0.1407E+01
     14.245  0.8173E-01  0.1415E+01
     14.347  0.7554E-01  0.1423E+01
     14.449  0.5604E-01  0.1430E+01
     14.551  0.5222E-01  0.1435E+01
     14.653  0.1701E-01  0.1439E+01
     14.756  0.5288E-02  0.1440E+01
     14.858  0.3081E-03  0.1440E+01
     14.960  0.0000E+00  0.1440E+01
     15.062  0.0000E+00  0.1440E+01
     15.164  0.0000E+00  0.1440E+01
     15.267  0.0000E+00  0.1440E+01
     15.369  0.0000E+00  0.1440E+01
     15.471  0.0000E+00  0.1440E+01
     15.573  0.0000E+00  0.1440E+01
     15.675  0.0000E+00  0.1440E+01
     15.777  0.0000E+00  0.1440E+01
     15.880  0.0000E+00  0.1440E+01
     15.982  0.0000E+00  0.1440E+01
     16.084  0.0000E+00  0.1440E+01
     16.186  0.0000E+00  0.1440E+01
     16.288  0.0000E+00  0.1440E+01
     16.390  0.0000E+00  0.1440E+01
     16.493  0.0000E+00  0.1440E+01
     16.595  0.0000E+00  0.1440E+01
     16.697  0.0000E+00  0.1440E+01
     16.799  0.0000E+00  0.1440E+01
     16.901  0.0000E+00  0.1440E+01
