 B  C 
 1.0000000000000000
     9.8729736134594894    0.0000000000000000    0.0000000000000000
     2.0530994489044225    4.4267623923685777    0.0000000000000000
     2.7288755759141887    1.8557039029679825    4.8819978382305154
 B   C  
  23   7
Cartesian
  5.3930595138332666  5.0476683409737664  3.9124977817655040
 10.3324174938505724  5.0594201898066498  3.9501623260670962
  6.4770921104929968  4.1494768184243034  1.5490805148553100
 11.4165750003202344  4.1319293320845940  1.5082302260965348
  6.8412965647940034  2.8751898106872202  3.9686300145805036
 11.7597319064722754  2.8614668781770920  3.9268235462562200
  4.3216502519556821  1.2397528309132080  0.9680575513083812
  9.2739310808577518  1.2131174379989131  0.9431034786053252
  3.2369700722354748  2.1448931801123980  3.3220098368091526
  8.1858108139261141  2.1356102212386476  3.3915182366640684
  7.8357051878296184  3.4140929359200256  0.9686192561836089
  8.0763894757086341  6.2299398860352655  4.8793414210539474
 13.0014296380100163  6.2373637139860980  4.8508794719390638
  8.7889394779408665  5.6417278077556912  3.2991753146299567
 13.7217780501230369  5.6212270867821337  3.2647622070266427
  9.0077474189198359  4.8074974504447043  4.8751624640370848
 13.9232888856433483  4.8056438097901362  4.8378510107019439
  1.6606880218106703  0.0364262318939476  0.0017747571221421
  6.5955317488587646  0.0380287788916829  0.0508130946610020
  0.9424543927251419  0.6241585631769817  1.5873493744640739
  5.8754604799679440  0.6534856007879946  1.6412549002780088
  0.7271595443684734  1.4532140286748827  0.0212449742823016
  5.6696710146048410  1.4667185978679727  0.0547811717280377
  2.8420835928039105  3.4310189332362184  0.8772242646098878
  5.9493880090626554  3.8066358928958581  3.0257434838010209
 10.8864261278046506  3.8216042503394534  2.9759574636757642
  3.7157421182759642  2.5384551079324567  1.8143854182702688
  8.7279500168763846  2.4410988550470418  1.9077147723227694
  4.8438367767174419  3.1721887362324419  2.4027077962872108
  9.7940265401032782  3.1379441145701499  2.4531122147304538
