       N       E                     dE             d eps       ncg     rms          rms(c)
DAV:   1     0.952166438798E+02    0.95217E+02   -0.21014E+04 46528   0.114E+03
DAV:   2    -0.109461700923E+03   -0.20468E+03   -0.20355E+03 64144   0.217E+02
DAV:   3    -0.114433392093E+03   -0.49717E+01   -0.49479E+01 66624   0.391E+01
DAV:   4    -0.114471992962E+03   -0.38601E-01   -0.38590E-01 65360   0.343E+00
DAV:   5    -0.114472674136E+03   -0.68117E-03   -0.68113E-03 67632   0.419E-01    0.136E+01
DAV:   6    -0.109746373014E+03    0.47263E+01   -0.84319E+00 63088   0.126E+01    0.750E+00
DAV:   7    -0.108672198738E+03    0.10742E+01   -0.24603E+00 65152   0.735E+00    0.301E+00
DAV:   8    -0.108601447723E+03    0.70751E-01   -0.29212E-01 68656   0.272E+00    0.984E-01
DAV:   9    -0.108602534900E+03   -0.10872E-02   -0.23729E-02 64848   0.811E-01    0.238E-01
DAV:  10    -0.108603407502E+03   -0.87260E-03   -0.31003E-03 67824   0.301E-01    0.731E-02
DAV:  11    -0.108603598737E+03   -0.19124E-03   -0.45909E-04 66496   0.121E-01    0.246E-02
DAV:  12    -0.108603630420E+03   -0.31682E-04   -0.54127E-05 68224   0.428E-02    0.108E-02
DAV:  13    -0.108603637810E+03   -0.73906E-05   -0.11061E-05 66128   0.195E-02    0.512E-03
DAV:  14    -0.108603638981E+03   -0.11707E-05   -0.18393E-06 68992   0.820E-03    0.137E-03
DAV:  15    -0.108603639088E+03   -0.10765E-06   -0.25844E-07 67200   0.288E-03    0.545E-04
DAV:  16    -0.108603639154E+03   -0.65429E-07   -0.35676E-08 68336   0.104E-03    0.154E-04
DAV:  17    -0.108603639155E+03   -0.13388E-08   -0.27353E-09 48784   0.288E-04
   1 F= -.10860364E+03 E0= -.10860364E+03  d E =0.000000E+00
       N       E                     dE             d eps       ncg     rms          rms(c)
DAV:   1    -0.108603639158E+03   -0.38353E-08   -0.51885E-10 43408   0.129E-04    0.693E-05
DAV:   2    -0.108603639157E+03    0.11973E-08   -0.71969E-11 40672   0.495E-05    0.666E-05
DAV:   3    -0.108603639158E+03   -0.13983E-08   -0.13996E-11 38240   0.235E-05    0.653E-05
DAV:   4    -0.108603639158E+03    0.90040E-10   -0.30083E-12 36208   0.115E-05    0.651E-05
DAV:   5    -0.108603639157E+03    0.90222E-09   -0.51924E-14 34480   0.498E-06    0.651E-05
DAV:   6    -0.108603639158E+03   -0.94542E-09    0.75816E-13 33248   0.204E-06
   2 F= -.10860364E+03 E0= -.10860364E+03  d E =0.000000E+00
       N       E                     dE             d eps       ncg     rms          rms(c)
DAV:   1    -0.108603639158E+03   -0.86675E-09    0.24344E-13 31984   0.879E-07    0.651E-05
DAV:   2    -0.108603639157E+03    0.10568E-08    0.12935E-12 30720   0.407E-07    0.651E-05
DAV:   3    -0.108603639157E+03   -0.24193E-09    0.71573E-13 29584   0.215E-07    0.651E-05
DAV:   4    -0.108603639158E+03   -0.94042E-09    0.10482E-12 28672   0.113E-07    0.651E-05
DAV:   5    -0.108603639158E+03    0.45702E-09    0.80996E-13 27968   0.629E-08    0.651E-05
DAV:   6    -0.108603639158E+03   -0.70486E-10    0.71752E-13 26992   0.342E-08
   3 F= -.10860364E+03 E0= -.10860364E+03  d E =0.000000E+00
       N       E                     dE             d eps       ncg     rms          rms(c)
DAV:   1    -0.108603639158E+03   -0.39290E-09    0.10989E-12 26656   0.192E-08    0.651E-05
DAV:   2    -0.108603639157E+03    0.68076E-09    0.39546E-13 26272   0.112E-08    0.651E-05
DAV:   3    -0.108603639158E+03   -0.37426E-09    0.56366E-13 25792   0.668E-09    0.651E-05
DAV:   4    -0.108603639157E+03    0.52205E-09    0.15543E-13 25392   0.438E-09    0.651E-05
DAV:   5    -0.108603639157E+03    0.30059E-09    0.81525E-13 25056   0.269E-09    0.651E-05
DAV:   6    -0.108603639157E+03   -0.67303E-09    0.16806E-13 24800   0.158E-09
   4 F= -.10860364E+03 E0= -.10860364E+03  d E =0.000000E+00
       N       E                     dE             d eps       ncg     rms          rms(c)
DAV:   1    -0.108603639158E+03   -0.12278E-08   -0.35835E-13 24656   0.104E-09    0.651E-05
DAV:   2    -0.108603639157E+03    0.11460E-08    0.22475E-13 24608   0.133E-09    0.651E-05
DAV:   3    -0.108603639157E+03   -0.30832E-09    0.33588E-13 24480   0.837E-10    0.651E-05
DAV:   4    -0.108603639158E+03   -0.36471E-09    0.84919E-13 24272   0.401E-10    0.651E-05
DAV:   5    -0.108603639157E+03    0.57753E-09    0.11170E-12 24192   0.349E-10    0.651E-05
DAV:   6    -0.108603639158E+03   -0.83128E-09    0.12480E-12 24144   0.294E-10
   5 F= -.10860364E+03 E0= -.10860364E+03  d E =0.000000E+00
       N       E                     dE             d eps       ncg     rms          rms(c)
DAV:   1    -0.108603639157E+03   -0.13279E-09    0.20373E-13 24080   0.282E-10    0.651E-05
DAV:   2    -0.108603639157E+03   -0.32060E-09    0.15367E-12 23936   0.292E-10    0.651E-05
DAV:   3    -0.108603639158E+03   -0.56889E-09    0.14823E-12 23856   0.210E-10    0.651E-05
DAV:   4    -0.108603639158E+03    0.37653E-09    0.55177E-13 23824   0.180E-10    0.651E-05
DAV:   5    -0.108603639157E+03    0.98044E-09    0.64881E-13 23760   0.143E-10    0.651E-05
DAV:   6    -0.108603639158E+03   -0.11705E-08    0.91684E-13 23712   0.200E-10
   6 F= -.10860364E+03 E0= -.10860364E+03  d E =0.000000E+00
       N       E                     dE             d eps       ncg     rms          rms(c)
DAV:   1    -0.108603639158E+03   -0.12233E-08    0.97931E-13 23696   0.238E-10    0.651E-05
DAV:   2    -0.108603639157E+03    0.12215E-08    0.14560E-12 23696   0.478E-10    0.651E-05
DAV:   3    -0.108603639157E+03   -0.75943E-09    0.40695E-13 23696   0.484E-10    0.651E-05
DAV:   4    -0.108603639158E+03   -0.52614E-09    0.10460E-12 23696   0.191E-10    0.651E-05
DAV:   5    -0.108603639157E+03    0.10950E-08    0.89251E-13 23696   0.101E-10    0.651E-05
DAV:   6    -0.108603639158E+03   -0.95451E-09    0.39652E-13 23696   0.315E-10
   7 F= -.10860364E+03 E0= -.10860364E+03  d E =0.000000E+00
       N       E                     dE             d eps       ncg     rms          rms(c)
DAV:   1    -0.108603639157E+03   -0.54115E-09    0.72922E-13 23664   0.343E-10    0.651E-05
DAV:   2    -0.108603639157E+03   -0.15370E-09    0.59125E-13 23648   0.110E-10    0.651E-05
DAV:   3    -0.108603639158E+03   -0.31423E-09    0.16015E-12 23616   0.101E-10    0.651E-05
DAV:   4    -0.108603639157E+03    0.88403E-09    0.10152E-12 23568   0.122E-10    0.651E-05
DAV:   5    -0.108603639157E+03    0.26557E-09    0.90789E-13 23520   0.224E-10    0.651E-05
DAV:   6    -0.108603639157E+03   -0.21828E-09    0.12618E-12 23488   0.192E-10
   8 F= -.10860364E+03 E0= -.10860364E+03  d E =0.000000E+00
       N       E                     dE             d eps       ncg     rms          rms(c)
DAV:   1    -0.108603639157E+03   -0.21828E-09    0.69227E-13 23424   0.262E-10    0.651E-05
DAV:   2    -0.108603639158E+03   -0.74397E-09    0.73610E-13 23376   0.370E-10    0.651E-05
DAV:   3    -0.108603639157E+03    0.53433E-09    0.41839E-13 23360   0.320E-10    0.651E-05
DAV:   4    -0.108603639157E+03    0.32651E-09    0.14251E-12 23360   0.332E-10    0.651E-05
DAV:   5    -0.108603639157E+03   -0.11869E-09    0.10570E-12 23360   0.344E-10    0.651E-05
DAV:   6    -0.108603639158E+03   -0.68258E-09    0.62528E-13 23360   0.841E-11
   9 F= -.10860364E+03 E0= -.10860364E+03  d E =0.000000E+00
       N       E                     dE             d eps       ncg     rms          rms(c)
DAV:   1    -0.108603639157E+03   -0.30013E-10    0.10443E-12 23360   0.302E-10    0.651E-05
DAV:   2    -0.108603639157E+03   -0.32378E-09    0.67220E-13 23328   0.236E-10    0.651E-05
DAV:   3    -0.108603639158E+03   -0.47839E-09    0.69877E-13 23312   0.221E-10    0.651E-05
DAV:   4    -0.108603639158E+03   -0.15007E-09    0.10015E-12 23312   0.325E-10    0.651E-05
DAV:   5    -0.108603639157E+03    0.49840E-09    0.98751E-13 23312   0.345E-10    0.651E-05
DAV:   6    -0.108603639158E+03   -0.57298E-09    0.39197E-13 23296   0.119E-10
  10 F= -.10860364E+03 E0= -.10860364E+03  d E =0.000000E+00
       N       E                     dE             d eps       ncg     rms          rms(c)
DAV:   1    -0.108603639158E+03   -0.49204E-09    0.78764E-13 23264   0.189E-10    0.651E-05
DAV:   2    -0.108603639157E+03    0.91677E-09    0.62053E-13 23264   0.569E-10    0.651E-05
DAV:   3    -0.108603639158E+03   -0.79672E-09    0.16179E-13 23264   0.364E-10    0.651E-05
DAV:   4    -0.108603639157E+03    0.57480E-09    0.81386E-13 23264   0.184E-10    0.651E-05
DAV:   5    -0.108603639158E+03   -0.69940E-09    0.40822E-13 23264   0.240E-10    0.651E-05
DAV:   6    -0.108603639157E+03    0.79217E-09    0.11557E-12 23264   0.143E-10
  11 F= -.10860364E+03 E0= -.10860364E+03  d E =0.000000E+00
       N       E                     dE             d eps       ncg     rms          rms(c)
DAV:   1    -0.108603639157E+03    0.90768E-09    0.92545E-13 23264   0.192E-10    0.651E-05
DAV:   2    -0.108603639158E+03   -0.60754E-09    0.76668E-13 23264   0.321E-10    0.651E-05
DAV:   3    -0.108603639158E+03   -0.20918E-10    0.57219E-13 23264   0.271E-10    0.651E-05
DAV:   4    -0.108603639158E+03   -0.13642E-11   -0.39587E-14 23264   0.145E-10    0.651E-05
DAV:   5    -0.108603639157E+03    0.82355E-09    0.11460E-12 23264   0.121E-10    0.651E-05
DAV:   6    -0.108603639158E+03   -0.82673E-09    0.41119E-13 23264   0.192E-10
  12 F= -.10860364E+03 E0= -.10860364E+03  d E =0.000000E+00
       N       E                     dE             d eps       ncg     rms          rms(c)
DAV:   1    -0.108603639157E+03   -0.48021E-09    0.92177E-13 23264   0.165E-10    0.651E-05
DAV:   2    -0.108603639158E+03   -0.43838E-09    0.64916E-13 23264   0.138E-10    0.651E-05
DAV:   3    -0.108603639157E+03    0.31105E-09    0.71016E-13 23264   0.151E-10    0.651E-05
DAV:   4    -0.108603639158E+03   -0.34470E-09    0.66744E-13 23264   0.171E-10    0.651E-05
DAV:   5    -0.108603639157E+03    0.39836E-09    0.10435E-13 23264   0.118E-10    0.651E-05
DAV:   6    -0.108603639157E+03    0.21782E-09    0.11402E-12 23264   0.930E-11
  13 F= -.10860364E+03 E0= -.10860364E+03  d E =0.000000E+00
       N       E                     dE             d eps       ncg     rms          rms(c)
DAV:   1    -0.108603639157E+03    0.49158E-09    0.86907E-13 23264   0.107E-10    0.651E-05
DAV:   2    -0.108603639158E+03   -0.10318E-08    0.58044E-13 23264   0.329E-10    0.651E-05
DAV:   3    -0.108603639158E+03   -0.13006E-09    0.67207E-13 23264   0.304E-10    0.651E-05
DAV:   4    -0.108603639157E+03    0.48749E-09    0.93193E-13 23264   0.121E-10    0.651E-05
DAV:   5    -0.108603639158E+03   -0.25466E-10    0.97366E-13 23264   0.175E-10    0.651E-05
DAV:   6    -0.108603639157E+03    0.67848E-09    0.10327E-12 23264   0.752E-11
  14 F= -.10860364E+03 E0= -.10860364E+03  d E =0.000000E+00
       N       E                     dE             d eps       ncg     rms          rms(c)
DAV:   1    -0.108603639158E+03   -0.37926E-09    0.10290E-12 23264   0.305E-10    0.651E-05
DAV:   2    -0.108603639158E+03    0.20191E-09    0.12193E-12 23264   0.702E-10    0.651E-05
DAV:   3    -0.108603639157E+03    0.27376E-09    0.11259E-12 23264   0.320E-10    0.651E-05
DAV:   4    -0.108603639157E+03    0.65393E-09    0.15688E-13 23264   0.244E-10    0.651E-05
DAV:   5    -0.108603639157E+03   -0.80036E-10   -0.53315E-13 23264   0.180E-10    0.651E-05
DAV:   6    -0.108603639157E+03   -0.29877E-09    0.72487E-13 23264   0.250E-10
  15 F= -.10860364E+03 E0= -.10860364E+03  d E =0.000000E+00
       N       E                     dE             d eps       ncg     rms          rms(c)
DAV:   1    -0.108603639158E+03   -0.10441E-08    0.10871E-12 23264   0.406E-10    0.651E-05
DAV:   2    -0.108603639158E+03    0.27285E-09    0.70195E-13 23264   0.481E-10    0.651E-05
DAV:   3    -0.108603639158E+03   -0.28922E-09    0.76768E-13 23264   0.249E-10    0.651E-05
DAV:   4    -0.108603639157E+03    0.10705E-08    0.11440E-12 23264   0.247E-10    0.651E-05
DAV:   5    -0.108603639157E+03    0.89585E-10    0.77552E-13 23264   0.369E-10    0.651E-05
DAV:   6    -0.108603639157E+03   -0.57616E-09    0.79601E-13 23264   0.273E-10
  16 F= -.10860364E+03 E0= -.10860364E+03  d E =0.000000E+00
       N       E                     dE             d eps       ncg     rms          rms(c)
DAV:   1    -0.108603639157E+03   -0.30968E-09    0.53297E-13 23264   0.232E-10    0.651E-05
DAV:   2    -0.108603639158E+03   -0.54479E-09    0.49107E-13 23264   0.410E-10    0.651E-05
DAV:   3    -0.108603639158E+03   -0.39472E-09    0.11116E-12 23264   0.275E-10    0.651E-05
DAV:   4    -0.108603639157E+03    0.82855E-09    0.86407E-13 23264   0.356E-10    0.651E-05
DAV:   5    -0.108603639157E+03    0.17417E-09    0.71228E-13 23264   0.239E-10    0.651E-05
DAV:   6    -0.108603639158E+03   -0.96043E-09    0.86267E-13 23264   0.158E-10
  17 F= -.10860364E+03 E0= -.10860364E+03  d E =0.000000E+00
       N       E                     dE             d eps       ncg     rms          rms(c)
DAV:   1    -0.108603639157E+03    0.25648E-09    0.35649E-13 23264   0.184E-10    0.651E-05
DAV:   2    -0.108603639158E+03   -0.96861E-09    0.10492E-12 23264   0.626E-10    0.651E-05
DAV:   3    -0.108603639157E+03    0.90222E-09    0.99878E-13 23264   0.380E-10    0.651E-05
DAV:   4    -0.108603639157E+03   -0.28649E-10    0.79987E-13 23264   0.241E-10    0.651E-05
DAV:   5    -0.108603639157E+03   -0.64392E-09    0.26953E-13 23264   0.138E-10    0.651E-05
DAV:   6    -0.108603639158E+03   -0.21919E-09    0.87997E-13 23264   0.213E-10
  18 F= -.10860364E+03 E0= -.10860364E+03  d E =0.000000E+00
       N       E                     dE             d eps       ncg     rms          rms(c)
DAV:   1    -0.108603639157E+03    0.22283E-09    0.13229E-12 23264   0.210E-10    0.651E-05
DAV:   2    -0.108603639157E+03   -0.54115E-10    0.14082E-12 23264   0.345E-10    0.651E-05
DAV:   3    -0.108603639158E+03   -0.35470E-09    0.12690E-12 23264   0.191E-10    0.651E-05
DAV:   4    -0.108603639158E+03    0.40927E-11    0.78202E-13 23264   0.865E-11    0.651E-05
DAV:   5    -0.108603639158E+03   -0.80945E-10    0.11613E-12 23264   0.105E-10    0.651E-05
DAV:   6    -0.108603639157E+03    0.60845E-09    0.11466E-12 23264   0.963E-11
  19 F= -.10860364E+03 E0= -.10860364E+03  d E =0.000000E+00
       N       E                     dE             d eps       ncg     rms          rms(c)
DAV:   1    -0.108603639157E+03    0.87766E-09    0.86185E-13 23264   0.107E-10    0.651E-05
DAV:   2    -0.108603639157E+03   -0.21691E-09    0.64575E-13 23264   0.319E-10    0.651E-05
DAV:   3    -0.108603639157E+03   -0.39245E-09    0.73372E-13 23264   0.304E-10    0.651E-05
DAV:   4    -0.108603639158E+03   -0.85947E-10    0.46777E-13 23264   0.134E-10    0.651E-05
DAV:   5    -0.108603639157E+03    0.76670E-09    0.10048E-12 23264   0.104E-10    0.651E-05
DAV:   6    -0.108603639157E+03   -0.67985E-09    0.63922E-13 23264   0.186E-10
  20 F= -.10860364E+03 E0= -.10860364E+03  d E =0.000000E+00
       N       E                     dE             d eps       ncg     rms          rms(c)
DAV:   1    -0.108603639157E+03   -0.63665E-09    0.85063E-13 23264   0.161E-10    0.651E-05
DAV:   2    -0.108603639157E+03    0.35880E-09    0.10866E-12 23264   0.364E-10    0.651E-05
DAV:   3    -0.108603639157E+03   -0.37289E-10    0.55049E-13 23264   0.406E-10    0.651E-05
DAV:   4    -0.108603639157E+03   -0.18463E-09    0.83955E-13 23264   0.273E-10    0.651E-05
DAV:   5    -0.108603639157E+03   -0.19827E-09    0.87396E-13 23264   0.973E-11    0.651E-05
DAV:   6    -0.108603639158E+03   -0.30832E-09    0.10229E-12 23264   0.116E-10
  21 F= -.10860364E+03 E0= -.10860364E+03  d E =0.000000E+00
       N       E                     dE             d eps       ncg     rms          rms(c)
DAV:   1    -0.108603639157E+03    0.55979E-09    0.10400E-12 23264   0.188E-10    0.651E-05
DAV:   2    -0.108603639157E+03   -0.24966E-09    0.10478E-12 23264   0.359E-10    0.651E-05
DAV:   3    -0.108603639157E+03   -0.96861E-10    0.76203E-13 23264   0.210E-10    0.651E-05
DAV:   4    -0.108603639157E+03   -0.65938E-10    0.62593E-13 23264   0.144E-10    0.651E-05
DAV:   5    -0.108603639157E+03    0.41746E-09    0.74082E-13 23264   0.153E-10    0.651E-05
DAV:   6    -0.108603639157E+03    0.15780E-09    0.58032E-13 23264   0.169E-10
  22 F= -.10860364E+03 E0= -.10860364E+03  d E =0.000000E+00
       N       E                     dE             d eps       ncg     rms          rms(c)
DAV:   1    -0.108603639157E+03   -0.62755E-10    0.94433E-13 23264   0.105E-10    0.651E-05
DAV:   2    -0.108603639157E+03    0.39336E-09    0.66969E-13 23264   0.166E-10    0.651E-05
DAV:   3    -0.108603639157E+03   -0.49067E-09    0.10107E-12 23264   0.287E-10    0.651E-05
DAV:   4    -0.108603639157E+03   -0.16826E-10    0.93552E-13 23264   0.208E-10    0.651E-05
DAV:   5    -0.108603639157E+03   -0.26830E-10    0.10146E-12 23264   0.239E-10    0.651E-05
DAV:   6    -0.108603639157E+03    0.23920E-09    0.10882E-12 23264   0.250E-10
  23 F= -.10860364E+03 E0= -.10860364E+03  d E =0.000000E+00
       N       E                     dE             d eps       ncg     rms          rms(c)
DAV:   1    -0.108603639157E+03    0.30468E-09    0.72387E-13 23264   0.250E-10    0.651E-05
DAV:   2    -0.108603639157E+03   -0.63119E-09    0.84551E-13 23264   0.393E-10    0.651E-05
DAV:   3    -0.108603639157E+03    0.63483E-09    0.80000E-13 23264   0.291E-10    0.651E-05
DAV:   4    -0.108603639157E+03   -0.11596E-09    0.64188E-13 23264   0.192E-10    0.651E-05
DAV:   5    -0.108603639157E+03    0.29058E-09    0.11115E-12 23264   0.111E-10    0.651E-05
DAV:   6    -0.108603639157E+03   -0.63028E-09    0.91014E-14 23264   0.128E-10
  24 F= -.10860364E+03 E0= -.10860364E+03  d E =0.000000E+00
       N       E                     dE             d eps       ncg     rms          rms(c)
DAV:   1    -0.108603639157E+03    0.16371E-10    0.11182E-12 23264   0.156E-10    0.651E-05
DAV:   2    -0.108603639157E+03   -0.27740E-09    0.85727E-13 23264   0.401E-10    0.651E-05
DAV:   3    -0.108603639157E+03    0.25648E-09    0.74268E-13 23264   0.260E-10    0.651E-05
DAV:   4    -0.108603639157E+03    0.54570E-11    0.70145E-13 23264   0.119E-10    0.651E-05
DAV:   5    -0.108603639157E+03   -0.12597E-09    0.59209E-13 23264   0.107E-10    0.651E-05
DAV:   6    -0.108603639157E+03   -0.59117E-11    0.94679E-13 23264   0.104E-10
  25 F= -.10860364E+03 E0= -.10860364E+03  d E =0.000000E+00
       N       E                     dE             d eps       ncg     rms          rms(c)
DAV:   1    -0.108603639157E+03    0.37744E-10    0.51347E-13 23264   0.251E-10    0.651E-05
DAV:   2    -0.108603639158E+03   -0.11132E-08    0.76780E-13 23264   0.187E-10    0.651E-05
DAV:   3    -0.108603639158E+03   -0.13188E-09    0.79947E-13 23264   0.206E-10    0.651E-05
DAV:   4    -0.108603639158E+03    0.91859E-10    0.83636E-13 23264   0.179E-10    0.651E-05
DAV:   5    -0.108603639158E+03    0.34697E-09    0.49502E-13 23264   0.224E-10    0.651E-05
DAV:   6    -0.108603639157E+03    0.45566E-09    0.85339E-13 23264   0.269E-10
  26 F= -.10860364E+03 E0= -.10860364E+03  d E =0.000000E+00
       N       E                     dE             d eps       ncg     rms          rms(c)
DAV:   1    -0.108603639158E+03   -0.29877E-09    0.86868E-13 23264   0.129E-10    0.651E-05
DAV:   2    -0.108603639157E+03    0.11732E-08    0.88372E-13 23264   0.587E-10    0.651E-05
DAV:   3    -0.108603639158E+03   -0.84492E-09    0.58885E-13 23264   0.457E-10    0.651E-05
DAV:   4    -0.108603639157E+03    0.56116E-09    0.12928E-12 23264   0.292E-10    0.651E-05
DAV:   5    -0.108603639158E+03   -0.98908E-09    0.89251E-13 23264   0.370E-10    0.651E-05
DAV:   6    -0.108603639157E+03    0.76443E-09    0.50779E-13 23264   0.176E-10
  27 F= -.10860364E+03 E0= -.10860364E+03  d E =0.000000E+00
       N       E                     dE             d eps       ncg     rms          rms(c)
DAV:   1    -0.108603639157E+03    0.79535E-09    0.84328E-13 23264   0.416E-10    0.651E-05
DAV:   2    -0.108603639157E+03   -0.20736E-09    0.10028E-12 23264   0.253E-10    0.651E-05
DAV:   3    -0.108603639158E+03   -0.25193E-09    0.13935E-12 23264   0.122E-10    0.651E-05
DAV:   4    -0.108603639158E+03    0.20009E-10    0.85906E-13 23264   0.230E-10    0.651E-05
DAV:   5    -0.108603639157E+03    0.28103E-09    0.81737E-13 23264   0.140E-10    0.651E-05
DAV:   6    -0.108603639157E+03    0.67394E-09    0.53265E-13 23264   0.131E-10
  28 F= -.10860364E+03 E0= -.10860364E+03  d E =0.000000E+00
       N       E                     dE             d eps       ncg     rms          rms(c)
DAV:   1    -0.108603639158E+03   -0.25739E-09    0.72119E-13 23264   0.366E-10    0.651E-05
DAV:   2    -0.108603639158E+03   -0.23556E-09    0.61989E-13 23264   0.657E-10    0.651E-05
DAV:   3    -0.108603639157E+03    0.11914E-08    0.82832E-13 23264   0.473E-10    0.651E-05
DAV:   4    -0.108603639158E+03   -0.12451E-08    0.63552E-13 23264   0.423E-10    0.651E-05
DAV:   5    -0.108603639157E+03    0.11532E-08    0.46203E-13 23264   0.267E-10    0.651E-05
DAV:   6    -0.108603639157E+03   -0.22419E-09    0.56561E-13 23264   0.363E-10
  29 F= -.10860364E+03 E0= -.10860364E+03  d E =0.000000E+00
       N       E                     dE             d eps       ncg     rms          rms(c)
DAV:   1    -0.108603639157E+03   -0.20918E-10    0.12361E-12 23264   0.250E-10    0.651E-05
DAV:   2    -0.108603639158E+03   -0.94224E-09    0.17226E-12 23264   0.347E-10    0.651E-05
DAV:   3    -0.108603639158E+03   -0.66393E-10    0.11200E-12 23264   0.286E-10    0.651E-05
DAV:   4    -0.108603639158E+03   -0.98225E-10    0.79594E-13 23264   0.225E-10    0.651E-05
DAV:   5    -0.108603639158E+03    0.26421E-09    0.97006E-13 23264   0.348E-10    0.651E-05
DAV:   6    -0.108603639157E+03    0.28422E-09    0.10629E-12 23264   0.246E-10
  30 F= -.10860364E+03 E0= -.10860364E+03  d E =0.000000E+00
       N       E                     dE             d eps       ncg     rms          rms(c)
DAV:   1    -0.108603639157E+03    0.82991E-09    0.84578E-13 23264   0.102E-10    0.651E-05
DAV:   2    -0.108603639158E+03   -0.94133E-09    0.95026E-13 23264   0.435E-10    0.651E-05
DAV:   3    -0.108603639157E+03    0.65938E-09    0.62282E-13 23264   0.340E-10    0.651E-05
DAV:   4    -0.108603639158E+03   -0.61209E-09    0.38328E-13 23264   0.167E-10    0.651E-05
DAV:   5    -0.108603639157E+03    0.40654E-09    0.53396E-13 23264   0.183E-10    0.651E-05
DAV:   6    -0.108603639157E+03    0.52114E-09    0.43370E-13 23264   0.277E-10
  31 F= -.10860364E+03 E0= -.10860364E+03  d E =0.000000E+00
       N       E                     dE             d eps       ncg     rms          rms(c)
DAV:   1    -0.108603639158E+03   -0.50113E-09    0.31729E-13 23264   0.103E-10    0.651E-05
DAV:   2    -0.108603639157E+03    0.60618E-09    0.17252E-12 23264   0.511E-10    0.651E-05
DAV:   3    -0.108603639157E+03    0.48794E-09    0.24226E-13 23264   0.414E-10    0.651E-05
DAV:   4    -0.108603639157E+03   -0.14188E-09    0.97043E-13 23264   0.211E-10    0.651E-05
DAV:   5    -0.108603639157E+03   -0.11050E-09    0.11714E-12 23264   0.282E-10    0.651E-05
DAV:   6    -0.108603639158E+03   -0.72714E-09    0.10062E-12 23264   0.993E-11
  32 F= -.10860364E+03 E0= -.10860364E+03  d E =0.000000E+00
       N       E                     dE             d eps       ncg     rms          rms(c)
DAV:   1    -0.108603639157E+03   -0.26330E-09    0.73549E-13 23264   0.154E-10    0.651E-05
DAV:   2    -0.108603639158E+03   -0.51477E-09    0.10092E-12 23264   0.210E-10    0.651E-05
DAV:   3    -0.108603639158E+03    0.34106E-10    0.77046E-13 23264   0.224E-10    0.651E-05
DAV:   4    -0.108603639158E+03   -0.31378E-09    0.77198E-13 23264   0.103E-10    0.651E-05
DAV:   5    -0.108603639158E+03    0.44110E-10    0.72402E-13 23264   0.184E-10    0.651E-05
DAV:   6    -0.108603639158E+03    0.28240E-09    0.86606E-13 23264   0.775E-11
  33 F= -.10860364E+03 E0= -.10860364E+03  d E =0.000000E+00
       N       E                     dE             d eps       ncg     rms          rms(c)
DAV:   1    -0.108603639157E+03    0.80945E-09    0.78707E-13 23264   0.806E-11    0.651E-05
DAV:   2    -0.108603639158E+03   -0.71304E-09    0.81344E-13 23264   0.161E-10    0.651E-05
DAV:   3    -0.108603639157E+03    0.46202E-09    0.69892E-13 23264   0.203E-10    0.651E-05
DAV:   4    -0.108603639158E+03   -0.31287E-09    0.95492E-13 23264   0.130E-10    0.651E-05
DAV:   5    -0.108603639157E+03    0.16098E-09    0.89694E-13 23264   0.188E-10    0.651E-05
DAV:   6    -0.108603639157E+03    0.19827E-09    0.66739E-13 23264   0.147E-10
  34 F= -.10860364E+03 E0= -.10860364E+03  d E =0.000000E+00
       N       E                     dE             d eps       ncg     rms          rms(c)
DAV:   1    -0.108603639158E+03   -0.11187E-09    0.58671E-13 23264   0.151E-10    0.651E-05
DAV:   2    -0.108603639158E+03   -0.12551E-09    0.13445E-12 23264   0.290E-10    0.651E-05
DAV:   3    -0.108603639158E+03    0.21237E-09    0.81684E-13 23264   0.223E-10    0.651E-05
DAV:   4    -0.108603639158E+03   -0.39063E-09    0.13488E-13 23264   0.314E-10    0.651E-05
DAV:   5    -0.108603639158E+03    0.76398E-10    0.17655E-13 23264   0.238E-10    0.651E-05
DAV:   6    -0.108603639157E+03    0.11623E-08    0.97207E-13 23264   0.188E-10
  35 F= -.10860364E+03 E0= -.10860364E+03  d E =0.000000E+00
       N       E                     dE             d eps       ncg     rms          rms(c)
DAV:   1    -0.108603639157E+03    0.56161E-09    0.10240E-12 23264   0.363E-10    0.651E-05
DAV:   2    -0.108603639157E+03    0.55161E-09    0.10274E-12 23264   0.392E-10    0.651E-05
DAV:   3    -0.108603639157E+03   -0.21919E-09    0.77983E-13 23264   0.259E-10    0.651E-05
DAV:   4    -0.108603639158E+03   -0.62573E-09    0.96883E-13 23264   0.370E-10    0.651E-05
DAV:   5    -0.108603639158E+03   -0.15689E-09    0.75777E-13 23264   0.285E-10    0.651E-05
DAV:   6    -0.108603639157E+03    0.64983E-09    0.10364E-12 23264   0.170E-10
  36 F= -.10860364E+03 E0= -.10860364E+03  d E =0.000000E+00
       N       E                     dE             d eps       ncg     rms          rms(c)
DAV:   1    -0.108603639157E+03    0.45611E-09    0.10747E-12 23264   0.222E-10    0.651E-05
DAV:   2    -0.108603639157E+03   -0.22283E-09    0.11483E-12 23264   0.426E-10    0.651E-05
DAV:   3    -0.108603639157E+03   -0.54570E-11    0.98940E-13 23264   0.139E-10    0.651E-05
DAV:   4    -0.108603639157E+03    0.14552E-09    0.11360E-12 23264   0.158E-10    0.651E-05
DAV:   5    -0.108603639158E+03   -0.24238E-09    0.97874E-13 23264   0.103E-10    0.651E-05
DAV:   6    -0.108603639157E+03    0.32287E-09    0.98518E-13 23264   0.935E-11
  37 F= -.10860364E+03 E0= -.10860364E+03  d E =0.000000E+00
       N       E                     dE             d eps       ncg     rms          rms(c)
DAV:   1    -0.108603639158E+03   -0.25329E-09    0.83506E-13 23264   0.163E-10    0.651E-05
DAV:   2    -0.108603639158E+03    0.27376E-09    0.65678E-13 23264   0.557E-10    0.651E-05
DAV:   3    -0.108603639158E+03   -0.23101E-09    0.58162E-13 23264   0.249E-10    0.651E-05
DAV:   4    -0.108603639157E+03    0.89040E-09    0.95321E-14 23264   0.191E-10    0.651E-05
DAV:   5    -0.108603639157E+03   -0.88221E-10    0.18667E-13 23264   0.366E-10    0.651E-05
DAV:   6    -0.108603639158E+03   -0.60754E-09    0.70876E-13 23264   0.290E-10
  38 F= -.10860364E+03 E0= -.10860364E+03  d E =0.000000E+00
       N       E                     dE             d eps       ncg     rms          rms(c)
DAV:   1    -0.108603639157E+03   -0.42928E-09    0.42821E-13 23264   0.161E-10    0.651E-05
DAV:   2    -0.108603639157E+03    0.50022E-10    0.10493E-12 23264   0.154E-10    0.651E-05
DAV:   3    -0.108603639157E+03    0.27603E-09    0.74920E-13 23264   0.205E-10    0.651E-05
DAV:   4    -0.108603639157E+03    0.13779E-09    0.95949E-13 23264   0.219E-10    0.651E-05
DAV:   5    -0.108603639157E+03   -0.19190E-09    0.93041E-13 23264   0.119E-10    0.651E-05
DAV:   6    -0.108603639157E+03    0.11278E-09    0.53003E-13 23264   0.108E-10
  39 F= -.10860364E+03 E0= -.10860364E+03  d E =0.000000E+00
       N       E                     dE             d eps       ncg     rms          rms(c)
DAV:   1    -0.108603639158E+03   -0.43019E-09    0.15285E-13 23264   0.855E-11    0.651E-05
DAV:   2    -0.108603639157E+03    0.66393E-09    0.12904E-12 23264   0.228E-10    0.651E-05
DAV:   3    -0.108603639158E+03   -0.69758E-09    0.28694E-13 23264   0.216E-10    0.651E-05
DAV:   4    -0.108603639157E+03    0.13870E-09    0.97943E-13 23264   0.127E-10    0.651E-05
DAV:   5    -0.108603639158E+03   -0.11732E-09    0.11129E-12 23264   0.813E-11    0.651E-05
DAV:   6    -0.108603639157E+03    0.11869E-09    0.72643E-13 23264   0.676E-11
  40 F= -.10860364E+03 E0= -.10860364E+03  d E =0.000000E+00
       N       E                     dE             d eps       ncg     rms          rms(c)
DAV:   1    -0.108603639157E+03    0.43974E-09    0.49375E-13 23264   0.843E-11    0.651E-05
DAV:   2    -0.108603639157E+03    0.67303E-10    0.98312E-13 23264   0.418E-10    0.651E-05
DAV:   3    -0.108603639158E+03   -0.92587E-09    0.14122E-12 23264   0.196E-10    0.651E-05
DAV:   4    -0.108603639158E+03    0.46020E-09    0.11118E-12 23264   0.293E-10    0.651E-05
DAV:   5    -0.108603639158E+03   -0.70031E-10    0.11812E-12 23264   0.225E-10    0.651E-05
DAV:   6    -0.108603639157E+03    0.27512E-09    0.83452E-13 23264   0.171E-10
  41 F= -.10860364E+03 E0= -.10860364E+03  d E =0.000000E+00
       N       E                     dE             d eps       ncg     rms          rms(c)
DAV:   1    -0.108603639157E+03    0.97725E-09    0.76272E-13 23264   0.190E-10    0.651E-05
DAV:   2    -0.108603639158E+03   -0.10382E-08    0.73750E-13 23264   0.539E-10    0.651E-05
DAV:   3    -0.108603639157E+03    0.25602E-09   -0.12497E-13 23264   0.365E-10    0.651E-05
DAV:   4    -0.108603639158E+03   -0.36880E-09    0.10498E-12 23264   0.214E-10    0.651E-05
DAV:   5    -0.108603639158E+03    0.64574E-10    0.14501E-13 23264   0.132E-10    0.651E-05
DAV:   6    -0.108603639157E+03    0.60481E-09    0.15059E-12 23264   0.129E-10
  42 F= -.10860364E+03 E0= -.10860364E+03  d E =0.000000E+00
       N       E                     dE             d eps       ncg     rms          rms(c)
DAV:   1    -0.108603639158E+03    0.14006E-09    0.87602E-13 23264   0.125E-10    0.651E-05
DAV:   2    -0.108603639158E+03   -0.17371E-09    0.12574E-12 23264   0.387E-10    0.651E-05
DAV:   3    -0.108603639157E+03    0.75897E-09    0.11797E-12 23264   0.405E-10    0.651E-05
DAV:   4    -0.108603639157E+03   -0.36152E-09    0.58953E-13 23264   0.298E-10    0.651E-05
DAV:   5    -0.108603639157E+03    0.71577E-09    0.11333E-12 23264   0.128E-10    0.651E-05
DAV:   6    -0.108603639158E+03   -0.13611E-08    0.41408E-13 23264   0.213E-10
  43 F= -.10860364E+03 E0= -.10860364E+03  d E =0.000000E+00
       N       E                     dE             d eps       ncg     rms          rms(c)
DAV:   1    -0.108603639157E+03   -0.25375E-09    0.56972E-13 23264   0.258E-10    0.651E-05
DAV:   2    -0.108603639158E+03   -0.91404E-09    0.36692E-13 23264   0.431E-10    0.651E-05
DAV:   3    -0.108603639157E+03    0.54933E-09    0.76067E-13 23264   0.298E-10    0.651E-05
DAV:   4    -0.108603639158E+03   -0.65620E-09    0.90598E-13 23264   0.147E-10    0.651E-05
DAV:   5    -0.108603639157E+03    0.89221E-09    0.78078E-13 23264   0.295E-10    0.651E-05
DAV:   6    -0.108603639157E+03    0.25966E-09    0.10706E-12 23264   0.277E-10
  44 F= -.10860364E+03 E0= -.10860364E+03  d E =0.000000E+00
       N       E                     dE             d eps       ncg     rms          rms(c)
DAV:   1    -0.108603639158E+03   -0.57344E-09    0.10300E-12 23264   0.148E-10    0.651E-05
DAV:   2    -0.108603639158E+03   -0.29286E-09    0.10441E-12 23264   0.357E-10    0.651E-05
DAV:   3    -0.108603639158E+03    0.12824E-09    0.64134E-13 23264   0.601E-10    0.651E-05
DAV:   4    -0.108603639157E+03    0.11241E-08    0.52211E-13 23264   0.466E-10    0.651E-05
DAV:   5    -0.108603639157E+03   -0.27558E-09    0.56763E-13 23264   0.452E-10    0.651E-05
DAV:   6    -0.108603639158E+03   -0.10118E-08    0.82416E-13 23264   0.281E-10
  45 F= -.10860364E+03 E0= -.10860364E+03  d E =0.000000E+00
       N       E                     dE             d eps       ncg     rms          rms(c)
DAV:   1    -0.108603639157E+03   -0.13551E-09    0.48280E-13 23264   0.266E-10    0.651E-05
DAV:   2    -0.108603639158E+03   -0.78762E-09    0.14704E-12 23264   0.267E-10    0.651E-05
DAV:   3    -0.108603639158E+03    0.13097E-09    0.85718E-13 23264   0.218E-10    0.651E-05
DAV:   4    -0.108603639158E+03   -0.80036E-10    0.13322E-12 23264   0.189E-10    0.651E-05
DAV:   5    -0.108603639157E+03    0.29922E-09    0.48219E-14 23264   0.834E-11    0.651E-05
DAV:   6    -0.108603639157E+03    0.19600E-09    0.71185E-13 23264   0.228E-10
  46 F= -.10860364E+03 E0= -.10860364E+03  d E =0.000000E+00
       N       E                     dE             d eps       ncg     rms          rms(c)
DAV:   1    -0.108603639157E+03    0.29922E-09    0.12527E-12 23264   0.175E-10    0.651E-05
DAV:   2    -0.108603639158E+03   -0.40836E-09    0.85485E-13 23264   0.136E-10    0.651E-05
DAV:   3    -0.108603639157E+03    0.13006E-09    0.41587E-13 23264   0.110E-10    0.651E-05
DAV:   4    -0.108603639157E+03    0.28922E-09    0.13260E-12 23264   0.116E-10    0.651E-05
DAV:   5    -0.108603639157E+03    0.48931E-09    0.55594E-13 23264   0.174E-10    0.651E-05
DAV:   6    -0.108603639158E+03   -0.86175E-09    0.80311E-13 23264   0.108E-10
  47 F= -.10860364E+03 E0= -.10860364E+03  d E =0.000000E+00
       N       E                     dE             d eps       ncg     rms          rms(c)
DAV:   1    -0.108603639157E+03   -0.71941E-09    0.85762E-13 23264   0.172E-10    0.651E-05
DAV:   2    -0.108603639157E+03    0.47294E-10    0.13733E-12 23264   0.217E-10    0.651E-05
DAV:   3    -0.108603639157E+03    0.53296E-09    0.84188E-13 23264   0.279E-10    0.651E-05
DAV:   4    -0.108603639157E+03   -0.38926E-09    0.93177E-13 23264   0.237E-10    0.651E-05
DAV:   5    -0.108603639157E+03    0.25648E-09    0.80100E-13 23264   0.876E-11    0.651E-05
DAV:   6    -0.108603639157E+03   -0.41382E-09    0.77554E-13 23264   0.176E-10
  48 F= -.10860364E+03 E0= -.10860364E+03  d E =0.000000E+00
       N       E                     dE             d eps       ncg     rms          rms(c)
DAV:   1    -0.108603639157E+03   -0.23647E-09    0.67713E-13 23264   0.118E-10    0.651E-05
DAV:   2    -0.108603639157E+03   -0.13779E-09    0.10410E-12 23264   0.127E-10    0.651E-05
DAV:   3    -0.108603639158E+03   -0.48431E-09    0.77306E-13 23264   0.142E-10    0.651E-05
DAV:   4    -0.108603639157E+03    0.11919E-08    0.88076E-13 23264   0.271E-10    0.651E-05
DAV:   5    -0.108603639157E+03   -0.59254E-09    0.10762E-12 23264   0.228E-10    0.651E-05
DAV:   6    -0.108603639157E+03    0.18736E-09    0.61724E-13 23264   0.146E-10
  49 F= -.10860364E+03 E0= -.10860364E+03  d E =0.000000E+00
       N       E                     dE             d eps       ncg     rms          rms(c)
DAV:   1    -0.108603639157E+03    0.24374E-09    0.72467E-13 23264   0.127E-10    0.651E-05
DAV:   2    -0.108603639157E+03   -0.21600E-09    0.10383E-12 23264   0.249E-10    0.651E-05
DAV:   3    -0.108603639157E+03    0.34152E-09    0.82550E-13 23264   0.154E-10    0.651E-05
DAV:   4    -0.108603639158E+03   -0.11341E-08    0.10115E-12 23264   0.175E-10    0.651E-05
DAV:   5    -0.108603639157E+03    0.76216E-09    0.38198E-13 23264   0.222E-10    0.651E-05
DAV:   6    -0.108603639158E+03   -0.39154E-09    0.97425E-13 23264   0.269E-10
  50 F= -.10860364E+03 E0= -.10860364E+03  d E =0.000000E+00
       N       E                     dE             d eps       ncg     rms          rms(c)
DAV:   1    -0.108603639158E+03   -0.73942E-09    0.71415E-13 23264   0.214E-10    0.651E-05
DAV:   2    -0.108603639158E+03    0.43656E-09    0.14349E-12 23264   0.660E-10    0.651E-05
DAV:   3    -0.108603639158E+03   -0.17553E-09    0.58293E-13 23264   0.351E-10    0.651E-05
DAV:   4    -0.108603639157E+03    0.89312E-09    0.69882E-13 23264   0.125E-10    0.651E-05
DAV:   5    -0.108603639157E+03   -0.24374E-09    0.64160E-13 23264   0.285E-10    0.651E-05
DAV:   6    -0.108603639157E+03   -0.16280E-09    0.72629E-13 23264   0.233E-10
  51 F= -.10860364E+03 E0= -.10860364E+03  d E =0.000000E+00
       N       E                     dE             d eps       ncg     rms          rms(c)
DAV:   1    -0.108603639157E+03   -0.42292E-09    0.87048E-13 23264   0.172E-10    0.651E-05
DAV:   2    -0.108603639157E+03    0.83810E-09    0.12540E-12 23264   0.224E-10    0.651E-05
DAV:   3    -0.108603639157E+03   -0.70622E-09    0.70505E-13 23264   0.176E-10    0.651E-05
DAV:   4    -0.108603639157E+03   -0.30013E-10    0.86727E-13 23264   0.302E-10    0.651E-05
DAV:   5    -0.108603639158E+03   -0.32196E-09    0.93586E-13 23264   0.166E-10    0.651E-05
DAV:   6    -0.108603639157E+03    0.36380E-09    0.78737E-13 23264   0.168E-10
  52 F= -.10860364E+03 E0= -.10860364E+03  d E =0.000000E+00
       N       E                     dE             d eps       ncg     rms          rms(c)
DAV:   1    -0.108603639157E+03    0.21919E-09    0.82377E-13 23264   0.186E-10    0.651E-05
DAV:   2    -0.108603639157E+03    0.27148E-09    0.87714E-13 23264   0.124E-10    0.651E-05
DAV:   3    -0.108603639157E+03   -0.85038E-10    0.14258E-12 23264   0.169E-10    0.651E-05
DAV:   4    -0.108603639157E+03    0.33197E-10    0.98920E-13 23264   0.124E-10    0.651E-05
DAV:   5    -0.108603639158E+03   -0.75806E-09    0.10276E-12 23264   0.846E-11    0.651E-05
DAV:   6    -0.108603639157E+03    0.11787E-08    0.23983E-13 23264   0.350E-10
  53 F= -.10860364E+03 E0= -.10860364E+03  d E =0.000000E+00
       N       E                     dE             d eps       ncg     rms          rms(c)
DAV:   1    -0.108603639158E+03    0.25238E-09    0.80731E-13 23264   0.303E-10    0.651E-05
DAV:   2    -0.108603639157E+03    0.11382E-08    0.12934E-12 23264   0.303E-10    0.651E-05
DAV:   3    -0.108603639157E+03   -0.14415E-09    0.15679E-13 23264   0.355E-10    0.651E-05
DAV:   4    -0.108603639157E+03   -0.60618E-09    0.78278E-13 23264   0.170E-10    0.651E-05
DAV:   5    -0.108603639158E+03   -0.44474E-09    0.13155E-12 23264   0.136E-10    0.651E-05
DAV:   6    -0.108603639157E+03    0.33924E-09    0.94802E-13 23264   0.299E-10
  54 F= -.10860364E+03 E0= -.10860364E+03  d E =0.000000E+00
       N       E                     dE             d eps       ncg     rms          rms(c)
DAV:   1    -0.108603639157E+03    0.52387E-09    0.13046E-12 23264   0.117E-10    0.651E-05
DAV:   2    -0.108603639157E+03    0.11096E-09    0.89603E-13 23264   0.395E-10    0.651E-05
DAV:   3    -0.108603639157E+03    0.28740E-09    0.73645E-13 23264   0.231E-10    0.651E-05
DAV:   4    -0.108603639157E+03   -0.51205E-09    0.13275E-12 23264   0.181E-10    0.651E-05
DAV:   5    -0.108603639157E+03    0.11869E-09    0.79361E-13 23264   0.383E-10    0.651E-05
DAV:   6    -0.108603639157E+03    0.34152E-09    0.10216E-12 23264   0.288E-10
  55 F= -.10860364E+03 E0= -.10860364E+03  d E =0.000000E+00
       N       E                     dE             d eps       ncg     rms          rms(c)
DAV:   1    -0.108603639158E+03   -0.23783E-09    0.78655E-13 23264   0.106E-10    0.651E-05
DAV:   2    -0.108603639157E+03    0.41109E-09    0.10008E-12 23264   0.132E-10    0.651E-05
DAV:   3    -0.108603639157E+03   -0.19190E-09    0.28147E-13 23264   0.103E-10    0.651E-05
DAV:   4    -0.108603639158E+03   -0.32423E-09    0.95197E-13 23264   0.185E-10    0.651E-05
DAV:   5    -0.108603639157E+03    0.18781E-09    0.96268E-13 23264   0.186E-10    0.651E-05
DAV:   6    -0.108603639158E+03   -0.55115E-09    0.85913E-13 23264   0.925E-11
  56 F= -.10860364E+03 E0= -.10860364E+03  d E =0.000000E+00
       N       E                     dE             d eps       ncg     rms          rms(c)
DAV:   1    -0.108603639157E+03   -0.30923E-10    0.72122E-13 23264   0.112E-10    0.651E-05
DAV:   2    -0.108603639158E+03   -0.35743E-09    0.61765E-13 23264   0.274E-10    0.651E-05
DAV:   3    -0.108603639157E+03    0.49749E-09    0.10424E-12 23264   0.147E-10    0.651E-05
DAV:   4    -0.108603639158E+03   -0.46157E-09    0.39918E-13 23264   0.323E-10    0.651E-05
DAV:   5    -0.108603639158E+03    0.26421E-09    0.66901E-13 23264   0.138E-10    0.651E-05
DAV:   6    -0.108603639157E+03    0.22919E-09    0.47757E-13 23264   0.239E-10
  57 F= -.10860364E+03 E0= -.10860364E+03  d E =0.000000E+00
       N       E                     dE             d eps       ncg     rms          rms(c)
DAV:   1    -0.108603639158E+03    0.90949E-11    0.62886E-13 23264   0.126E-10    0.651E-05
DAV:   2    -0.108603639157E+03    0.12460E-09    0.95475E-13 23264   0.105E-10    0.651E-05
DAV:   3    -0.108603639157E+03    0.59799E-09    0.56416E-13 23264   0.855E-11    0.651E-05
DAV:   4    -0.108603639157E+03   -0.24602E-09    0.27616E-13 23264   0.199E-10    0.651E-05
DAV:   5    -0.108603639157E+03   -0.26921E-09    0.13789E-12 23264   0.929E-11    0.651E-05
DAV:   6    -0.108603639157E+03    0.60481E-10    0.10053E-12 23264   0.196E-10
  58 F= -.10860364E+03 E0= -.10860364E+03  d E =0.000000E+00
       N       E                     dE             d eps       ncg     rms          rms(c)
DAV:   1    -0.108603639157E+03    0.52751E-09    0.22163E-13 23264   0.119E-10    0.651E-05
DAV:   2    -0.108603639158E+03   -0.87584E-09    0.66791E-13 23264   0.667E-10    0.651E-05
DAV:   3    -0.108603639158E+03    0.98680E-10    0.88766E-13 23264   0.503E-10    0.651E-05
DAV:   4    -0.108603639158E+03   -0.33788E-09    0.92253E-13 23264   0.157E-10    0.651E-05
DAV:   5    -0.108603639157E+03    0.94224E-09    0.11510E-12 23264   0.195E-10    0.651E-05
DAV:   6    -0.108603639157E+03    0.22555E-09    0.10458E-12 23264   0.179E-10
  59 F= -.10860364E+03 E0= -.10860364E+03  d E =0.000000E+00
       N       E                     dE             d eps       ncg     rms          rms(c)
DAV:   1    -0.108603639158E+03   -0.60209E-09    0.52741E-13 23264   0.110E-10    0.651E-05
DAV:   2    -0.108603639157E+03    0.77853E-09    0.25956E-13 23264   0.385E-10    0.651E-05
DAV:   3    -0.108603639158E+03   -0.11041E-08    0.27877E-13 23264   0.217E-10    0.651E-05
DAV:   4    -0.108603639157E+03    0.11282E-08    0.66669E-13 23264   0.190E-10    0.651E-05
DAV:   5    -0.108603639158E+03   -0.12774E-08    0.53168E-13 23264   0.328E-10    0.651E-05
DAV:   6    -0.108603639158E+03    0.22465E-09    0.29359E-13 23264   0.267E-10
  60 F= -.10860364E+03 E0= -.10860364E+03  d E =0.000000E+00
       N       E                     dE             d eps       ncg     rms          rms(c)
DAV:   1    -0.108603639157E+03    0.66848E-09    0.98866E-13 23264   0.166E-10    0.651E-05
DAV:   2    -0.108603639157E+03   -0.12369E-09    0.11073E-12 23264   0.241E-10    0.651E-05
DAV:   3    -0.108603639157E+03    0.42655E-09    0.80330E-13 23264   0.119E-10    0.651E-05
DAV:   4    -0.108603639157E+03   -0.23101E-09    0.66451E-13 23264   0.126E-10    0.651E-05
DAV:   5    -0.108603639158E+03   -0.26239E-09    0.89199E-13 23264   0.133E-10    0.651E-05
DAV:   6    -0.108603639158E+03    0.60481E-10    0.10862E-12 23264   0.116E-10
  61 F= -.10860364E+03 E0= -.10860364E+03  d E =0.000000E+00
       N       E                     dE             d eps       ncg     rms          rms(c)
DAV:   1    -0.108603639158E+03   -0.31241E-09    0.16360E-12 23264   0.121E-10    0.651E-05
DAV:   2    -0.108603639157E+03    0.78580E-09    0.60449E-13 23264   0.679E-10    0.651E-05
DAV:   3    -0.108603639157E+03    0.16507E-09   -0.30856E-13 23264   0.438E-10    0.651E-05
DAV:   4    -0.108603639158E+03   -0.62528E-09    0.84280E-13 23264   0.187E-10    0.651E-05
DAV:   5    -0.108603639158E+03   -0.44020E-09    0.95813E-13 23264   0.149E-10    0.651E-05
DAV:   6    -0.108603639157E+03    0.79217E-09    0.97620E-13 23264   0.212E-10
  62 F= -.10860364E+03 E0= -.10860364E+03  d E =0.000000E+00
       N       E                     dE             d eps       ncg     rms          rms(c)
DAV:   1    -0.108603639157E+03    0.89221E-09    0.18515E-13 23264   0.313E-10    0.651E-05
DAV:   2    -0.108603639157E+03   -0.65938E-10    0.15759E-12 23264   0.274E-10    0.651E-05
DAV:   3    -0.108603639158E+03   -0.34515E-09    0.16504E-12 23264   0.175E-10    0.651E-05
DAV:   4    -0.108603639158E+03   -0.33015E-09    0.10825E-12 23264   0.319E-10    0.651E-05
DAV:   5    -0.108603639157E+03    0.47339E-09    0.84518E-13 23264   0.261E-10    0.651E-05
DAV:   6    -0.108603639157E+03    0.37699E-09    0.10601E-12 23264   0.134E-10
  63 F= -.10860364E+03 E0= -.10860364E+03  d E =0.000000E+00
       N       E                     dE             d eps       ncg     rms          rms(c)
DAV:   1    -0.108603639158E+03   -0.35698E-09    0.58349E-13 23264   0.118E-10    0.651E-05
DAV:   2    -0.108603639158E+03   -0.27421E-09    0.95126E-13 23264   0.312E-10    0.651E-05
DAV:   3    -0.108603639157E+03    0.12737E-08    0.14242E-13 23264   0.829E-10    0.651E-05
DAV:   4    -0.108603639157E+03    0.63665E-11    0.93910E-13 23264   0.901E-10    0.651E-05
DAV:   5    -0.108603639157E+03   -0.68985E-09    0.44070E-13 23264   0.371E-10    0.651E-05
DAV:   6    -0.108603639157E+03    0.32060E-09    0.11753E-12 23264   0.222E-10
  64 F= -.10860364E+03 E0= -.10860364E+03  d E =0.000000E+00
       N       E                     dE             d eps       ncg     rms          rms(c)
DAV:   1    -0.108603639158E+03   -0.20418E-09    0.71718E-13 23264   0.236E-10    0.651E-05
DAV:   2    -0.108603639158E+03   -0.63665E-10    0.12696E-12 23264   0.256E-10    0.651E-05
DAV:   3    -0.108603639158E+03   -0.85493E-10    0.44036E-13 23264   0.315E-10    0.651E-05
DAV:   4    -0.108603639157E+03    0.11228E-08    0.67168E-13 23264   0.187E-10    0.651E-05
DAV:   5    -0.108603639157E+03   -0.48340E-09    0.25750E-14 23264   0.356E-10    0.651E-05
DAV:   6    -0.108603639157E+03    0.15871E-09    0.45617E-13 23264   0.180E-10
  65 F= -.10860364E+03 E0= -.10860364E+03  d E =0.000000E+00
       N       E                     dE             d eps       ncg     rms          rms(c)
DAV:   1    -0.108603639157E+03    0.36744E-09    0.74268E-13 23264   0.199E-10    0.651E-05
DAV:   2    -0.108603639158E+03   -0.83946E-09    0.68603E-13 23264   0.653E-10    0.651E-05
DAV:   3    -0.108603639157E+03    0.35834E-09    0.25763E-13 23264   0.367E-10    0.651E-05
DAV:   4    -0.108603639158E+03   -0.35925E-09    0.70094E-13 23264   0.293E-10    0.651E-05
DAV:   5    -0.108603639157E+03    0.17644E-09    0.14135E-12 23264   0.302E-10    0.651E-05
DAV:   6    -0.108603639157E+03   -0.30923E-10    0.82462E-13 23264   0.169E-10
  66 F= -.10860364E+03 E0= -.10860364E+03  d E =0.000000E+00
       N       E                     dE             d eps       ncg     rms          rms(c)
DAV:   1    -0.108603639158E+03   -0.36380E-09    0.13542E-12 23264   0.112E-10    0.651E-05
DAV:   2    -0.108603639158E+03   -0.23647E-09    0.83026E-13 23264   0.391E-10    0.651E-05
DAV:   3    -0.108603639157E+03    0.11814E-08    0.10588E-13 23264   0.452E-10    0.651E-05
DAV:   4    -0.108603639157E+03   -0.27103E-09    0.40112E-13 23264   0.628E-10    0.651E-05
DAV:   5    -0.108603639157E+03   -0.26466E-09    0.39171E-13 23264   0.284E-10    0.651E-05
DAV:   6    -0.108603639157E+03    0.65165E-09    0.75201E-13 23264   0.157E-10
  67 F= -.10860364E+03 E0= -.10860364E+03  d E =0.000000E+00
       N       E                     dE             d eps       ncg     rms          rms(c)
DAV:   1    -0.108603639157E+03    0.44884E-09    0.77699E-13 23264   0.167E-10    0.651E-05
DAV:   2    -0.108603639158E+03   -0.80991E-09    0.75427E-13 23264   0.457E-10    0.651E-05
DAV:   3    -0.108603639157E+03    0.87402E-09    0.70261E-13 23264   0.350E-10    0.651E-05
DAV:   4    -0.108603639158E+03   -0.10518E-08    0.13087E-12 23264   0.184E-10    0.651E-05
DAV:   5    -0.108603639157E+03    0.93905E-09    0.96831E-13 23264   0.198E-10    0.651E-05
DAV:   6    -0.108603639158E+03   -0.53251E-09    0.10398E-12 23264   0.149E-10
  68 F= -.10860364E+03 E0= -.10860364E+03  d E =0.000000E+00
       N       E                     dE             d eps       ncg     rms          rms(c)
DAV:   1    -0.108603639157E+03   -0.13006E-09    0.12175E-12 23264   0.123E-10    0.651E-05
DAV:   2    -0.108603639157E+03   -0.16462E-09    0.77248E-13 23264   0.135E-10    0.651E-05
DAV:   3    -0.108603639157E+03    0.52751E-09    0.39546E-13 23264   0.161E-10    0.651E-05
DAV:   4    -0.108603639158E+03   -0.92723E-09    0.11453E-12 23264   0.220E-10    0.651E-05
DAV:   5    -0.108603639158E+03   -0.11460E-09    0.34425E-13 23264   0.187E-10    0.651E-05
DAV:   6    -0.108603639157E+03    0.92450E-09    0.87254E-13 23264   0.909E-11
  69 F= -.10860364E+03 E0= -.10860364E+03  d E =0.000000E+00
       N       E                     dE             d eps       ncg     rms          rms(c)
DAV:   1    -0.108603639157E+03    0.11246E-08    0.47021E-13 23264   0.179E-10    0.651E-05
DAV:   2    -0.108603639157E+03   -0.12733E-09    0.86252E-13 23264   0.437E-10    0.651E-05
DAV:   3    -0.108603639157E+03   -0.63665E-11    0.63588E-13 23264   0.224E-10    0.651E-05
DAV:   4    -0.108603639157E+03    0.20009E-10    0.24680E-13 23264   0.177E-10    0.651E-05
DAV:   5    -0.108603639157E+03   -0.68121E-09    0.11772E-12 23264   0.157E-10    0.651E-05
DAV:   6    -0.108603639157E+03    0.22692E-09    0.90896E-13 23264   0.311E-10
  70 F= -.10860364E+03 E0= -.10860364E+03  d E =0.000000E+00
       N       E                     dE             d eps       ncg     rms          rms(c)
DAV:   1    -0.108603639157E+03    0.74579E-10    0.72848E-13 23264   0.199E-10    0.651E-05
DAV:   2    -0.108603639157E+03    0.50841E-09    0.10394E-12 23264   0.206E-10    0.651E-05
DAV:   3    -0.108603639158E+03   -0.95179E-09    0.20891E-13 23264   0.194E-10    0.651E-05
DAV:   4    -0.108603639157E+03    0.71987E-09    0.10024E-12 23264   0.179E-10    0.651E-05
DAV:   5    -0.108603639157E+03    0.23465E-09    0.80016E-13 23264   0.247E-10    0.651E-05
DAV:   6    -0.108603639157E+03   -0.56298E-09    0.11429E-12 23264   0.974E-11
  71 F= -.10860364E+03 E0= -.10860364E+03  d E =0.000000E+00
       N       E                     dE             d eps       ncg     rms          rms(c)
DAV:   1    -0.108603639157E+03   -0.13279E-09    0.12125E-12 23264   0.139E-10    0.651E-05
DAV:   2    -0.108603639157E+03    0.22283E-09    0.79300E-13 23264   0.166E-10    0.651E-05
DAV:   3    -0.108603639157E+03    0.95497E-11    0.45413E-13 23264   0.357E-10    0.651E-05
DAV:   4    -0.108603639157E+03    0.12096E-09    0.41841E-13 23264   0.218E-10    0.651E-05
DAV:   5    -0.108603639158E+03   -0.92541E-09    0.66665E-13 23264   0.419E-10    0.651E-05
DAV:   6    -0.108603639157E+03    0.17326E-09    0.32262E-13 23264   0.221E-10
  72 F= -.10860364E+03 E0= -.10860364E+03  d E =0.000000E+00
       N       E                     dE             d eps       ncg     rms          rms(c)
DAV:   1    -0.108603639158E+03   -0.34925E-09    0.67840E-13 23264   0.377E-10    0.651E-05
DAV:   2    -0.108603639158E+03    0.63665E-10    0.73242E-13 23264   0.615E-10    0.651E-05
DAV:   3    -0.108603639157E+03    0.97543E-09   -0.16478E-13 23264   0.439E-10    0.651E-05
DAV:   4    -0.108603639158E+03   -0.10373E-08    0.29175E-13 23264   0.462E-10    0.651E-05
DAV:   5    -0.108603639157E+03    0.86493E-09    0.34493E-13 23264   0.263E-10    0.651E-05
DAV:   6    -0.108603639157E+03    0.37289E-09    0.54911E-13 23264   0.194E-10
  73 F= -.10860364E+03 E0= -.10860364E+03  d E =0.000000E+00
       N       E                     dE             d eps       ncg     rms          rms(c)
DAV:   1    -0.108603639157E+03    0.34424E-09    0.80462E-13 23264   0.139E-10    0.651E-05
DAV:   2    -0.108603639158E+03   -0.97680E-09    0.77567E-13 23264   0.383E-10    0.651E-05
DAV:   3    -0.108603639158E+03   -0.19327E-09    0.84810E-13 23264   0.305E-10    0.651E-05
DAV:   4    -0.108603639158E+03   -0.15552E-09    0.54841E-13 23264   0.186E-10    0.651E-05
DAV:   5    -0.108603639158E+03    0.41018E-09    0.57420E-13 23264   0.173E-10    0.651E-05
DAV:   6    -0.108603639158E+03   -0.71850E-10    0.15711E-12 23264   0.167E-10
  74 F= -.10860364E+03 E0= -.10860364E+03  d E =0.000000E+00
       N       E                     dE             d eps       ncg     rms          rms(c)
DAV:   1    -0.108603639158E+03   -0.19372E-09    0.11293E-12 23264   0.117E-10    0.651E-05
DAV:   2    -0.108603639158E+03   -0.15143E-09    0.95328E-13 23264   0.437E-10    0.651E-05
DAV:   3    -0.108603639157E+03    0.63619E-09    0.82110E-14 23264   0.488E-10    0.651E-05
DAV:   4    -0.108603639158E+03   -0.69122E-09    0.63062E-13 23264   0.506E-10    0.651E-05
DAV:   5    -0.108603639157E+03    0.11682E-08    0.77087E-13 23264   0.308E-10    0.651E-05
DAV:   6    -0.108603639157E+03    0.16416E-09    0.57075E-13 23264   0.326E-10
  75 F= -.10860364E+03 E0= -.10860364E+03  d E =0.000000E+00
       N       E                     dE             d eps       ncg     rms          rms(c)
DAV:   1    -0.108603639158E+03   -0.84719E-09    0.64470E-13 23264   0.418E-10    0.651E-05
DAV:   2    -0.108603639158E+03   -0.13188E-09    0.50711E-13 23264   0.552E-10    0.651E-05
DAV:   3    -0.108603639157E+03    0.47294E-09    0.11576E-12 23264   0.303E-10    0.651E-05
DAV:   4    -0.108603639157E+03    0.13733E-09    0.15664E-13 23264   0.225E-10    0.651E-05
DAV:   5    -0.108603639157E+03    0.47567E-09    0.16413E-15 23264   0.234E-10    0.651E-05
DAV:   6    -0.108603639157E+03    0.11642E-09    0.11987E-12 23264   0.220E-10
  76 F= -.10860364E+03 E0= -.10860364E+03  d E =0.000000E+00
       N       E                     dE             d eps       ncg     rms          rms(c)
DAV:   1    -0.108603639157E+03   -0.21737E-09    0.93167E-13 23264   0.160E-10    0.651E-05
DAV:   2    -0.108603639157E+03   -0.13006E-09    0.12274E-12 23264   0.375E-10    0.651E-05
DAV:   3    -0.108603639157E+03   -0.96406E-10    0.11783E-12 23264   0.413E-10    0.651E-05
DAV:   4    -0.108603639158E+03   -0.64529E-09    0.68274E-13 23264   0.377E-10    0.651E-05
DAV:   5    -0.108603639157E+03    0.66075E-09    0.93946E-13 23264   0.331E-10    0.651E-05
DAV:   6    -0.108603639157E+03    0.14279E-09    0.12351E-12 23264   0.148E-10
  77 F= -.10860364E+03 E0= -.10860364E+03  d E =0.000000E+00
       N       E                     dE             d eps       ncg     rms          rms(c)
DAV:   1    -0.108603639157E+03    0.18463E-09    0.80801E-13 23264   0.108E-10    0.651E-05
DAV:   2    -0.108603639158E+03   -0.67303E-09    0.60319E-13 23264   0.284E-10    0.651E-05
DAV:   3    -0.108603639157E+03    0.77580E-09    0.10303E-12 23264   0.234E-10    0.651E-05
DAV:   4    -0.108603639157E+03   -0.13370E-09    0.11092E-12 23264   0.178E-10    0.651E-05
DAV:   5    -0.108603639157E+03    0.18326E-09   -0.33770E-14 23264   0.823E-11    0.651E-05
DAV:   6    -0.108603639157E+03   -0.64620E-09    0.13839E-12 23264   0.136E-10
  78 F= -.10860364E+03 E0= -.10860364E+03  d E =0.000000E+00
       N       E                     dE             d eps       ncg     rms          rms(c)
DAV:   1    -0.108603639158E+03   -0.10114E-08    0.94233E-13 23264   0.270E-10    0.651E-05
DAV:   2    -0.108603639158E+03    0.22419E-09    0.52030E-13 23264   0.707E-10    0.651E-05
DAV:   3    -0.108603639158E+03   -0.86857E-10    0.17149E-13 23264   0.387E-10    0.651E-05
DAV:   4    -0.108603639157E+03    0.86902E-09    0.10139E-13 23264   0.144E-10    0.651E-05
DAV:   5    -0.108603639157E+03    0.14234E-09   -0.12744E-13 23264   0.287E-10    0.651E-05
DAV:   6    -0.108603639157E+03   -0.82309E-10    0.36433E-13 23264   0.342E-10
  79 F= -.10860364E+03 E0= -.10860364E+03  d E =0.000000E+00
       N       E                     dE             d eps       ncg     rms          rms(c)
DAV:   1    -0.108603639157E+03    0.61391E-10    0.28641E-13 23264   0.380E-10    0.651E-05
DAV:   2    -0.108603639158E+03   -0.10359E-08    0.89246E-13 23264   0.543E-10    0.651E-05
DAV:   3    -0.108603639157E+03    0.52751E-09    0.19576E-13 23264   0.356E-10    0.651E-05
DAV:   4    -0.108603639157E+03   -0.16462E-09    0.45964E-13 23264   0.155E-10    0.651E-05
DAV:   5    -0.108603639158E+03   -0.59163E-09    0.74644E-13 23264   0.207E-10    0.651E-05
DAV:   6    -0.108603639158E+03    0.38654E-09    0.39537E-13 23264   0.167E-10
  80 F= -.10860364E+03 E0= -.10860364E+03  d E =0.000000E+00
       N       E                     dE             d eps       ncg     rms          rms(c)
DAV:   1    -0.108603639158E+03    0.25238E-09    0.98267E-13 23264   0.264E-10    0.651E-05
DAV:   2    -0.108603639157E+03    0.78035E-09    0.92152E-13 23264   0.417E-10    0.651E-05
DAV:   3    -0.108603639157E+03   -0.32287E-09    0.15737E-13 23264   0.295E-10    0.651E-05
DAV:   4    -0.108603639157E+03    0.40745E-09    0.29724E-13 23264   0.176E-10    0.651E-05
DAV:   5    -0.108603639157E+03   -0.43610E-09    0.68070E-13 23264   0.134E-10    0.651E-05
DAV:   6    -0.108603639158E+03   -0.45429E-09    0.10733E-12 23264   0.290E-10
  81 F= -.10860364E+03 E0= -.10860364E+03  d E =0.000000E+00
       N       E                     dE             d eps       ncg     rms          rms(c)
DAV:   1    -0.108603639157E+03    0.11869E-09    0.10489E-12 23264   0.355E-10    0.651E-05
DAV:   2    -0.108603639157E+03   -0.22328E-09    0.14495E-12 23264   0.251E-10    0.651E-05
DAV:   3    -0.108603639157E+03    0.67166E-09    0.84364E-13 23264   0.322E-10    0.651E-05
DAV:   4    -0.108603639158E+03   -0.10923E-08    0.43698E-13 23264   0.224E-10    0.651E-05
DAV:   5    -0.108603639157E+03    0.57935E-09    0.80360E-13 23264   0.262E-10    0.651E-05
DAV:   6    -0.108603639157E+03   -0.31650E-09    0.78491E-13 23264   0.138E-10
  82 F= -.10860364E+03 E0= -.10860364E+03  d E =0.000000E+00
       N       E                     dE             d eps       ncg     rms          rms(c)
DAV:   1    -0.108603639157E+03    0.54752E-09    0.10502E-12 23264   0.183E-10    0.651E-05
DAV:   2    -0.108603639157E+03   -0.18190E-10    0.29651E-13 23264   0.438E-10    0.651E-05
DAV:   3    -0.108603639157E+03   -0.44020E-09    0.45997E-13 23264   0.287E-10    0.651E-05
DAV:   4    -0.108603639158E+03   -0.80308E-09    0.45171E-13 23264   0.199E-10    0.651E-05
DAV:   5    -0.108603639158E+03    0.10641E-09    0.80182E-13 23264   0.256E-10    0.651E-05
DAV:   6    -0.108603639157E+03    0.98817E-09    0.26605E-13 23264   0.253E-10
  83 F= -.10860364E+03 E0= -.10860364E+03  d E =0.000000E+00
       N       E                     dE             d eps       ncg     rms          rms(c)
DAV:   1    -0.108603639157E+03    0.44474E-09    0.11773E-12 23264   0.455E-10    0.651E-05
DAV:   2    -0.108603639157E+03   -0.14006E-09    0.96279E-13 23264   0.255E-10    0.651E-05
DAV:   3    -0.108603639158E+03   -0.55161E-09    0.10286E-12 23264   0.201E-10    0.651E-05
DAV:   4    -0.108603639158E+03    0.59572E-10    0.51095E-13 23264   0.129E-10    0.651E-05
DAV:   5    -0.108603639157E+03    0.13670E-08    0.40976E-13 23264   0.110E-10    0.651E-05
DAV:   6    -0.108603639157E+03   -0.54661E-09    0.79364E-13 23264   0.205E-10
  84 F= -.10860364E+03 E0= -.10860364E+03  d E =0.000000E+00
       N       E                     dE             d eps       ncg     rms          rms(c)
DAV:   1    -0.108603639158E+03   -0.10359E-08    0.12144E-12 23264   0.144E-10    0.651E-05
DAV:   2    -0.108603639157E+03    0.97634E-09    0.10818E-12 23264   0.268E-10    0.651E-05
DAV:   3    -0.108603639157E+03   -0.27239E-09    0.16298E-13 23264   0.369E-10    0.651E-05
DAV:   4    -0.108603639157E+03   -0.19872E-09    0.64660E-13 23264   0.282E-10    0.651E-05
DAV:   5    -0.108603639157E+03    0.49477E-09    0.87427E-13 23264   0.112E-10    0.651E-05
DAV:   6    -0.108603639157E+03   -0.33788E-09    0.86700E-13 23264   0.148E-10
  85 F= -.10860364E+03 E0= -.10860364E+03  d E =0.000000E+00
       N       E                     dE             d eps       ncg     rms          rms(c)
DAV:   1    -0.108603639158E+03   -0.13165E-08    0.10526E-12 23264   0.128E-10    0.651E-05
DAV:   2    -0.108603639158E+03   -0.39108E-10    0.58997E-13 23264   0.577E-10    0.651E-05
DAV:   3    -0.108603639157E+03    0.10896E-08    0.14499E-12 23264   0.313E-10    0.651E-05
DAV:   4    -0.108603639157E+03   -0.50932E-10    0.88282E-13 23264   0.445E-10    0.651E-05
DAV:   5    -0.108603639157E+03    0.45475E-10    0.69464E-13 23264   0.178E-10    0.651E-05
DAV:   6    -0.108603639157E+03   -0.37107E-09    0.32015E-13 23264   0.386E-10
  86 F= -.10860364E+03 E0= -.10860364E+03  d E =0.000000E+00
       N       E                     dE             d eps       ncg     rms          rms(c)
DAV:   1    -0.108603639157E+03   -0.19736E-09    0.75619E-13 23264   0.162E-10    0.651E-05
DAV:   2    -0.108603639157E+03    0.38199E-10    0.35792E-13 23264   0.437E-10    0.651E-05
DAV:   3    -0.108603639157E+03    0.62755E-10    0.11371E-12 23264   0.300E-10    0.651E-05
DAV:   4    -0.108603639158E+03   -0.78853E-09    0.10633E-12 23264   0.187E-10    0.651E-05
DAV:   5    -0.108603639157E+03    0.65756E-09    0.11112E-12 23264   0.396E-10    0.651E-05
DAV:   6    -0.108603639157E+03    0.48431E-09    0.12771E-12 23264   0.227E-10
  87 F= -.10860364E+03 E0= -.10860364E+03  d E =0.000000E+00
       N       E                     dE             d eps       ncg     rms          rms(c)
DAV:   1    -0.108603639157E+03    0.28149E-09    0.66481E-13 23264   0.136E-10    0.651E-05
DAV:   2    -0.108603639158E+03   -0.85447E-09    0.80721E-14 23264   0.394E-10    0.651E-05
DAV:   3    -0.108603639157E+03    0.69531E-09    0.61800E-13 23264   0.312E-10    0.651E-05
DAV:   4    -0.108603639158E+03   -0.69031E-09    0.10763E-12 23264   0.210E-10    0.651E-05
DAV:   5    -0.108603639157E+03    0.39699E-09    0.10848E-12 23264   0.151E-10    0.651E-05
DAV:   6    -0.108603639157E+03   -0.54570E-10    0.96912E-13 23264   0.175E-10
  88 F= -.10860364E+03 E0= -.10860364E+03  d E =0.000000E+00
       N       E                     dE             d eps       ncg     rms          rms(c)
DAV:   1    -0.108603639157E+03   -0.47294E-10    0.11149E-12 23264   0.105E-10    0.651E-05
DAV:   2    -0.108603639158E+03   -0.26603E-09    0.15447E-12 23264   0.247E-10    0.651E-05
DAV:   3    -0.108603639157E+03    0.53478E-09    0.82918E-13 23264   0.231E-10    0.651E-05
DAV:   4    -0.108603639157E+03   -0.19418E-09    0.94130E-13 23264   0.288E-10    0.651E-05
DAV:   5    -0.108603639158E+03   -0.23101E-09    0.15736E-12 23264   0.243E-10    0.651E-05
DAV:   6    -0.108603639157E+03    0.28194E-10    0.98537E-13 23264   0.151E-10
  89 F= -.10860364E+03 E0= -.10860364E+03  d E =0.000000E+00
       N       E                     dE             d eps       ncg     rms          rms(c)
DAV:   1    -0.108603639157E+03    0.77307E-10    0.14755E-12 23264   0.138E-10    0.651E-05
DAV:   2    -0.108603639157E+03    0.58208E-10    0.10014E-12 23264   0.193E-10    0.651E-05
DAV:   3    -0.108603639157E+03    0.64028E-09    0.53821E-13 23264   0.206E-10    0.651E-05
DAV:   4    -0.108603639157E+03   -0.58208E-10    0.79815E-13 23264   0.217E-10    0.651E-05
DAV:   5    -0.108603639157E+03   -0.62300E-10    0.29507E-13 23264   0.141E-10    0.651E-05
DAV:   6    -0.108603639157E+03    0.15780E-09    0.11867E-12 23264   0.107E-10
  90 F= -.10860364E+03 E0= -.10860364E+03  d E =0.000000E+00
       N       E                     dE             d eps       ncg     rms          rms(c)
DAV:   1    -0.108603639157E+03   -0.60481E-10    0.51968E-13 23264   0.224E-10    0.651E-05
DAV:   2    -0.108603639157E+03   -0.48749E-09    0.90658E-13 23264   0.336E-10    0.651E-05
DAV:   3    -0.108603639157E+03    0.63847E-09    0.11192E-12 23264   0.293E-10    0.651E-05
DAV:   4    -0.108603639157E+03    0.68212E-10    0.63343E-13 23264   0.136E-10    0.651E-05
DAV:   5    -0.108603639157E+03   -0.77216E-09    0.92135E-13 23264   0.150E-10    0.651E-05
DAV:   6    -0.108603639157E+03    0.21191E-09    0.10257E-12 23264   0.228E-10
  91 F= -.10860364E+03 E0= -.10860364E+03  d E =0.000000E+00
       N       E                     dE             d eps       ncg     rms          rms(c)
DAV:   1    -0.108603639157E+03    0.48794E-09    0.49496E-13 23264   0.139E-10    0.651E-05
DAV:   2    -0.108603639157E+03   -0.45429E-09    0.10788E-12 23264   0.177E-10    0.651E-05
DAV:   3    -0.108603639157E+03    0.17690E-09    0.75321E-13 23264   0.198E-10    0.651E-05
DAV:   4    -0.108603639158E+03   -0.33697E-09    0.40636E-13 23264   0.120E-10    0.651E-05
DAV:   5    -0.108603639158E+03   -0.24647E-09    0.57621E-13 23264   0.211E-10    0.651E-05
DAV:   6    -0.108603639158E+03    0.17735E-10    0.65654E-13 23264   0.224E-10
  92 F= -.10860364E+03 E0= -.10860364E+03  d E =0.000000E+00
       N       E                     dE             d eps       ncg     rms          rms(c)
DAV:   1    -0.108603639158E+03   -0.41382E-10    0.80394E-13 23264   0.114E-10    0.651E-05
DAV:   2    -0.108603639158E+03    0.34697E-09    0.78489E-13 23264   0.579E-10    0.651E-05
DAV:   3    -0.108603639157E+03    0.68030E-09    0.12301E-13 23264   0.279E-10    0.651E-05
DAV:   4    -0.108603639157E+03   -0.15234E-09    0.13155E-12 23264   0.316E-10    0.651E-05
DAV:   5    -0.108603639158E+03   -0.67075E-09    0.65632E-13 23264   0.237E-10    0.651E-05
DAV:   6    -0.108603639158E+03   -0.34697E-09    0.10775E-12 23264   0.247E-10
  93 F= -.10860364E+03 E0= -.10860364E+03  d E =0.000000E+00
       N       E                     dE             d eps       ncg     rms          rms(c)
DAV:   1    -0.108603639158E+03   -0.33833E-09    0.72734E-13 23264   0.124E-10    0.651E-05
DAV:   2    -0.108603639158E+03    0.45156E-09    0.13364E-12 23264   0.550E-10    0.651E-05
DAV:   3    -0.108603639158E+03   -0.47066E-09   -0.34378E-13 23264   0.356E-10    0.651E-05
DAV:   4    -0.108603639157E+03    0.10250E-08    0.66507E-13 23264   0.145E-10    0.651E-05
DAV:   5    -0.108603639157E+03    0.35106E-09    0.86542E-14 23264   0.263E-10    0.651E-05
DAV:   6    -0.108603639157E+03   -0.19691E-09    0.55735E-13 23264   0.345E-10
  94 F= -.10860364E+03 E0= -.10860364E+03  d E =0.000000E+00
       N       E                     dE             d eps       ncg     rms          rms(c)
DAV:   1    -0.108603639158E+03   -0.10859E-08    0.79278E-13 23264   0.304E-10    0.651E-05
DAV:   2    -0.108603639158E+03   -0.96406E-10    0.30148E-13 23264   0.588E-10    0.651E-05
DAV:   3    -0.108603639158E+03   -0.17189E-09   -0.20415E-14 23264   0.362E-10    0.651E-05
DAV:   4    -0.108603639158E+03    0.22192E-09    0.32522E-14 23264   0.258E-10    0.651E-05
DAV:   5    -0.108603639158E+03    0.25966E-09    0.32088E-13 23264   0.373E-10    0.651E-05
DAV:   6    -0.108603639157E+03    0.87311E-10    0.40828E-13 23264   0.231E-10
  95 F= -.10860364E+03 E0= -.10860364E+03  d E =0.000000E+00
       N       E                     dE             d eps       ncg     rms          rms(c)
DAV:   1    -0.108603639157E+03    0.35880E-09   -0.36797E-14 23264   0.152E-10    0.651E-05
DAV:   2    -0.108603639157E+03    0.24647E-09    0.46210E-13 23264   0.400E-10    0.651E-05
DAV:   3    -0.108603639157E+03    0.10368E-09    0.10300E-12 23264   0.331E-10    0.651E-05
DAV:   4    -0.108603639157E+03   -0.49658E-09    0.70452E-13 23264   0.395E-10    0.651E-05
DAV:   5    -0.108603639157E+03    0.23647E-10    0.40330E-13 23264   0.531E-10    0.651E-05
DAV:   6    -0.108603639157E+03   -0.35925E-10    0.12432E-12 23264   0.263E-10
  96 F= -.10860364E+03 E0= -.10860364E+03  d E =0.000000E+00
       N       E                     dE             d eps       ncg     rms          rms(c)
DAV:   1    -0.108603639158E+03   -0.73078E-09    0.71086E-13 23264   0.186E-10    0.651E-05
DAV:   2    -0.108603639158E+03    0.26876E-09    0.60167E-13 23264   0.515E-10    0.651E-05
DAV:   3    -0.108603639158E+03    0.75943E-10   -0.55434E-14 23264   0.325E-10    0.651E-05
DAV:   4    -0.108603639157E+03    0.87994E-09    0.24941E-13 23264   0.182E-10    0.651E-05
DAV:   5    -0.108603639157E+03   -0.19554E-10    0.34853E-13 23264   0.279E-10    0.651E-05
DAV:   6    -0.108603639158E+03   -0.83628E-09    0.15514E-13 23264   0.153E-10
  97 F= -.10860364E+03 E0= -.10860364E+03  d E =0.000000E+00
       N       E                     dE             d eps       ncg     rms          rms(c)
DAV:   1    -0.108603639158E+03   -0.86902E-09    0.73528E-13 23264   0.169E-10    0.651E-05
DAV:   2    -0.108603639157E+03    0.55888E-09    0.64464E-13 23264   0.148E-10    0.651E-05
DAV:   3    -0.108603639157E+03    0.44338E-09   -0.14632E-13 23264   0.221E-10    0.651E-05
DAV:   4    -0.108603639157E+03   -0.47248E-09    0.87481E-14 23264   0.159E-10    0.651E-05
DAV:   5    -0.108603639158E+03   -0.60845E-09    0.11019E-12 23264   0.131E-10    0.651E-05
DAV:   6    -0.108603639158E+03   -0.20691E-09    0.54308E-13 23264   0.139E-10
  98 F= -.10860364E+03 E0= -.10860364E+03  d E =0.000000E+00
       N       E                     dE             d eps       ncg     rms          rms(c)
DAV:   1    -0.108603639157E+03    0.72077E-09    0.77442E-13 23264   0.114E-10    0.651E-05
DAV:   2    -0.108603639157E+03   -0.32378E-09    0.16278E-13 23264   0.444E-10    0.651E-05
DAV:   3    -0.108603639157E+03    0.38108E-09    0.11711E-12 23264   0.235E-10    0.651E-05
DAV:   4    -0.108603639158E+03   -0.63892E-09    0.13281E-12 23264   0.167E-10    0.651E-05
DAV:   5    -0.108603639158E+03   -0.29968E-09    0.10066E-12 23264   0.213E-10    0.651E-05
DAV:   6    -0.108603639157E+03    0.45975E-09    0.94428E-13 23264   0.116E-10
  99 F= -.10860364E+03 E0= -.10860364E+03  d E =0.000000E+00
       N       E                     dE             d eps       ncg     rms          rms(c)
DAV:   1    -0.108603639157E+03    0.82628E-09    0.94920E-13 23264   0.172E-10    0.651E-05
DAV:   2    -0.108603639158E+03   -0.67348E-09    0.11413E-12 23264   0.298E-10    0.651E-05
DAV:   3    -0.108603639157E+03    0.84992E-09    0.12340E-12 23264   0.199E-10    0.651E-05
DAV:   4    -0.108603639157E+03   -0.39336E-09    0.11807E-12 23264   0.204E-10    0.651E-05
DAV:   5    -0.108603639157E+03   -0.14734E-09    0.13105E-12 23264   0.130E-10    0.651E-05
DAV:   6    -0.108603639158E+03   -0.42928E-09    0.13707E-12 23264   0.101E-10
 100 F= -.10860364E+03 E0= -.10860364E+03  d E =0.000000E+00
