 B  C 
 1.0000000000000000
     5.1642578044282468    0.0000000000000000    0.0000000000000000
     2.1577713800199150    4.5633677291523655    0.0000000000000000
     2.5923724661420229    1.1572212780396030    4.6209515803339896
 B   C  
  11   4
Cartesian
  5.4257575027164391  4.5964676841889345  3.7147802128976410
  6.6923784739801224  4.0265508542000186  1.4390200567997822
  6.9562036600055706  2.3696750203919259  3.7404474846030751
  4.4784349235395773  1.1278113360042508  0.9113386446270745
  3.2217821665026061  1.6932429623085119  3.1691887350603820
  2.9554842676229174  3.3566153738311377  0.8770367664309735
  8.1807815581582979  5.6755842730958657  4.5963116193451894
  9.0144099942891476  5.3004926817829832  3.0985167596490060
  9.1201250198796089  4.1620770982789850  4.5841989721372247
  1.7206285004313318  0.0607048745881970  0.0178918642200591
  0.8919240559273570  0.4335809130571542  1.5068397016326958
  0.7387539398209759  1.4710456631058184  0.0276736888954283
  6.1215860133652162  3.4896139588213702  2.8660672598384060
  3.8488827728646551  2.2743308095590971  1.7776809783715590
  4.9908803135601794  2.8666245026519857  2.3301444730515484
