 B  C                                   
   1.00000000000000     
    10.4226266167675394    0.0000000000000000    0.0000000000000000
     4.7759154201281682    9.4341958883676735    0.0000000000000000
     2.4002218389759933    1.0584289590144120    4.4895710482053603
   B    C 
    45    15
Direct
  0.1577842726192813  0.3997092178563832  0.8052624504608517
  0.1573236434540632  0.9057778553486244  0.8113509064927342
  0.6519202731596963  0.4042441036695905  0.8011392011167402
  0.6562603926058301  0.9027832025433042  0.8045009348635830
  0.4003268998799427  0.4042763934302513  0.3050738798224941
  0.4050431324618842  0.9045637532964577  0.3096479036392026
  0.9030608965261067  0.4005754488875226  0.3102369842452362
  0.9041395899130507  0.9033497002365252  0.3179113703191661
  0.4056977047765287  0.1560005349063687  0.8047985954207277
  0.3984788194639535  0.6567679046010966  0.8004898400634488
  0.9032039688799571  0.1578139679071242  0.8116663616450452
  0.9036282568429215  0.6521182441120033  0.8051107420681234
  0.3470236473823221  0.0971523564786878  0.1933410828056950
  0.3408423393291642  0.5973677932901111  0.1877408001537546
  0.8439022489666783  0.0990529980288670  0.2020162531780016
  0.8453967177988631  0.5944287763784146  0.1915583252591517
  0.0987265836156581  0.0998084836059121  0.6939055531004215
  0.0980392699957306  0.5943769395559002  0.6879098247265816
  0.5989640134586338  0.0973686231181077  0.6855435690330935
  0.5935475594219071  0.5974397106822806  0.6841473329981866
  0.0984965736721861  0.3416378416358512  0.1941333679688668
  0.0979067667948215  0.8456173781348539  0.2044816183106946
  0.5932670716413000  0.3458947303756545  0.1865292746308285
  0.5982759883810331  0.8446650567822260  0.1911686320570070
  0.3281526335124383  0.4966804005903569  0.9889022233534277
  0.3377738880791838  0.9989675941324521  0.9916060703155125
  0.8351937307724810  0.4928204975904507  0.9904699967301269
  0.8375726604928673  0.9972139642599487  0.9955704089109076
  0.4918933050619856  0.4976155761780632  0.6636134806360303
  0.4977928569457006  0.9970454553990251  0.6690672635919199
  0.9988174176643554  0.4919114483099705  0.6714032022881682
  0.4927105825835056  0.3370297368794226  0.9873336041349461
  0.4956038766049602  0.8361819581401377  0.9912823359557166
  0.9974902617866519  0.3299795509770931  0.9937624595655237
  0.9994640214933810  0.8362586107125836  0.9958817763343077
  0.1645953015727954  0.0063305456251612  0.0158256362124618
  0.6663947471414460  0.0043613095783286  0.0028753970586592
  0.6611043761570343  0.5041365135929823  0.0022800716219109
  0.0031513232811093  0.0047457759863789  0.3480571408637658
  0.0054850199205561  0.5017779477915454  0.3251003661983134
  0.5064840120085279  0.0040513669319324  0.3258295262866540
  0.5008193566857670  0.5047359429677485  0.3200864369114100
  0.0046829544717184  0.6630430514954924  0.0042963137394452
  0.5051870007718477  0.1645428801762563  0.0047322965240113
  0.5007708460509477  0.6653624934367315  0.0017611435795928
  0.9974733224718122  0.9990749430294130  0.6909906472569034
  0.1592689221979526  0.5012416040530283  0.0047406416113986
  0.0047254232222187  0.1589714424744315  0.0155588287272792
  0.3078776472265687  0.3071268392020698  0.6136577663206708
  0.3023911442095368  0.8135054587361239  0.6092149271778879
  0.8084467071396020  0.3032694066129409  0.6157576495291153
  0.8072586969081854  0.8039941686652838  0.6097392830883450
  0.1942974921569629  0.1946430951532818  0.3924287873480523
  0.1952461089377806  0.6915938557280867  0.3935859221953564
  0.6929948992286441  0.1989718329778754  0.3800617452578336
  0.6953921394681828  0.6921655228429060  0.3853357096460783
  0.2535161120276541  0.2487323167732143  0.5036484523304026
  0.2518885227323366  0.7501299782722910  0.5014672850261732
  0.7481807310418205  0.2495561474338146  0.5054283504112433
  0.7486455289299698  0.7494399544310681  0.4989823648807814
 
  0.00000000E+00  0.00000000E+00  0.00000000E+00
  0.00000000E+00  0.00000000E+00  0.00000000E+00
  0.00000000E+00  0.00000000E+00  0.00000000E+00
  0.00000000E+00  0.00000000E+00  0.00000000E+00
  0.00000000E+00  0.00000000E+00  0.00000000E+00
  0.00000000E+00  0.00000000E+00  0.00000000E+00
  0.00000000E+00  0.00000000E+00  0.00000000E+00
  0.00000000E+00  0.00000000E+00  0.00000000E+00
  0.00000000E+00  0.00000000E+00  0.00000000E+00
  0.00000000E+00  0.00000000E+00  0.00000000E+00
  0.00000000E+00  0.00000000E+00  0.00000000E+00
  0.00000000E+00  0.00000000E+00  0.00000000E+00
  0.00000000E+00  0.00000000E+00  0.00000000E+00
  0.00000000E+00  0.00000000E+00  0.00000000E+00
  0.00000000E+00  0.00000000E+00  0.00000000E+00
  0.00000000E+00  0.00000000E+00  0.00000000E+00
  0.00000000E+00  0.00000000E+00  0.00000000E+00
  0.00000000E+00  0.00000000E+00  0.00000000E+00
  0.00000000E+00  0.00000000E+00  0.00000000E+00
  0.00000000E+00  0.00000000E+00  0.00000000E+00
  0.00000000E+00  0.00000000E+00  0.00000000E+00
  0.00000000E+00  0.00000000E+00  0.00000000E+00
  0.00000000E+00  0.00000000E+00  0.00000000E+00
  0.00000000E+00  0.00000000E+00  0.00000000E+00
  0.00000000E+00  0.00000000E+00  0.00000000E+00
  0.00000000E+00  0.00000000E+00  0.00000000E+00
  0.00000000E+00  0.00000000E+00  0.00000000E+00
  0.00000000E+00  0.00000000E+00  0.00000000E+00
  0.00000000E+00  0.00000000E+00  0.00000000E+00
  0.00000000E+00  0.00000000E+00  0.00000000E+00
  0.00000000E+00  0.00000000E+00  0.00000000E+00
  0.00000000E+00  0.00000000E+00  0.00000000E+00
  0.00000000E+00  0.00000000E+00  0.00000000E+00
  0.00000000E+00  0.00000000E+00  0.00000000E+00
  0.00000000E+00  0.00000000E+00  0.00000000E+00
  0.00000000E+00  0.00000000E+00  0.00000000E+00
  0.00000000E+00  0.00000000E+00  0.00000000E+00
  0.00000000E+00  0.00000000E+00  0.00000000E+00
  0.00000000E+00  0.00000000E+00  0.00000000E+00
  0.00000000E+00  0.00000000E+00  0.00000000E+00
  0.00000000E+00  0.00000000E+00  0.00000000E+00
  0.00000000E+00  0.00000000E+00  0.00000000E+00
  0.00000000E+00  0.00000000E+00  0.00000000E+00
  0.00000000E+00  0.00000000E+00  0.00000000E+00
  0.00000000E+00  0.00000000E+00  0.00000000E+00
  0.00000000E+00  0.00000000E+00  0.00000000E+00
  0.00000000E+00  0.00000000E+00  0.00000000E+00
  0.00000000E+00  0.00000000E+00  0.00000000E+00
  0.00000000E+00  0.00000000E+00  0.00000000E+00
  0.00000000E+00  0.00000000E+00  0.00000000E+00
  0.00000000E+00  0.00000000E+00  0.00000000E+00
  0.00000000E+00  0.00000000E+00  0.00000000E+00
  0.00000000E+00  0.00000000E+00  0.00000000E+00
  0.00000000E+00  0.00000000E+00  0.00000000E+00
  0.00000000E+00  0.00000000E+00  0.00000000E+00
  0.00000000E+00  0.00000000E+00  0.00000000E+00
  0.00000000E+00  0.00000000E+00  0.00000000E+00
  0.00000000E+00  0.00000000E+00  0.00000000E+00
  0.00000000E+00  0.00000000E+00  0.00000000E+00
  0.00000000E+00  0.00000000E+00  0.00000000E+00
